38

N      4.829383   -1.909828    0.717746
C      4.206187   -0.641234    0.529083
C      4.518388    0.409171    1.400526
C      3.912247    1.657913    1.244002
C      2.990069    1.863477    0.216201
C      2.673797    0.822043   -0.659764
C      3.281521   -0.438278   -0.517476
C      2.886261   -1.564784   -1.444819
C      1.824082   -2.477958   -0.815839
C      0.535899   -1.739494   -0.554682
C     -0.369326   -1.507022   -1.600187
C     -1.538898   -0.776646   -1.372754
C     -1.821311   -0.259642   -0.095437
C     -3.060674    0.522445    0.145840
C     -3.799460    0.345196    1.331240
C     -4.965641    1.083184    1.556063
C     -5.406455    2.004926    0.603963
C     -4.682121    2.190549   -0.575571
C     -3.515761    1.454645   -0.806197
C     -0.907445   -0.490315    0.948487
C      0.261355   -1.221047    0.719815
H      5.228913    0.256802    2.203337
H      4.154948    2.465768    1.922181
H      2.516280    2.829693    0.100452
H      1.946065    0.994906   -1.443168
H      2.504565   -1.158781   -2.407607
H      3.782043   -2.172184   -1.696933
H      2.216444   -2.920000    0.126101
H      1.625973   -3.325848   -1.507067
H     -0.166646   -1.888725   -2.593263
H     -2.228614   -0.626865   -2.193808
H     -3.485421   -0.375800    2.075478
H     -5.529799    0.937622    2.468250
H     -6.309193    2.575416    0.780256
H     -5.022579    2.908105   -1.310928
H     -2.960722    1.627527   -1.719635
H     -1.084812   -0.085460    1.936889
H      0.960460   -1.369480    1.533655
