38

N     -4.062197    1.119921    2.080767
C     -4.681349    0.278752    1.109832
C     -6.073883    0.311040    0.967406
C     -6.702946   -0.491960    0.013050
C     -5.943245   -1.328136   -0.807370
C     -4.552837   -1.367409   -0.672507
C     -3.908530   -0.575679    0.294250
C     -2.403646   -0.610065    0.399540
C     -1.776388    0.476010   -0.479625
C     -0.275667    0.443504   -0.370500
C      0.377280    1.181597    0.627567
C      1.768380    1.126452    0.751041
C      2.531253    0.322587   -0.115275
C      4.009568    0.262514    0.016665
C      4.751931    1.428111    0.286476
C      6.143492    1.368963    0.409869
C      6.808757    0.149382    0.266956
C      6.083846   -1.014038   -0.000143
C      4.692221   -0.960743   -0.125525
C      1.870240   -0.426944   -1.105250
C      0.479147   -0.370018   -1.228229
H     -6.669770    0.962438    1.594474
H     -7.779586   -0.462198   -0.094036
H     -6.431782   -1.944235   -1.551193
H     -3.977576   -2.014498   -1.323269
H     -2.091357   -0.468690    1.457295
H     -2.025858   -1.607737    0.083301
H     -2.080527    0.322191   -1.538705
H     -2.153551    1.475715   -0.170145
H     -0.191987    1.796321    1.314007
H      2.245522    1.696501    1.538281
H      4.258806    2.387064    0.384325
H      6.706752    2.270593    0.613224
H      7.885932    0.105851    0.363259
H      6.600197   -1.959317   -0.106826
H      4.149164   -1.877959   -0.315520
H      2.430100   -1.046379   -1.794571
H     -0.009904   -0.959503   -1.994017
