38

N      3.957944   -2.481189   -0.258241
C      4.643769   -1.263098    0.023765
C      6.014528   -1.301327    0.306677
C      6.705893   -0.123777    0.601155
C      6.030039    1.097833    0.619085
C      4.662006    1.146083    0.337801
C      3.957431   -0.029641    0.025016
C      2.474228    0.042413   -0.243052
C      1.681227   -0.178069    1.048646
C      0.202054   -0.109890    0.779343
C     -0.503379   -1.263845    0.407842
C     -1.870480   -1.195792    0.125259
C     -2.554976    0.030911    0.198382
C     -4.007560    0.103904   -0.103446
C     -4.883023   -0.903951    0.344114
C     -6.250059   -0.832732    0.058969
C     -6.758089    0.241363   -0.674929
C     -5.900099    1.247130   -1.125121
C     -4.532323    1.181653   -0.842142
C     -1.839789    1.187819    0.557347
C     -0.472910    1.118086    0.840681
H      6.544620   -2.245573    0.302410
H      7.765192   -0.158941    0.820598
H      6.565899    2.008284    0.854570
H      4.150936    2.100648    0.365248
H      2.185322   -0.719271   -0.999842
H      2.216067    1.036070   -0.672102
H      1.938107   -1.169002    1.483970
H      1.963753    0.594456    1.797778
H      0.006956   -2.216185    0.331969
H     -2.387804   -2.099570   -0.171266
H     -4.513792   -1.736950    0.929022
H     -6.916572   -1.609742    0.410489
H     -7.816541    0.294269   -0.894828
H     -6.294422    2.077081   -1.697173
H     -3.883344    1.963548   -1.215989
H     -2.340301    2.144898    0.633475
H      0.059494    2.022096    1.109770
