38

N     -4.829931    1.970834   -0.826932
C     -4.221871    0.822337   -0.239977
C     -4.629710    0.409975    1.034329
C     -4.040891   -0.704816    1.635826
C     -3.040586   -1.413098    0.967419
C     -2.628512   -1.010603   -0.305419
C     -3.217455    0.106066   -0.925240
C     -2.720460    0.553889   -2.280842
C     -1.694506    1.690679   -2.167447
C     -0.449778    1.249683   -1.440038
C     -0.294967    1.518687   -0.071764
C      0.833738    1.063217    0.614475
C      1.826596    0.324911   -0.054312
C      3.023393   -0.164756    0.676306
C      3.535708   -1.452778    0.429310
C      4.661719   -1.911557    1.119792
C      5.288449   -1.092602    2.061567
C      4.790111    0.187082    2.315507
C      3.663837    0.650777    1.628742
C      1.664146    0.052938   -1.424798
C      0.534560    0.508768   -2.109874
H     -5.401481    0.956614    1.561702
H     -4.357805   -1.017683    2.622303
H     -2.580667   -2.272611    1.437694
H     -1.841684   -1.563337   -0.804002
H     -2.268550   -0.301359   -2.830225
H     -3.578000    0.900691   -2.896696
H     -2.154487    2.564448   -1.656030
H     -1.419998    2.028727   -3.190348
H     -1.056409    2.068338    0.467869
H      0.918324    1.268550    1.674187
H      3.055580   -2.111220   -0.283612
H      5.046479   -2.904653    0.926746
H      6.160122   -1.449656    2.594645
H      5.278818    0.822207    3.043058
H      3.304731    1.652318    1.829498
H      2.416808   -0.502037   -1.970486
H      0.424629    0.280820   -3.162933
