38

N     -4.435898    2.452929    1.109667
C     -4.026978    1.312581    0.357544
C     -4.469665    1.171160   -0.963166
C     -4.073095    0.069330   -1.724727
C     -3.231288   -0.896860   -1.170774
C     -2.786300   -0.765675    0.147061
C     -3.182929    0.335443    0.926970
C     -2.647476    0.483930    2.332874
C     -1.433376    1.422500    2.386844
C     -0.270159    0.877223    1.597846
C      0.552914   -0.115973    2.148026
C      1.598574   -0.662034    1.398667
C      1.834375   -0.230351    0.080900
C      2.939325   -0.817276   -0.719272
C      2.754849   -1.117238   -2.082534
C      3.796544   -1.670953   -2.833127
C      5.031204   -1.930415   -2.234180
C      5.226816   -1.637288   -0.882783
C      4.188396   -1.084401   -0.127023
C      1.002197    0.761386   -0.468731
C     -0.041022    1.308596    0.282583
H     -5.118816    1.918497   -1.402093
H     -4.415737   -0.033676   -2.746219
H     -2.919443   -1.746441   -1.764421
H     -2.122583   -1.517344    0.556523
H     -3.444505    0.885039    2.995276
H     -2.368132   -0.509447    2.748403
H     -1.718458    2.430083    2.012544
H     -1.127443    1.551774    3.447815
H      0.377262   -0.475286    3.154515
H      2.207884   -1.439545    1.841994
H      1.800759   -0.940720   -2.563098
H      3.644869   -1.902309   -3.879557
H      5.836261   -2.358756   -2.817173
H      6.185256   -1.835563   -0.420585
H      4.367446   -0.849765    0.914725
H      1.165155    1.122938   -1.476195
H     -0.676784    2.062573   -0.165116
