38

N      4.749221   -1.995916    1.045712
C      4.141485   -1.118335    0.100299
C      4.370266   -1.322248   -1.265831
C      3.776676   -0.483615   -2.212196
C      2.950435    0.562897   -1.798457
C      2.717972    0.775680   -0.437351
C      3.314472   -0.057162    0.526259
C      3.008266    0.159936    1.990607
C      1.896631   -0.775419    2.487707
C      0.587714   -0.508818    1.788702
C      0.197519   -1.290970    0.691209
C     -0.989548   -1.009950    0.009849
C     -1.806182    0.062819    0.410367
C     -3.064833    0.365648   -0.317637
C     -3.435169    1.697719   -0.583930
C     -4.620002    1.979640   -1.270830
C     -5.447261    0.938760   -1.698179
C     -5.091181   -0.386761   -1.440069
C     -3.907040   -0.674675   -0.754454
C     -1.407899    0.847532    1.507721
C     -0.220177    0.565593    2.188089
H      5.005862   -2.134609   -1.595459
H      3.954490   -0.647365   -3.267197
H      2.485887    1.207614   -2.533290
H      2.063406    1.583763   -0.134460
H      2.713741    1.217097    2.172702
H      3.925144   -0.015561    2.593481
H      1.764530   -0.625164    3.581294
H      2.203782   -1.834834    2.346643
H      0.820773   -2.109679    0.353002
H     -1.256763   -1.617719   -0.845439
H     -2.800499    2.519646   -0.277407
H     -4.895035    3.006397   -1.474977
H     -6.364101    1.159308   -2.229438
H     -5.734914   -1.192484   -1.768649
H     -3.659109   -1.708782   -0.550739
H     -2.021152    1.672353    1.848108
H      0.072592    1.187666    3.024922
