38

N      4.027713    0.978561    2.142000
C      4.671822    0.646250    0.913862
C      6.027350    0.955599    0.748564
C      6.677261    0.654278   -0.450663
C      5.974732    0.046393   -1.492947
C      4.621623   -0.266390   -1.337284
C      3.959394    0.017672   -0.130078
C      2.490117   -0.299103    0.003420
C      1.638948    0.907214   -0.404321
C      0.173847    0.591510   -0.266706
C     -0.486472    0.813687    0.950618
C     -1.839009    0.490158    1.089960
C     -2.553348   -0.072328    0.016644
C     -3.990411   -0.417748    0.164864
C     -4.501639   -1.607835   -0.387340
C     -5.854790   -1.930411   -0.245542
C     -6.711534   -1.071394    0.446169
C     -6.216857    0.112181    0.998277
C     -4.864428    0.439445    0.860444
C     -1.882730   -0.306561   -1.197519
C     -0.530410    0.018437   -1.335758
H      6.577572    1.434058    1.549158
H      7.724875    0.896812   -0.573909
H      6.478151   -0.179753   -2.424046
H      4.089019   -0.729156   -2.159063
H      2.255970   -0.591698    1.050283
H      2.231832   -1.169899   -0.639296
H      1.895724    1.782151    0.232853
H      1.866720    1.187462   -1.456649
H      0.048007    1.233089    1.794174
H     -2.320774    0.660468    2.044562
H     -3.852418   -2.296981   -0.912585
H     -6.238548   -2.849337   -0.669638
H     -7.758670   -1.322920    0.554410
H     -6.882588    0.778939    1.530993
H     -4.506300    1.370246    1.281979
H     -2.407520   -0.727742   -2.045758
H     -0.032231   -0.175355   -2.277754
