38

N      3.975094   -2.489681   -0.161257
C      4.640877   -1.252239    0.081857
C      6.035763   -1.195101   -0.025413
C      6.710094    0.008644    0.192771
C      5.993566    1.162920    0.514747
C      4.601181    1.115731    0.624303
C      3.911527   -0.092618    0.422160
C      2.405468   -0.112460    0.513477
C      1.778314    0.132839   -0.862187
C      0.276263    0.108630   -0.770610
C     -0.434825    1.283874   -0.487029
C     -1.827147    1.255830   -0.368051
C     -2.533200    0.048913   -0.521764
C     -4.012871    0.017826   -0.395096
C     -4.789451   -0.768535   -1.267496
C     -6.182205   -0.795794   -1.146419
C     -6.814656   -0.041713   -0.155586
C     -6.055645    0.741845    0.716379
C     -4.662634    0.773731    0.599394
C     -1.814077   -1.129270   -0.792739
C     -0.421692   -1.099912   -0.910423
H      6.598355   -2.083997   -0.282261
H      7.788356    0.047807    0.107183
H      6.517160    2.096333    0.676342
H      4.059773    2.022285    0.865505
H      2.060057    0.671113    1.223959
H      2.060144   -1.088569    0.918841
H      2.115852    1.116557   -1.257381
H      2.123214   -0.645883   -1.577781
H      0.089304    2.223098   -0.359585
H     -2.352693    2.181562   -0.170241
H     -4.321698   -1.347785   -2.053636
H     -6.771788   -1.399824   -1.823981
H     -7.892830   -0.064617   -0.063430
H     -6.546679    1.322805    1.486394
H     -4.093258    1.374659    1.297243
H     -2.326462   -2.077865   -0.892726
H      0.113450   -2.021141   -1.105647
