38

N      4.100244   -2.043372    1.075499
C      4.710773   -0.856299    0.573759
C      6.090784   -0.846099    0.337237
C      6.710113    0.299308   -0.168533
C      5.952800    1.439227   -0.445097
C      4.574875    1.438709   -0.212095
C      3.941548    0.297692    0.310938
C      2.447687    0.309188    0.523522
C      1.722117   -0.219801   -0.717309
C      0.232509   -0.211847   -0.502525
C     -0.405123   -1.320186    0.073905
C     -1.783515   -1.301312    0.304394
C     -2.547970   -0.168134   -0.027564
C     -4.012669   -0.147124    0.218699
C     -4.638865    1.012017    0.715551
C     -6.017777    1.028371    0.946877
C     -6.786085   -0.108100    0.685108
C     -6.177008   -1.263985    0.191819
C     -4.798353   -1.286436   -0.040502
C     -1.901301    0.946298   -0.592052
C     -0.522981    0.925620   -0.822942
H      6.684184   -1.728509    0.541795
H      7.776983    0.301536   -0.350987
H      6.433261    2.323392   -0.843757
H      4.000620    2.328089   -0.440951
H      2.183109   -0.308514    1.409411
H      2.105242    1.345465    0.740182
H      1.979137    0.409654   -1.597956
H      2.063483   -1.254669   -0.940822
H      0.166615   -2.197763    0.349812
H     -2.248061   -2.165617    0.762150
H     -4.060469    1.898852    0.941993
H     -6.490367    1.922364    1.332863
H     -7.853344   -0.093080    0.864577
H     -6.774082   -2.142979   -0.014152
H     -4.350073   -2.187831   -0.439087
H     -2.463566    1.829193   -0.868928
H     -0.044476    1.796679   -1.253507
