38

N      4.890170   -0.887283    1.644202
C      4.229136   -0.081952    0.670666
C      4.530207    1.283320    0.595574
C      3.887197    2.095841   -0.341242
C      2.939183    1.548497   -1.207678
C      2.633842    0.186747   -1.141949
C      3.278300   -0.643893   -0.207740
C      2.894439   -2.103394   -0.119247
C      1.870104   -2.359272    0.995708
C      0.568924   -1.644242    0.733826
C     -0.365666   -2.183701   -0.161779
C     -1.548350   -1.496288   -0.447869
C     -1.813602   -0.251301    0.150557
C     -3.065760    0.484200   -0.160594
C     -4.289051   -0.202834   -0.278229
C     -5.466351    0.492225   -0.571537
C     -5.436678    1.876839   -0.751607
C     -4.229412    2.569763   -0.638421
C     -3.049179    1.880075   -0.344309
C     -0.870282    0.288641    1.043177
C      0.310371   -0.401047    1.330585
H      5.260682    1.716848    1.267157
H      4.121409    3.151263   -0.393111
H      2.436899    2.180782   -1.928357
H      1.885891   -0.218631   -1.812342
H      3.800787   -2.716496    0.074547
H      2.482310   -2.455587   -1.090639
H      2.293709   -2.048578    1.975821
H      1.679767   -3.452511    1.063263
H     -0.172576   -3.132447   -0.647141
H     -2.244569   -1.927650   -1.156056
H     -4.338159   -1.273741   -0.126254
H     -6.403207   -0.043227   -0.656032
H     -6.349111    2.412773   -0.979011
H     -4.206995    3.642319   -0.782180
H     -2.121877    2.435210   -0.278543
H     -1.050611    1.239406    1.528757
H      1.028110    0.039330    2.011782
