38

N      4.047643   -2.366867    0.125726
C      4.687914   -1.093018    0.094165
C      6.061043   -1.012627    0.355949
C      6.708499    0.225126    0.346190
C      5.986179    1.389809    0.079368
C      4.615396    1.319627   -0.183300
C      3.954546    0.078740   -0.191545
C      2.467865    0.030702   -0.445350
C      1.692818    0.100972    0.873858
C      0.210315    0.048679    0.619730
C     -0.511379    1.229899    0.393590
C     -1.881836    1.179751    0.123703
C     -2.553997   -0.054620    0.066132
C     -4.010352   -0.109168   -0.221072
C     -4.842930   -1.009736    0.470529
C     -6.213624   -1.058877    0.198591
C     -6.767999   -0.213165   -0.764644
C     -5.952818    0.684110   -1.458017
C     -4.581622    0.738328   -1.189574
C     -1.822902   -1.237112    0.280355
C     -0.452299   -1.185509    0.549115
H      6.627109   -1.910278    0.571372
H      7.769856    0.281991    0.550629
H      6.488143    2.348743    0.079372
H      4.068102    2.233571   -0.379040
H      2.168622    0.881180   -1.097439
H      2.203397   -0.901253   -0.991130
H      1.990878   -0.745260    1.531500
H      1.950270    1.041469    1.409578
H     -0.012656    2.190728    0.427939
H     -2.418599    2.108159   -0.025466
H     -4.437631   -1.662703    1.233224
H     -6.847037   -1.751301    0.737931
H     -7.829189   -0.253174   -0.973806
H     -6.382988    1.336326   -2.207098
H     -3.966078    1.429470   -1.751465
H     -2.306755   -2.203807    0.219083
H      0.094097   -2.108905    0.697244
