38

N      4.051059   -2.278928    0.522464
C      4.670004   -0.994243    0.511404
C      6.064671   -0.909324    0.420998
C      6.693900    0.337514    0.392858
C      5.932332    1.506340    0.450184
C      4.539783    1.431715    0.540769
C      3.894970    0.183187    0.585265
C      2.388447    0.127230    0.650084
C      1.790227    0.054307   -0.758021
C      0.287844   -0.005761   -0.691946
C     -0.366867   -1.241705   -0.586798
C     -1.760202   -1.297251   -0.492036
C     -2.523818   -0.115912   -0.489501
C     -4.004542   -0.174496   -0.387230
C     -4.732106   -1.154907   -1.088630
C     -6.125964   -1.207710   -0.990974
C     -6.808289   -0.286167   -0.193746
C     -6.098175    0.690763    0.507490
C     -4.704318    0.748957    0.412857
C     -1.861332    1.121667   -0.580568
C     -0.467983    1.175655   -0.676323
H      6.662174   -1.810898    0.368364
H      7.772224    0.397707    0.321424
H      6.421152    2.471596    0.420963
H      3.963291    2.348033    0.574787
H      2.064157   -0.753891    1.245751
H      1.999365    1.029366    1.172430
H      2.106190    0.944732   -1.345492
H      2.178807   -0.844162   -1.286411
H      0.202647   -2.162906   -0.573012
H     -2.238933   -2.263989   -0.399298
H     -4.225365   -1.868728   -1.725820
H     -6.677708   -1.962104   -1.536885
H     -7.887218   -0.329132   -0.119304
H     -6.627805    1.401996    1.128127
H     -4.173199    1.503835    0.978866
H     -2.421477    2.048165   -0.592585
H      0.022059    2.139446   -0.740024
