32

C      3.776233    2.079674   -0.053865
O      2.696948    1.288548   -0.540146
C      2.159317    0.182095    0.134067
C      2.653201   -0.257823    1.375522
C      2.076549   -1.359401    2.011439
C      1.004445   -2.036045    1.421603
N      0.425843   -3.148422    2.100760
C      0.506009   -1.612764    0.173120
C     -0.684832   -2.289833   -0.466378
C     -2.011642   -1.783730    0.117670
C     -2.225694   -0.318804   -0.167387
C     -1.894174    0.648533    0.796861
C     -2.046248    2.008606    0.511001
C     -2.525745    2.412501   -0.737994
C     -2.851053    1.456846   -1.704545
C     -2.698664    0.095558   -1.423553
C      1.090052   -0.500019   -0.456822
H      3.502248    2.543478    0.917253
H      4.685737    1.453526    0.064193
H      3.992416    2.886017   -0.784215
H      3.478721    0.246347    1.858963
H      2.462251   -1.684838    2.969602
H     -0.617327   -3.388286   -0.312209
H     -0.677653   -2.129511   -1.567171
H     -2.038905   -1.974179    1.212938
H     -2.845358   -2.368664   -0.328112
H     -1.508001    0.349836    1.763632
H     -1.787864    2.749690    1.256272
H     -2.641425    3.465835   -0.958235
H     -3.216822    1.771099   -2.673501
H     -2.942700   -0.635004   -2.184856
H      0.704138   -0.150868   -1.407144
