32

C      5.361695    1.179569    1.524260
O      3.977328    1.334066    1.229131
C      3.229679    0.441320    0.446743
C      3.793621   -0.712180   -0.128090
C      3.004795   -1.574549   -0.892604
C      1.649627   -1.298314   -1.098912
N      0.864909   -2.205226   -1.870577
C      1.075110   -0.137418   -0.542575
C     -0.391317    0.172659   -0.718716
C     -1.222931   -0.519548    0.365346
C     -2.685371   -0.212309    0.187163
C     -3.484660   -1.023490   -0.635758
C     -4.835844   -0.717805   -0.826667
C     -5.394978    0.403054   -0.206595
C     -4.602786    1.222652    0.602197
C     -3.251149    0.920622    0.795784
C      1.873223    0.716233    0.238034
H      5.693729    2.026398    2.159071
H      5.955106    1.184731    0.585610
H      5.530535    0.232144    2.078435
H      4.838061   -0.953900    0.013839
H      3.448887   -2.463516   -1.323090
H     -0.733130   -0.154130   -1.725059
H     -0.553733    1.272155   -0.665737
H     -0.886326   -0.179257    1.369688
H     -1.062236   -1.619280    0.318656
H     -3.061081   -1.889464   -1.129413
H     -5.448647   -1.347961   -1.458210
H     -6.440602    0.638985   -0.356453
H     -5.035248    2.094172    1.076435
H     -2.645796    1.568950    1.417233
H      1.439528    1.600639    0.689306
