32

C      3.800074    1.889659    0.771139
O      2.655199    1.089349    1.046773
C      2.156951    0.097529    0.188932
C      2.760680   -0.205566   -1.044884
C      2.219906   -1.195685   -1.868060
C      1.074998   -1.895563   -1.474974
N      0.536334   -2.890972   -2.342396
C      0.465558   -1.609645   -0.236769
C     -0.802449   -2.311221    0.193846
C     -2.048709   -1.683042   -0.446391
C     -2.248593   -0.257002    0.000307
C     -1.794197    0.807614   -0.796899
C     -1.935511    2.127060   -0.356743
C     -2.526717    2.392922    0.881332
C     -2.974834    1.339351    1.682893
C     -2.833732    0.018087    1.247419
C      1.014604   -0.608018    0.582638
H      4.698645    1.246210    0.662785
H      3.638646    2.480634   -0.155112
H      3.964440    2.590132    1.615329
H      3.644729    0.320251   -1.378592
H      2.690765   -1.415827   -2.818103
H     -0.901657   -2.288472    1.301609
H     -0.751058   -3.384068   -0.091255
H     -2.939414   -2.283950   -0.160897
H     -1.970891   -1.735526   -1.554460
H     -1.321243    0.615027   -1.752001
H     -1.582355    2.943298   -0.973534
H     -2.633959    3.414847    1.221288
H     -3.427274    1.546258    2.644093
H     -3.173935   -0.790285    1.882755
H      0.545000   -0.363389    1.527930
