32

C      5.433749    1.658610    0.063161
O      4.060504    1.575599   -0.303919
C      3.253315    0.446146   -0.101716
C      3.739501   -0.730993    0.495773
C      2.893253   -1.826143    0.682638
C      1.557386   -1.766279    0.273708
N      0.712360   -2.894139    0.491884
C      1.061020   -0.598975   -0.341341
C     -0.383557   -0.489933   -0.764292
C     -1.251892   -0.007392    0.401500
C     -2.692678    0.098161   -0.020250
C     -3.546404   -1.012275    0.090024
C     -4.876323   -0.922556   -0.332884
C     -5.359550    0.270798   -0.876796
C     -4.512447    1.375348   -1.002635
C     -3.181827    1.289947   -0.580997
C      1.916065    0.503355   -0.511103
H      5.822464    2.660534   -0.211427
H      6.021293    0.888225   -0.479542
H      5.544778    1.522353    1.159672
H      4.767138   -0.808104    0.823559
H      3.277468   -2.723753    1.151118
H     -0.475245    0.221598   -1.614818
H     -0.750817   -1.474286   -1.128329
H     -0.888969    0.983713    0.753350
H     -1.161920   -0.713990    1.255923
H     -3.181529   -1.945528    0.501037
H     -5.531389   -1.779369   -0.242165
H     -6.388770    0.338160   -1.204852
H     -4.885934    2.296846   -1.430212
H     -2.533089    2.149980   -0.692627
H      1.542046    1.414341   -0.962907
