32

C     -3.458117   -0.881533   -3.265988
O     -3.924243    0.131850   -2.380942
C     -3.132428    0.761073   -1.408624
C     -3.723525    1.740498   -0.604505
C     -2.981306    2.390097    0.383549
C     -1.633592    2.072612    0.577769
N     -0.903579    2.739620    1.605359
C     -1.015095    1.100086   -0.234302
C      0.428709    0.711429   -0.027756
C      0.543964   -0.392651    1.027481
C      1.983654   -0.779676    1.233188
C      2.772457   -0.099507    2.176171
C      4.118983   -0.438098    2.342936
C      4.688794   -1.449202    1.564195
C      3.914055   -2.120691    0.614280
C      2.567136   -1.785260    0.444260
C     -1.774880    0.440083   -1.216052
H     -2.634055   -0.487501   -3.897585
H     -4.291527   -1.197603   -3.926187
H     -3.109112   -1.762851   -2.687414
H     -4.766614    1.995537   -0.742962
H     -3.457537    3.140043    1.002804
H      1.023121    1.597666    0.284599
H      0.864728    0.354951   -0.987381
H      0.108655   -0.041420    1.989026
H     -0.042365   -1.281476    0.704924
H      2.345234    0.692292    2.779129
H      4.721659    0.085851    3.073504
H      5.731457   -1.709127    1.693590
H      4.358149   -2.898874    0.007085
H      1.980048   -2.306593   -0.301749
H     -1.302827   -0.321625   -1.822402
