32

C      5.378685    1.828160    0.216756
O      3.983290    1.704263    0.471637
C      3.230662    0.548496    0.215006
C      3.800217   -0.616725   -0.329872
C      3.006362   -1.739333   -0.574728
C      1.640356   -1.718951   -0.276466
N      0.851286   -2.874425   -0.552130
C      1.059532   -0.563764    0.285181
C     -0.417437   -0.497573    0.588103
C     -1.202200   -0.050653   -0.648963
C     -2.675190    0.012119   -0.346913
C     -3.245172    1.191579    0.161073
C     -4.607785    1.237693    0.472166
C     -5.407171    0.106089    0.288020
C     -4.844415   -1.075013   -0.203656
C     -3.482261   -1.125473   -0.516031
C      1.863324    0.566181    0.513643
H      5.583015    1.687992   -0.865757
H      5.712473    2.843733    0.512641
H      5.943546    1.080474    0.812680
H      4.853079   -0.663536   -0.572190
H      3.455148   -2.627516   -1.001952
H     -0.600245    0.216467    1.421654
H     -0.782551   -1.490547    0.930223
H     -0.842636    0.949034   -0.979330
H     -1.020904   -0.759819   -1.486596
H     -2.634662    2.072425    0.317173
H     -5.043301    2.149770    0.859354
H     -6.461335    0.143074    0.530551
H     -5.463037   -1.952701   -0.339462
H     -3.056316   -2.049460   -0.887304
H      1.425643    1.467941    0.924951
