32

C     -3.633079   -2.185668   -0.750713
O     -2.668535   -1.149202   -0.901059
C     -2.124223   -0.413460    0.162076
C     -2.495213   -0.634993    1.500711
C     -1.916403    0.117850    2.524723
C     -0.964125    1.098618    2.230751
N     -0.378972    1.841795    3.297851
C     -0.590464    1.338556    0.893170
C      0.473670    2.354831    0.546347
C      1.888181    1.786431    0.730081
C      2.156410    0.638855   -0.210241
C      1.999850   -0.688210    0.225425
C      2.200144   -1.749139   -0.662805
C      2.553746   -1.493839   -1.990520
C      2.704590   -0.176765   -2.433107
C      2.503342    0.887397   -1.548605
C     -1.175221    0.572330   -0.130105
H     -3.219415   -3.004111   -0.124387
H     -4.559028   -1.781627   -0.289666
H     -3.883665   -2.595433   -1.750530
H     -3.226064   -1.388415    1.760707
H     -2.206351   -0.066116    3.551776
H      0.347379    2.707005   -0.501280
H      0.357742    3.252130    1.191591
H      2.626644    2.595395    0.539806
H      2.031900    1.465638    1.785099
H      1.712107   -0.899796    1.247889
H      2.076604   -2.769234   -0.322897
H      2.706924   -2.316237   -2.677248
H      2.972801    0.019812   -3.463076
H      2.611421    1.903828   -1.906434
H     -0.882696    0.731770   -1.161103
