32

C     -5.516323   -0.868829   -1.070323
O     -4.109475   -0.744274   -1.251172
C     -3.260828   -0.028363   -0.393633
C     -3.734773    0.644631    0.747192
C     -2.847825    1.336982    1.574466
C     -1.482355    1.373023    1.275227
N     -0.597934    2.074328    2.146841
C     -0.995854    0.716919    0.126269
C      0.475994    0.708842   -0.207172
C      1.185120   -0.443902    0.509937
C      2.653288   -0.449401    0.179286
C      3.125368   -1.155442   -0.939957
C      4.485412   -1.132387   -1.264562
C      5.380259   -0.397854   -0.481515
C      4.915932    0.318391    0.625208
C      3.556712    0.298049    0.953379
C     -1.893778    0.009958   -0.691649
H     -5.995136    0.132742   -1.099008
H     -5.734129   -1.369468   -0.103290
H     -5.934191   -1.485966   -1.891831
H     -4.784684    0.634697    1.006066
H     -3.223965    1.844328    2.454193
H      0.939052    1.677391    0.082388
H      0.613528    0.602973   -1.306241
H      1.048571   -0.344461    1.609426
H      0.727248   -1.411502    0.206768
H      2.440819   -1.720801   -1.560233
H      4.845105   -1.681197   -2.125320
H      6.432362   -0.379988   -0.734915
H      5.608777    0.892327    1.226902
H      3.208040    0.864898    1.807858
H     -1.530336   -0.516648   -1.566011
