32

C      5.383115    1.791971   -0.476272
O      4.005814    1.585794   -0.772878
C      3.238214    0.523268   -0.272947
C      3.772718   -0.454506    0.585709
C      2.964711   -1.488637    1.063312
C      1.619485   -1.566068    0.689517
N      0.814354   -2.623991    1.205561
C      1.074749   -0.602457   -0.183396
C     -0.380924   -0.638477   -0.580009
C     -1.239498    0.098822    0.452059
C     -2.691259    0.059774    0.057415
C     -3.228463    1.060796   -0.769279
C     -4.569515    1.005009   -1.161818
C     -5.379323   -0.053489   -0.740811
C     -4.848335   -1.060392    0.070138
C     -3.507823   -1.008483    0.465004
C      1.891679    0.443119   -0.646483
H      5.520867    1.937246    0.616041
H      5.734976    2.702596   -1.002870
H      5.982853    0.925065   -0.825577
H      4.808785   -0.421696    0.893796
H      3.386027   -2.230670    1.730154
H     -0.725062   -1.691378   -0.676557
H     -0.512057   -0.164913   -1.578317
H     -1.110116   -0.369003    1.452966
H     -0.900180    1.155113    0.535212
H     -2.609040    1.881288   -1.109994
H     -4.980040    1.780627   -1.795346
H     -6.416694   -0.095857   -1.046620
H     -5.474614   -1.883157    0.389988
H     -3.105885   -1.799836    1.085676
H      1.480482    1.202523   -1.300802
