32

C      5.320042    1.477092   -0.958291
O      3.927019    1.557635   -0.674670
C      3.211130    0.599436    0.058448
C      3.819307   -0.552419    0.589840
C      3.061139   -1.481309    1.305909
C      1.692875   -1.274046    1.506520
N      0.940710   -2.247515    2.227869
C      1.073602   -0.116091    0.993781
C     -0.406968    0.121417    1.164320
C     -1.195186   -0.558378    0.040703
C     -2.671653   -0.323445    0.213124
C     -3.280321    0.809069   -0.353440
C     -4.646032    1.042989   -0.164410
C     -5.409975    0.155117    0.598170
C     -4.808605   -0.966136    1.176606
C     -3.443215   -1.203846    0.990083
C      1.841609    0.805209    0.261369
H      5.621168    2.364772   -1.551332
H      5.536827    0.563282   -1.550899
H      5.902265    1.466943   -0.012701
H      4.874932   -0.741674    0.451038
H      3.539451   -2.368039    1.703056
H     -0.744929   -0.263835    2.151092
H     -0.617383    1.214005    1.156928
H     -0.986539   -1.651025    0.041880
H     -0.862941   -0.160083   -0.943561
H     -2.697493    1.509679   -0.938621
H     -5.111424    1.914572   -0.606255
H     -6.466588    0.338355    0.744606
H     -5.399790   -1.649367    1.772565
H     -2.987153   -2.071126    1.451449
H      1.374118    1.688760   -0.156602
