32

C      5.348591    1.340322    1.402761
O      3.965026    1.459344    1.088083
C      3.225519    0.493305    0.389511
C      3.797735   -0.706153   -0.071893
C      3.016824   -1.640485   -0.755713
C      1.661452   -1.391756   -0.993305
N      0.884897   -2.371076   -1.680059
C      1.078723   -0.186721   -0.551064
C     -0.388211    0.097976   -0.762339
C     -1.222123   -0.493626    0.378063
C     -2.685045   -0.211949    0.165011
C     -3.476325   -1.100858   -0.581847
C     -4.827917   -0.821346   -0.806918
C     -5.395426    0.349893   -0.297433
C     -4.611211    1.245817    0.434539
C     -3.259197    0.970198    0.661939
C      1.868876    0.740481    0.149654
H      5.673460    2.244684    1.956785
H      5.946703    1.260403    0.470504
H      5.519052    0.449970    2.044204
H      4.842555   -0.928145    0.096921
H      3.467229   -2.563647   -1.098795
H     -0.555987    1.196749   -0.813594
H     -0.723373   -0.323577   -1.735126
H     -0.892240   -0.058817    1.347557
H     -1.056080   -1.592048    0.435615
H     -3.046198   -2.007163   -0.990048
H     -5.434538   -1.511115   -1.379371
H     -6.441352    0.565376   -0.473660
H     -5.050144    2.155782    0.822837
H     -2.660059    1.677074    1.222600
H      1.428784    1.661107    0.513903
