32

C      5.615946    0.749906   -0.467859
O      4.222261    1.019832   -0.357306
C      3.278408    0.116273    0.153404
C      3.632728   -1.165842    0.611299
C      2.654125   -2.032186    1.103431
C      1.314773   -1.633178    1.151151
N      0.334937   -2.544804    1.643696
C      0.947745   -0.345242    0.710957
C     -0.492891    0.104307    0.718419
C     -1.197735   -0.322505   -0.572684
C     -2.635049    0.123494   -0.563098
C     -3.628685   -0.699780   -0.007234
C     -4.958907   -0.270070    0.030791
C     -5.304175    0.985950   -0.475811
C     -4.319030    1.816276   -1.017568
C     -2.987591    1.390493   -1.057552
C      1.937279    0.513783    0.203068
H      6.047016    0.550320    0.535920
H      6.123300    1.635277   -0.902673
H      5.784406   -0.120551   -1.136557
H      4.659549   -1.504152    0.586549
H      2.938534   -3.019562    1.445481
H     -0.542441    1.211250    0.819919
H     -1.022205   -0.322653    1.598126
H     -1.148874   -1.428569   -0.680615
H     -0.672621    0.118042   -1.449026
H     -3.372558   -1.671313    0.397177
H     -5.721573   -0.909445    0.456247
H     -6.333981    1.317563   -0.444415
H     -4.586524    2.791482   -1.403433
H     -2.232207    2.047130   -1.471319
H      1.666039    1.498476   -0.158484
