31

C     -1.517645    1.219979    1.145927
C     -1.744716   -0.026431    0.330821
C     -2.459485   -1.091798    0.907809
C     -2.709766   -2.257164    0.182233
C     -2.256084   -2.374539   -1.129817
C     -1.547921   -1.328029   -1.721140
C     -1.280799   -0.145556   -1.006969
C     -0.470849    0.936821   -1.693580
C      1.014611    0.560123   -1.807431
C      1.685762    0.494810   -0.455816
C      1.743303   -0.731407    0.230036
C      2.319321   -0.805480    1.500667
C      2.841096    0.342017    2.100695
C      2.785478    1.567602    1.432863
C      2.208057    1.652442    0.160243
N      2.143397    2.919554   -0.490539
H     -1.903775    1.109707    2.181562
H     -0.434224    1.440389    1.216409
H     -2.043166    2.077067    0.675481
H     -2.827161   -1.022632    1.924190
H     -3.259461   -3.070438    0.638313
H     -2.452196   -3.279400   -1.690438
H     -1.200382   -1.441210   -2.740813
H     -0.569491    1.919878   -1.189846
H     -0.873982    1.082432   -2.719463
H      1.528496    1.310092   -2.446396
H      1.118908   -0.413273   -2.335072
H      1.333036   -1.629045   -0.216149
H      2.357723   -1.753103    2.022151
H      3.285488    0.282572    3.085791
H      3.186426    2.454023    1.908280
