31

C      1.807363   -2.238424   -0.642887
C      2.444640   -0.888962   -0.435410
C      3.830399   -0.818450   -0.205522
C      4.458531    0.414060   -0.018910
C      3.714400    1.591868   -0.062266
C      2.340010    1.542778   -0.299364
C      1.690563    0.311945   -0.502915
C      0.195726    0.315482   -0.729605
C     -0.554611    0.301366    0.606526
C     -2.045128    0.253586    0.377843
C     -2.692360   -0.991984    0.299352
C     -4.066872   -1.061291    0.056944
C     -4.806563    0.109657   -0.119757
C     -4.172797    1.353104   -0.059693
C     -2.795997    1.432658    0.182368
N     -2.170043    2.713342    0.222510
H      0.921885   -2.353607    0.015473
H      1.496550   -2.344889   -1.703183
H      2.511133   -3.063735   -0.403000
H      4.429059   -1.720237   -0.167437
H      5.524951    0.455448    0.161775
H      4.203312    2.545708    0.088465
H      1.778331    2.468748   -0.324309
H     -0.090989    1.224718   -1.302959
H     -0.113386   -0.552123   -1.349933
H     -0.238745   -0.579120    1.207532
H     -0.286659    1.202918    1.199340
H     -2.131223   -1.910068    0.424107
H     -4.558265   -2.024141    0.002486
H     -5.870827    0.053576   -0.308711
H     -4.752389    2.256067   -0.205788
