31

C      1.300381    0.424487    1.798226
C      1.703327    0.363005    0.347934
C      2.447961    1.426583   -0.193490
C      2.859075    1.401950   -1.526741
C      2.538579    0.314786   -2.336950
C      1.803358   -0.751322   -1.818099
C      1.375159   -0.745809   -0.477856
C      0.544662   -1.915925    0.012140
C     -0.887897   -1.878066   -0.542656
C     -1.672128   -0.705939   -0.001663
C     -1.690557    0.504263   -0.717474
C     -2.372262    1.614620   -0.213319
C     -3.039820    1.530139    1.009899
C     -3.024892    0.335706    1.733954
C     -2.342505   -0.781771    1.238205
N     -2.323601   -1.982245    2.007475
H      0.200559    0.333205    1.895193
H      1.597975    1.386529    2.266960
H      1.794043   -0.395711    2.360065
H      2.714145    2.280390    0.417382
H      3.430113    2.227459   -1.931760
H      2.859310    0.298100   -3.370576
H      1.561099   -1.584897   -2.466011
H      1.026489   -2.858210   -0.328584
H      0.515181   -1.976946    1.119067
H     -0.862640   -1.842748   -1.653916
H     -1.401457   -2.827620   -0.279198
H     -1.168389    0.590396   -1.662502
H     -2.379706    2.542733   -0.770061
H     -3.565998    2.392082    1.399286
H     -3.539562    0.280777    2.685069
