31

C     -1.874243   -2.062198    0.853685
C     -2.471099   -0.832599    0.219596
C     -3.819208   -0.858903   -0.180475
C     -4.410441    0.263814   -0.762202
C     -3.666840    1.427767   -0.949585
C     -2.330693    1.476362   -0.549689
C     -1.720287    0.360286    0.050265
C     -0.262868    0.459657    0.440124
C      0.640364    0.107140   -0.746618
C      2.092826    0.157508   -0.341604
C      2.715709   -1.006179    0.142506
C      4.051175   -0.975633    0.552927
C      4.774521    0.217189    0.494333
C      4.162808    1.384068    0.029980
C      2.825116    1.363431   -0.383124
N      2.219112    2.571691   -0.837491
H     -0.917997   -2.327926    0.357946
H     -1.692149   -1.874346    1.932443
H     -2.551537   -2.938042    0.763432
H     -4.416679   -1.752071   -0.045043
H     -5.447549    0.230162   -1.070235
H     -4.126430    2.294890   -1.406139
H     -1.768182    2.388446   -0.708466
H     -0.036740   -0.203267    1.301806
H     -0.038484    1.495493    0.778274
H      0.452123    0.811085   -1.586291
H      0.390562   -0.909074   -1.122307
H      2.165618   -1.937284    0.203828
H      4.524545   -1.877056    0.920169
H      5.808381    0.238849    0.813974
H      4.728565    2.306742   -0.004729
