31

C     -1.828550    0.439136    1.252339
C     -1.745963   -0.322059   -0.045063
C     -2.349664   -1.590080   -0.125630
C     -2.314353   -2.321455   -1.313494
C     -1.681917   -1.796920   -2.438649
C     -1.079802   -0.539795   -2.380069
C     -1.099881    0.213360   -1.191797
C     -0.391543    1.553947   -1.183015
C      1.137125    1.397775   -1.167540
C      1.629528    0.789628    0.124463
C      1.793254   -0.604010    0.215450
C      2.204448   -1.191705    1.414332
C      2.453911   -0.396465    2.534330
C      2.289829    0.988672    2.459361
C      1.875800    1.586713    1.263073
N      1.694020    3.000331    1.219292
H     -2.419060    1.367546    1.105903
H     -2.322760   -0.157688    2.048175
H     -0.812676    0.696468    1.611675
H     -2.851995   -2.017144    0.733604
H     -2.781191   -3.296803   -1.361953
H     -1.656612   -2.366192   -3.358877
H     -0.589725   -0.152105   -3.264856
H     -0.710461    2.193015   -0.334626
H     -0.676635    2.110040   -2.102601
H      1.463125    0.778535   -2.031860
H      1.602732    2.395976   -1.314546
H      1.593053   -1.236699   -0.640576
H      2.326153   -2.265389    1.475958
H      2.770887   -0.854077    3.462527
H      2.478922    1.597444    3.334668
