31

C      1.971784   -2.149585    0.224371
C      2.509582   -0.748510    0.090277
C      3.866241   -0.568009   -0.233825
C      4.403518    0.714435   -0.356814
C      3.596635    1.832978   -0.155221
C      2.250588    1.673926    0.177088
C      1.693336    0.390336    0.318616
C      0.223488    0.276550    0.654080
C     -0.627828    0.324397   -0.619271
C     -2.090178    0.159711   -0.286658
C     -2.654214   -1.127970   -0.270753
C     -3.998762   -1.307569    0.065081
C     -4.790297   -0.206653    0.398157
C     -4.238080    1.076496    0.401358
C     -2.891837    1.266406    0.066599
N     -2.348030    2.584410    0.093445
H      1.752491   -2.364241    1.291143
H      2.702100   -2.903912   -0.138401
H      1.045491   -2.267570   -0.374658
H      4.512420   -1.422109   -0.395154
H      5.448010    0.840853   -0.611109
H      4.014724    2.826172   -0.256872
H      1.638740    2.555603    0.324781
H      0.016291   -0.658172    1.216629
H     -0.070464    1.114013    1.324824
H     -0.461421    1.287867   -1.148475
H     -0.308764   -0.480262   -1.317094
H     -2.051245   -1.993533   -0.516815
H     -4.426376   -2.301866    0.070544
H     -5.831115   -0.348223    0.659234
H     -4.856830    1.924031    0.668652
