31

C     -2.304156   -1.158762   -1.243113
C     -2.559698    0.076211   -0.418639
C     -3.886566    0.427729   -0.112041
C     -4.163834    1.570063    0.640723
C     -3.122788    2.378174    1.094616
C     -1.800282    2.051282    0.791814
C     -1.500700    0.911849    0.023630
C     -0.049243    0.590787   -0.252281
C      0.551548   -0.228865    0.894746
C      1.984878   -0.591400    0.594160
C      2.267611   -1.798308   -0.069130
C      3.585103   -2.140035   -0.385811
C      4.631366   -1.277207   -0.053620
C      4.362507   -0.067734    0.591608
C      3.045681    0.283499    0.912710
N      2.796270    1.531240    1.556542
H     -1.544218   -1.801161   -0.752612
H     -1.945657   -0.865891   -2.252009
H     -3.226058   -1.766348   -1.365247
H     -4.711744   -0.184954   -0.453747
H     -5.188807    1.827965    0.874235
H     -3.340585    3.260218    1.682944
H     -1.004957    2.689173    1.157981
H      0.524887    1.536557   -0.368672
H      0.060156    0.042020   -1.211439
H     -0.044909   -1.154233    1.050209
H      0.493267    0.349276    1.842574
H      1.466477   -2.474020   -0.342835
H      3.794581   -3.073224   -0.892555
H      5.650920   -1.543290   -0.301039
H      5.178952    0.599390    0.838539
