31

C     -1.545982    0.593820    2.283369
C     -2.323697    0.436271    1.002529
C     -3.663676    0.861741    0.962810
C     -4.419640    0.723043   -0.202410
C     -3.850993    0.155733   -1.341550
C     -2.525983   -0.281737   -1.318324
C     -1.751551   -0.162912   -0.150292
C     -0.313853   -0.629225   -0.189146
C      0.602305    0.483131   -0.710464
C      2.042306    0.033112   -0.700509
C      2.833123    0.272934    0.436860
C      4.160211   -0.162676    0.480791
C      4.707682   -0.850247   -0.604110
C      3.927930   -1.108684   -1.733987
C      2.597188   -0.676479   -1.787160
N      1.817519   -0.967320   -2.945223
H     -2.095748    1.216270    3.021130
H     -1.367230   -0.403799    2.736109
H     -0.573600    1.090545    2.087125
H     -4.126816    1.305560    1.835501
H     -5.448619    1.058329   -0.222331
H     -4.437949    0.054704   -2.245342
H     -2.100640   -0.715311   -2.215333
H      0.022724   -0.961119    0.815671
H     -0.229120   -1.517333   -0.853779
H      0.297984    0.771029   -1.740281
H      0.488809    1.392021   -0.080169
H      2.420532    0.796054    1.290925
H      4.763581    0.029986    1.358478
H      5.735377   -1.187883   -0.567392
H      4.357825   -1.649560   -2.567808
