32

C      3.797985    2.874784   -0.534708
O      3.639281    1.545691   -1.020204
C      2.703398    0.627344   -0.521743
C      1.819364    0.944047    0.527432
C      0.903326   -0.006028    0.987867
C      0.858392   -1.285623    0.412608
C     -0.165548   -2.292427    0.871807
C     -1.395053   -2.314261   -0.047642
C     -2.139207   -0.998653   -0.024764
C     -1.891989   -0.044977   -1.028389
C     -2.534821    1.195170   -1.000387
C     -3.427312    1.497857    0.029604
C     -3.677092    0.562150    1.036231
C     -3.036094   -0.682442    1.017908
N     -3.299156   -1.615522    2.063600
C      1.734496   -1.597551   -0.637722
C      2.651609   -0.647901   -1.096464
H      4.080675    2.857849    0.539084
H      4.605504    3.375741   -1.106810
H      2.856298    3.446855   -0.673383
H      1.828560    1.921480    0.989901
H      0.220955    0.259707    1.785947
H      0.294286   -3.304597    0.878730
H     -0.479303   -2.078283    1.916935
H     -2.074084   -3.132272    0.275949
H     -1.079546   -2.563769   -1.084805
H     -1.192504   -0.258179   -1.827411
H     -2.337421    1.923831   -1.775971
H     -3.923348    2.459624    0.049964
H     -4.367150    0.806761    1.834074
H      1.702690   -2.574171   -1.104763
H      3.322808   -0.902234   -1.906992
