32

C      5.933830    0.750212   -0.843941
O      5.084781   -0.365297   -0.594602
C      3.729241   -0.266525   -0.247372
C      3.072028    0.971624   -0.113042
C      1.718785    1.017081    0.235532
C      1.005245   -0.169236    0.464940
C     -0.460040   -0.120889    0.805175
C     -1.309738   -0.146705   -0.468912
C     -2.779193   -0.102205   -0.128758
C     -3.432384    1.139821   -0.043284
C     -4.785500    1.205825    0.299775
C     -5.497056    0.035463    0.570634
C     -4.856198   -1.203965    0.503986
C     -3.500739   -1.280208    0.161350
N     -2.865990   -2.556390    0.115721
C      1.657378   -1.402832    0.317548
C      3.010249   -1.447853   -0.030876
H      6.000190    1.389511    0.061672
H      5.546870    1.340445   -1.701330
H      6.950052    0.383361   -1.095071
H      3.595995    1.902941   -0.278941
H      1.226244    1.977562    0.325170
H     -0.723911   -0.986868    1.451616
H     -0.681938    0.802742    1.384378
H     -1.081540   -1.061607   -1.058178
H     -1.044202    0.723200   -1.109876
H     -2.892724    2.057850   -0.241095
H     -5.281919    2.165816    0.358978
H     -6.544659    0.089060    0.837400
H     -5.413394   -2.106276    0.723035
H      1.117754   -2.329324    0.470876
H      3.502483   -2.406334   -0.136796
