32

C      4.306198    2.010754   -0.677437
O      3.995848    0.622554   -0.614489
C      2.821107    0.098648   -0.054840
C      1.822991    0.916426    0.508713
C      0.668819    0.345811    1.052820
C      0.495196   -1.047073    1.046961
C     -0.773295   -1.659517    1.584375
C     -1.775639   -1.969325    0.463273
C     -2.243248   -0.714053   -0.237260
C     -1.622779   -0.316791   -1.435206
C     -2.008502    0.864077   -2.074543
C     -3.013607    1.661726   -1.524488
C     -3.633692    1.282104   -0.331754
C     -3.252515    0.101615    0.317381
N     -3.892653   -0.257514    1.539902
C      1.486842   -1.860370    0.478418
C      2.641625   -1.289496   -0.063758
H      4.360497    2.436694    0.346698
H      3.538493    2.546869   -1.274495
H      5.292289    2.139891   -1.168652
H      1.926872    1.992631    0.526856
H     -0.095192    0.991009    1.468977
H     -0.526710   -2.604634    2.115350
H     -1.242233   -0.985974    2.334728
H     -1.313385   -2.671273   -0.265491
H     -2.649460   -2.501960    0.896486
H     -0.832069   -0.916832   -1.868680
H     -1.524503    1.163050   -2.995306
H     -3.310074    2.576710   -2.020847
H     -4.409087    1.908955    0.090605
H      1.362304   -2.935828    0.450013
H      3.399562   -1.928886   -0.498337
