32

C      5.988238    0.727937    0.517359
O      5.092010    0.264300   -0.487246
C      3.694450    0.350591   -0.402430
C      2.931545   -0.146992   -1.465324
C      1.535692   -0.084050   -1.428977
C      0.881596    0.489715   -0.328200
C     -0.621990    0.525555   -0.272507
C     -1.167437   -0.751755    0.373185
C     -2.675110   -0.718512    0.426102
C     -3.316252   -0.194482    1.562290
C     -4.710896   -0.126471    1.619799
C     -5.478625   -0.570615    0.541488
C     -4.853661   -1.079514   -0.599461
C     -3.456946   -1.151450   -0.666500
N     -2.843045   -1.660354   -1.848774
C      1.642115    0.977392    0.745531
C      3.038358    0.914189    0.708825
H      5.808476    0.185176    1.469370
H      7.030493    0.535581    0.190163
H      5.859114    1.820365    0.669574
H      3.423756   -0.588126   -2.322836
H      0.964679   -0.483892   -2.257929
H     -0.956252    1.411990    0.310856
H     -1.033094    0.633202   -1.300533
H     -0.824758   -1.641637   -0.198684
H     -0.755817   -0.852574    1.402012
H     -2.735322    0.163035    2.403624
H     -5.196688    0.274245    2.500113
H     -6.558609   -0.515798    0.587703
H     -5.456222   -1.414736   -1.434424
H      1.153247    1.405303    1.612166
H      3.596957    1.302381    1.549473
