32

C      5.942940   -0.986374    0.631990
O      5.135550   -0.047337   -0.070681
C      3.745369    0.068400    0.077013
C      3.007514   -0.752814    0.951179
C      1.622492   -0.597810    1.063081
C      0.955830    0.383676    0.313839
C     -0.539481    0.526260    0.408032
C     -1.232034   -0.376067   -0.617701
C     -2.731253   -0.230945   -0.526763
C     -3.459652   -1.088746    0.315973
C     -4.845079   -0.952314    0.438234
C     -5.515509    0.046622   -0.270337
C     -4.801680    0.915159   -1.099443
C     -3.413396    0.786460   -1.228226
N     -2.705981    1.695729   -2.068716
C      1.689910    1.192330   -0.567049
C      3.074522    1.037102   -0.678590
H      5.625554   -2.021869    0.386540
H      5.866775   -0.812129    1.726100
H      7.000742   -0.856761    0.324401
H      3.493331   -1.514919    1.544974
H      1.068945   -1.244293    1.733008
H     -0.879627    0.257781    1.432742
H     -0.827130    1.586354    0.232272
H     -0.884959   -0.120601   -1.642703
H     -0.943604   -1.435100   -0.435120
H     -2.953802   -1.862869    0.879879
H     -5.398899   -1.619762    1.085779
H     -6.588406    0.151269   -0.173125
H     -5.328289    1.692071   -1.639540
H      1.189760    1.941594   -1.168333
H      3.629547    1.670808   -1.358710
