32

C     -4.126774    2.436974   -0.163336
O     -3.906687    1.096767    0.264201
C     -2.804311    0.316139   -0.114071
C     -2.709983   -0.988027    0.385418
C     -1.629253   -1.804605    0.041037
C     -0.627929   -1.328223   -0.818300
C      0.563811   -2.190935   -1.147625
C      1.614751   -2.161705   -0.028600
C      2.202117   -0.781228    0.156870
C      1.684828    0.063730    1.155036
C      2.182176    1.359727    1.313211
C      3.197135    1.826971    0.476201
C      3.715453    1.000326   -0.523418
C      3.222031   -0.299160   -0.691039
N      3.759680   -1.118898   -1.726546
C     -0.715932   -0.019022   -1.316855
C     -1.795944    0.797953   -0.970599
H     -5.069776    2.810515    0.285617
H     -3.291172    3.086862    0.172349
H     -4.220060    2.474516   -1.269282
H     -3.476407   -1.368680    1.048627
H     -1.569262   -2.806211    0.448608
H      1.024312   -1.867459   -2.106737
H      0.226445   -3.240020   -1.294552
H      2.424885   -2.881538   -0.274487
H      1.157785   -2.519811    0.920319
H      0.888101   -0.278002    1.804356
H      1.777123    2.003810    2.082973
H      3.580166    2.831701    0.599763
H      4.499281    1.372199   -1.171410
H      0.058070    0.373091   -1.965196
H     -1.834659    1.802244   -1.369647
