32

C      4.022223   -0.530535    2.694652
O      3.689019    0.532477    1.807880
C      2.704994    0.453001    0.811347
C      1.943597   -0.711097    0.592858
C      0.972970   -0.739697   -0.412544
C      0.750653    0.389113   -1.216700
C     -0.332935    0.377030   -2.264871
C     -1.626392    1.028177   -1.754459
C     -2.226081    0.259879   -0.598949
C     -1.960867    0.671820    0.719323
C     -2.467522   -0.050873    1.802374
C     -3.240254   -1.192529    1.582036
C     -3.505907   -1.616358    0.277800
C     -3.000777   -0.899950   -0.813909
N     -3.276266   -1.360168   -2.135126
C      1.504597    1.550853   -0.993133
C      2.476375    1.578347    0.010991
H      4.829920   -0.194215    3.376457
H      4.385013   -1.408305    2.119212
H      3.136937   -0.811552    3.303396
H      2.090314   -1.596127    1.196624
H      0.386540   -1.638827   -0.556919
H     -0.539852   -0.663663   -2.597641
H      0.018629    0.933562   -3.160783
H     -1.420778    2.079974   -1.456210
H     -2.359066    1.079164   -2.588442
H     -1.352105    1.547496    0.908465
H     -2.257135    0.272405    2.813647
H     -3.630807   -1.751535    2.422538
H     -4.102158   -2.505629    0.115778
H      1.335193    2.436675   -1.592757
H      3.051930    2.481088    0.172056
