32

C      6.011848    0.624451   -0.082248
O      5.113916   -0.477305    0.002994
C      3.727672   -0.356952    0.180913
C      2.961465   -1.526539    0.246840
C      1.576548   -1.459986    0.423651
C      0.937925   -0.216813    0.547906
C     -0.557350   -0.143441    0.702589
C     -1.238309   -0.087170   -0.668207
C     -2.737793   -0.017526   -0.514322
C     -3.369402    1.236933   -0.451113
C     -4.753425    1.324685   -0.278633
C     -5.518940    0.163344   -0.157400
C     -4.901900   -1.089042   -0.203382
C     -3.515830   -1.187103   -0.375648
N     -2.908323   -2.476985   -0.403376
C      1.700478    0.958500    0.468737
C      3.085773    0.891510    0.291806
H      5.750112    1.263939   -0.951603
H      7.043555    0.241419   -0.220893
H      5.976262    1.219418    0.854762
H      3.442228   -2.492455    0.156995
H      1.001787   -2.377190    0.462105
H     -0.920124   -1.030499    1.267352
H     -0.831042    0.758455    1.293762
H     -0.874499    0.803513   -1.227138
H     -0.956894   -0.980060   -1.268129
H     -2.789127    2.147727   -0.534026
H     -5.232360    2.294366   -0.235514
H     -6.590565    0.233722   -0.022590
H     -5.501926   -1.984628   -0.100868
H      1.221526    1.927168    0.542508
H      3.646713    1.814542    0.239157
