32

C      4.289185    1.797020    1.016927
O      3.927936    0.426153    0.884243
C      2.804196   -0.031787    0.180537
C      1.914732    0.842174   -0.473399
C      0.807569    0.336326   -1.160477
C      0.573815   -1.046890   -1.209236
C     -0.649381   -1.589364   -1.903846
C     -1.787422   -1.874502   -0.913339
C     -2.277827   -0.612978   -0.240160
C     -1.783593   -0.268439    1.030628
C     -2.188902    0.916192    1.650593
C     -3.087745    1.770093    1.008738
C     -3.581432    1.443053   -0.256392
C     -3.179482    0.259203   -0.886599
N     -3.688722   -0.045857   -2.183102
C      1.456471   -1.916174   -0.550969
C      2.564477   -1.410058    0.134264
H      4.480290    2.240064    0.016717
H      3.481615    2.356193    1.535026
H      5.216423    1.870756    1.621193
H      2.066884    1.912576   -0.452725
H      0.125806    1.024205   -1.645450
H     -0.998384   -0.880242   -2.686110
H     -0.384421   -2.534243   -2.426325
H     -2.627569   -2.357568   -1.457156
H     -1.443786   -2.611253   -0.153984
H     -1.075370   -0.912784    1.537000
H     -1.802263    1.174319    2.628000
H     -3.399520    2.687862    1.490357
H     -4.274578    2.113246   -0.749299
H      1.282665   -2.985077   -0.563808
H      3.238335   -2.092219    0.636976
