32

C      4.254324    2.160774   -0.448191
O      3.910711    1.090219    0.425437
C      2.800513    0.250869    0.250357
C      2.577507   -0.761954    1.190408
C      1.483391   -1.622131    1.062416
C      0.598170   -1.485379   -0.017276
C     -0.610590   -2.379806   -0.126228
C     -1.756442   -1.901336    0.776896
C     -2.269222   -0.540736    0.363451
C     -1.793603    0.608201    1.020420
C     -2.219790    1.878175    0.623536
C     -3.121158    2.015331   -0.433709
C     -3.596498    0.882791   -1.099020
C     -3.173563   -0.393912   -0.709942
N     -3.664356   -1.533280   -1.412987
C      0.815129   -0.467399   -0.959057
C      1.908383    0.393876   -0.829569
H      5.173679    2.654604   -0.072344
H      4.451619    1.771863   -1.469489
H      3.434394    2.909258   -0.475670
H      3.253539   -0.879354    2.027872
H      1.322280   -2.391151    1.807788
H     -0.958917   -2.435306   -1.180828
H     -0.328650   -3.413457    0.170520
H     -1.412896   -1.881664    1.834770
H     -2.584623   -2.641003    0.732763
H     -1.083729    0.520746    1.833809
H     -1.847389    2.757104    1.133679
H     -3.449124    3.000181   -0.740257
H     -4.291752    0.998306   -1.921118
H      0.130924   -0.333559   -1.787989
H      2.047737    1.169130   -1.570446
