32

C      6.021667    0.459610    0.197727
O      5.105270   -0.499316   -0.320049
C      3.720231   -0.299044   -0.416847
C      3.098357    0.893607    0.000099
C      1.713393    1.044773   -0.117628
C      0.931179    0.014522   -0.661539
C     -0.563520    0.163809   -0.755055
C     -1.235856   -0.336928    0.526810
C     -2.734821   -0.191312    0.432548
C     -3.346040    0.987181    0.895323
C     -4.729364    1.155454    0.790133
C     -5.514548    0.155191    0.213604
C     -4.917957   -1.014177   -0.263869
C     -3.532756   -1.191795   -0.163115
N     -2.946415   -2.387786   -0.672466
C      1.549938   -1.178728   -1.064093
C      2.934531   -1.329440   -0.946293
H      5.775297    0.690782    1.255599
H      5.990697    1.386233   -0.413544
H      7.047682    0.040253    0.155449
H      3.674691    1.707095    0.419014
H      1.250043    1.964875    0.216849
H     -0.825604    1.232035   -0.922438
H     -0.943967   -0.409893   -1.628874
H     -0.854347    0.242455    1.396778
H     -0.965855   -1.400613    0.705768
H     -2.750404    1.776880    1.336608
H     -5.192508    2.063948    1.152979
H     -6.585599    0.288219    0.132000
H     -5.533199   -1.781731   -0.716588
H      0.959959   -1.992529   -1.467509
H      3.399826   -2.253630   -1.264997
