32

C      4.239403    2.220105    0.401332
O      3.941539    0.988265   -0.247690
C      2.813382    0.201250    0.027213
C      1.854833    0.566064    0.991931
C      0.746299   -0.251949    1.228096
C      0.579805   -1.446389    0.509834
C     -0.643013   -2.301505    0.725385
C     -1.722805   -2.027985   -0.331394
C     -2.246627   -0.612412   -0.248476
C     -1.717159    0.373553   -1.100188
C     -2.154480    1.697319   -1.008651
C     -3.120877    2.051594   -0.065461
C     -3.650431    1.083417    0.790951
C     -3.216934   -0.245290    0.708232
N     -3.764421   -1.212229    1.601874
C      1.531513   -1.805061   -0.456426
C      2.640797   -0.987803   -0.690845
H      4.366018    2.056027    1.492329
H      5.186405    2.626418   -0.009083
H      3.427511    2.954960    0.216703
H      1.954278    1.480614    1.560304
H      0.011369    0.051605    1.963563
H     -0.353580   -3.373602    0.672267
H     -1.059441   -2.134341    1.742851
H     -2.560000   -2.744309   -0.186747
H     -1.311317   -2.230866   -1.344816
H     -0.957096    0.118702   -1.828561
H     -1.740415    2.450006   -1.667026
H     -3.457402    3.077907    0.004491
H     -4.396169    1.367578    1.522864
H      1.410715   -2.714532   -1.031923
H      3.368300   -1.277113   -1.438633
