32

C      4.176416    2.102882   -0.949552
O      3.837031    0.726888   -1.086815
C      2.772550    0.103689   -0.418831
C      2.547972   -1.258339   -0.650521
C      1.498187   -1.924317   -0.011928
C      0.660113   -1.235504    0.877577
C     -0.503552   -1.941716    1.525744
C     -1.709920   -2.037215    0.580705
C     -2.259205   -0.673614    0.228586
C     -1.863795   -0.055834   -0.971361
C     -2.323643    1.223377   -1.294072
C     -3.178984    1.900215   -0.422680
C     -3.574412    1.300743    0.775446
C     -3.117153    0.020046    1.108544
N     -3.525926   -0.564973    2.343034
C      0.878521    0.131741    1.108326
C      1.927330    0.797828    0.467939
H      5.055436    2.324982   -1.588567
H      4.437961    2.328198    0.105936
H      3.328042    2.739904   -1.277783
H      3.187929   -1.802260   -1.333714
H      1.334372   -2.975449   -0.214933
H     -0.798949   -1.423040    2.463992
H     -0.192857   -2.969348    1.814576
H     -1.417941   -2.587848   -0.340739
H     -2.503314   -2.644369    1.067354
H     -1.190125   -0.561187   -1.652506
H     -2.012974    1.691977   -2.218919
H     -3.533119    2.891588   -0.674132
H     -4.234260    1.834561    1.447909
H      0.229314    0.684821    1.776018
H      2.068958    1.851573    0.665171
