25

C     -1.715878    0.579744    1.252016
C     -1.991300   -0.119942    0.141436
C     -2.812622   -1.376382    0.240666
C     -1.442680    0.321085   -1.196959
C     -0.143189   -0.413549   -1.554423
C      0.992254   -0.032088   -0.631676
C      1.657462    1.190295   -0.831938
C      2.688149    1.585193    0.024775
C      3.062476    0.767805    1.092637
C      2.406103   -0.446142    1.307553
C      1.372222   -0.851009    0.454635
N      0.714012   -2.090930    0.704647
H     -1.105583    1.476974    1.209863
H     -2.092208    0.258332    2.218636
H     -2.921391   -1.860330   -0.752778
H     -3.824418   -1.134330    0.628922
H     -2.319801   -2.095900    0.928246
H     -1.274431    1.420891   -1.211804
H     -2.198369    0.109164   -1.983839
H     -0.316501   -1.511124   -1.550748
H      0.136497   -0.148938   -2.597521
H      1.373777    1.839581   -1.651147
H      3.195111    2.527534   -0.137910
H      3.860196    1.076249    1.755953
H      2.700111   -1.072184    2.140759
