25

C      2.475875   -0.050472   -1.616748
C      1.959775    0.238044   -0.413098
C      2.159757   -0.723135    0.727797
C      1.183114    1.520261   -0.205405
C     -0.212542    1.457146   -0.842621
C     -1.077588    0.403708   -0.189191
C     -1.175760   -0.872200   -0.772083
C     -1.937369   -1.872474   -0.162452
C     -2.604367   -1.612065    1.036023
C     -2.509240   -0.351268    1.629693
C     -1.747384    0.657015    1.027059
N     -1.657940    1.932241    1.658858
H      2.346763    0.627432   -2.455108
H      3.033479   -0.968510   -1.777041
H      1.736093   -1.714623    0.461115
H      1.652654   -0.367473    1.649025
H      3.243893   -0.834337    0.940729
H      1.082437    1.743001    0.878646
H      1.749300    2.367446   -0.650374
H     -0.699032    2.451624   -0.746138
H     -0.119820    1.262272   -1.933654
H     -0.655844   -1.094777   -1.695751
H     -2.007414   -2.851742   -0.618062
H     -3.192890   -2.388731    1.507092
H     -3.025950   -0.158970    2.561689
