25

C     -1.954425    2.067408    0.921793
C     -1.817732    0.804150    0.492993
C     -2.065556    0.483547   -0.956592
C     -1.417746   -0.288938    1.460252
C      0.067741   -0.205764    1.840111
C      0.963579   -0.438573    0.645004
C      1.478768    0.663333   -0.060491
C      2.275460    0.470034   -1.191934
C      2.562289   -0.822915   -1.633580
C      2.050766   -1.926244   -0.946477
C      1.250392   -1.742598    0.187498
N      0.731933   -2.885311    0.864834
H     -2.239494    2.859615    0.235824
H     -1.782880    2.323803    1.962901
H     -1.381250    1.081756   -1.594974
H     -1.884889   -0.590932   -1.169103
H     -3.116608    0.725064   -1.221204
H     -1.630652   -1.289593    1.026343
H     -2.034978   -0.206608    2.381412
H      0.283825   -0.965530    2.621795
H      0.283647    0.783029    2.301200
H      1.257025    1.673302    0.261702
H      2.667822    1.323923   -1.728942
H      3.178753   -0.970302   -2.510920
H      2.274212   -2.925656   -1.298372
