25

C      1.197993    1.481003   -1.066657
C      1.768068    0.286077   -0.852244
C      3.123784    0.216392   -0.203988
C      1.036832   -0.987026   -1.214590
C      0.297581   -1.586479   -0.010303
C     -0.847547   -0.708908    0.442196
C     -2.054695   -0.731133   -0.278308
C     -3.118892    0.093333    0.095802
C     -2.988463    0.951822    1.188760
C     -1.792871    0.989219    1.909762
C     -0.720682    0.166858    1.543114
N      0.490824    0.233847    2.292058
H      1.710597    2.398219   -0.792366
H      0.210258    1.556815   -1.511504
H      3.442532   -0.837497   -0.060166
H      3.092634    0.711190    0.789766
H      3.873111    0.728422   -0.843832
H      0.322718   -0.808469   -2.049012
H      1.772876   -1.732177   -1.586269
H     -0.104896   -2.580962   -0.302385
H      1.014586   -1.775109    0.817370
H     -2.169245   -1.385826   -1.133532
H     -4.044695    0.068579   -0.464339
H     -3.813567    1.590704    1.476021
H     -1.698837    1.661107    2.753755
