25

C     -1.828990    1.874418   -1.364744
C     -1.734576    0.664996   -0.793117
C     -2.253265    0.464779    0.605588
C     -1.111503   -0.488051   -1.549875
C      0.415827   -0.358147   -1.640825
C      1.064616   -0.431265   -0.277470
C      1.389533    0.757102    0.400432
C      1.952414    0.712000    1.678469
C      2.192403   -0.517501    2.294727
C      1.867478   -1.705404    1.635627
C      1.301840   -1.670334    0.355373
N      0.969611   -2.896886   -0.291595
H     -2.272849    2.708976   -0.830035
H     -1.463715    2.043847   -2.373178
H     -2.079690   -0.574247    0.955738
H     -1.731213    1.155509    1.301299
H     -3.343934    0.671143    0.635776
H     -1.369999   -1.455164   -1.067394
H     -1.536315   -0.524217   -2.576771
H      0.809938   -1.172979   -2.285567
H      0.683080    0.594855   -2.148062
H      1.199814    1.719716   -0.058260
H      2.199395    1.631628    2.192998
H      2.627503   -0.550059    3.285234
H      2.052596   -2.654717    2.122576
