25

C     -2.563086    0.921411   -1.068930
C     -2.001388    0.060802   -0.207407
C     -2.028473    0.365032    1.266435
C     -1.346297   -1.205633   -0.714769
C      0.004072   -0.924320   -1.389492
C      1.011823   -0.366259   -0.410710
C      1.200124    1.024727   -0.326811
C      2.096967    1.563259    0.599419
C      2.810969    0.721061    1.453787
C      2.627920   -0.662059    1.386145
C      1.730480   -1.210947    0.462269
N      1.554101   -2.625345    0.420540
H     -3.034393    1.833808   -0.715643
H     -2.558030    0.723725   -2.136621
H     -1.500895   -0.418075    1.850141
H     -3.079636    0.422275    1.619756
H     -1.525148    1.336467    1.457844
H     -2.022936   -1.700572   -1.445168
H     -1.198169   -1.927341    0.117163
H     -0.139428   -0.224095   -2.241560
H      0.392902   -1.868849   -1.827260
H      0.646233    1.693295   -0.974298
H      2.235689    2.635115    0.657168
H      3.504370    1.140465    2.171263
H      3.182230   -1.307947    2.055587
