25

C     -2.921377    0.455089   -0.047783
C     -1.963763   -0.483694   -0.053701
C     -1.637650   -1.216513    1.219927
C     -1.218291   -0.802542   -1.331600
C     -0.210952    0.296455   -1.699509
C      0.884977    0.418255   -0.665529
C      0.779294    1.389583    0.345753
C      1.761068    1.491905    1.334640
C      2.854785    0.624278    1.327696
C      2.968256   -0.350060    0.333266
C      1.988865   -0.461214   -0.661049
N      2.122777   -1.471125   -1.658807
H     -3.176197    0.996442   -0.953914
H     -3.461315    0.692776    0.864018
H     -0.807712   -1.938206    1.069360
H     -1.326699   -0.490507    2.000878
H     -2.531184   -1.773034    1.573395
H     -0.685599   -1.773452   -1.239467
H     -1.948521   -0.920780   -2.161704
H      0.235078    0.060888   -2.689727
H     -0.740323    1.266955   -1.821262
H     -0.068165    2.063457    0.372683
H      1.671722    2.242492    2.109296
H      3.613568    0.704620    2.095334
H      3.817358   -1.022064    0.337805
