25

C     -1.659805   -0.778229    1.280771
C     -1.978903   -0.175534    0.125861
C     -2.899456    1.014001    0.139808
C     -1.372511   -0.646673   -1.177254
C     -0.185201    0.227609   -1.604294
C      0.974535    0.112327   -0.641952
C      1.141394    1.082227    0.362492
C      2.185882    0.974349    1.284297
C      3.070986   -0.103200    1.216462
C      2.912456   -1.077362    0.228015
C      1.868274   -0.978491   -0.699419
N      1.723016   -1.990675   -1.693279
H     -0.974610   -1.620422    1.301044
H     -2.074898   -0.430224    2.221995
H     -2.465505    1.818017    0.771317
H     -3.047269    1.414402   -0.885291
H     -3.888621    0.719650    0.549725
H     -2.149592   -0.604595   -1.970598
H     -1.053734   -1.709962   -1.104636
H      0.143214   -0.080735   -2.620215
H     -0.513761    1.286677   -1.692401
H      0.457511    1.918860    0.436236
H      2.306966    1.725382    2.054200
H      3.878747   -0.185295    1.932186
H      3.600889   -1.912102    0.184932
