25

C     -1.421575   -0.470990   -1.726673
C     -1.849122   -0.672069   -0.471453
C     -2.410340   -2.013144   -0.084657
C     -1.726369    0.423368    0.563795
C     -0.456509    0.270783    1.412511
C      0.796891    0.495632    0.597259
C      1.189260    1.810678    0.291433
C      2.324050    2.048760   -0.488174
C      3.076023    0.978144   -0.974886
C      2.694392   -0.333614   -0.684483
C      1.559070   -0.582779    0.096067
N      1.188497   -1.932553    0.367976
H     -1.490752   -1.259579   -2.470061
H     -0.990957    0.480441   -2.024334
H     -2.683745   -2.034902    0.991328
H     -1.654885   -2.805843   -0.269760
H     -3.319535   -2.227445   -0.685076
H     -1.743591    1.426068    0.081721
H     -2.610026    0.384097    1.236673
H     -0.447244   -0.726493    1.902487
H     -0.489650    1.018250    2.235003
H      0.612187    2.652156    0.654823
H      2.618880    3.064599   -0.717582
H      3.953933    1.164739   -1.579818
H      3.281115   -1.158305   -1.069500
