25

C     -1.793898   -0.026608   -1.449200
C     -1.998183   -0.067647   -0.124289
C     -2.847830   -1.161972    0.461896
C     -1.342604    0.948940    0.783211
C     -0.033826    0.419974    1.386070
C      1.036080    0.232366    0.334258
C      1.737019    1.355621   -0.138829
C      2.707682    1.218002   -1.134364
C      2.985600   -0.039990   -1.671757
C      2.292529   -1.163671   -1.216045
C      1.318210   -1.036405   -0.218646
N      0.620188   -2.199903    0.219747
H     -2.247585   -0.764384   -2.104286
H     -1.165595    0.739344   -1.893960
H     -2.890718   -1.083024    1.568646
H     -2.421440   -2.152907    0.198109
H     -3.881236   -1.090591    0.061844
H     -2.040935    1.195835    1.611784
H     -1.153318    1.900571    0.238536
H     -0.227280   -0.523917    1.939574
H      0.328191    1.151601    2.141028
H      1.527695    2.339767    0.262158
H      3.242828    2.088353   -1.491561
H      3.736898   -0.144193   -2.443882
H      2.511525   -2.135163   -1.641302
