25

C     -2.615153    0.652642   -1.216097
C     -2.001441    0.284091   -0.082121
C     -1.721371    1.316094    0.977138
C     -1.594744   -1.158261    0.129163
C     -0.370236   -1.540290   -0.714943
C      0.856504   -0.757797   -0.305280
C      1.208603    0.402497   -1.017380
C      2.315151    1.162581   -0.629991
C      3.078290    0.776142    0.473334
C      2.735197   -0.370102    1.194107
C      1.627363   -1.137413    0.814418
N      1.292151   -2.297238    1.573241
H     -2.909789    1.685217   -1.378540
H     -2.829773   -0.073346   -1.994526
H     -1.087768    2.124517    0.554455
H     -2.676105    1.751984    1.339823
H     -1.183955    0.872308    1.841169
H     -1.375127   -1.347509    1.201948
H     -2.445184   -1.821763   -0.140663
H     -0.591421   -1.380314   -1.793095
H     -0.175328   -2.627990   -0.597098
H      0.621099    0.722935   -1.868953
H      2.578962    2.054275   -1.183832
H      3.934409    1.367032    0.772306
H      3.329666   -0.660290    2.051418
