25

C      2.851057   -0.707477   -0.338804
C      2.006497    0.247164    0.078031
C      1.751541    0.418083    1.551559
C      1.316484    1.144576   -0.926436
C      0.194932    0.412164   -1.677152
C     -0.919266   -0.007144   -0.745619
C     -0.936040   -1.314950   -0.229188
C     -1.934110   -1.710339    0.665110
C     -2.921958   -0.804884    1.056706
C     -2.912770    0.499516    0.557146
C     -1.916000    0.905392   -0.338365
N     -1.923038    2.245536   -0.825540
H      3.350216   -1.357868    0.373405
H      3.052833   -0.849609   -1.396234
H      1.351332   -0.527634    1.974775
H      2.698525    0.678371    2.069755
H      1.010767    1.222503    1.742530
H      0.896619    2.041765   -0.422768
H      2.064686    1.515870   -1.660346
H     -0.210294    1.082922   -2.465087
H      0.611876   -0.472044   -2.207493
H     -0.171036   -2.026894   -0.513655
H     -1.939363   -2.718952    1.057700
H     -3.693518   -1.112996    1.750419
H     -3.679971    1.196931    0.869552
