25

C      1.310791    1.509638    0.922320
C      1.883946    0.348275    0.573696
C      3.105223    0.357801   -0.304626
C      1.282915   -0.966029    1.018842
C      0.368200   -1.571357   -0.054945
C     -0.875027   -0.738442   -0.271376
C     -1.933535   -0.834433    0.649045
C     -3.081060   -0.052563    0.493854
C     -3.182598    0.836446   -0.577558
C     -2.136183    0.947054   -1.495962
C     -0.982208    0.167840   -1.349450
N      0.073658    0.309407   -2.297213
H      1.727481    2.456177    0.591085
H      0.415086    1.528348    1.536012
H      3.437779   -0.676226   -0.535194
H      3.933629    0.889511    0.209272
H      2.877757    0.873675   -1.261432
H      2.103978   -1.684121    1.231812
H      0.720872   -0.840922    1.970976
H      0.066219   -2.590279    0.272012
H      0.934705   -1.706541   -1.001264
H     -1.867087   -1.513623    1.490139
H     -3.891200   -0.134057    1.206956
H     -4.071799    1.442237   -0.695141
H     -2.221541    1.642183   -2.321861
