      -----------------------------------------------------------      
     |                   =====================                   |     
     |                           x T B                           |     
     |                   =====================                   |     
     |                         S. Grimme                         |     
     |          Mulliken Center for Theoretical Chemistry        |     
     |                    University of Bonn                     |     
      -----------------------------------------------------------      

   * xtb version 6.7.1 (edcfbbe) compiled by 'runner@sat12-gn217-0cbadaec-b866-44ae-a866-732403219ae3-6E01A8DFFD18.local' on 2026-06-10

   xtb is free software: you can redistribute it and/or modify it under
   the terms of the GNU Lesser General Public License as published by
   the Free Software Foundation, either version 3 of the License, or
   (at your option) any later version.
   
   xtb is distributed in the hope that it will be useful,
   but WITHOUT ANY WARRANTY; without even the implied warranty of
   MERCHANTABILITY or FITNESS FOR A PARTICULAR PURPOSE.  See the
   GNU Lesser General Public License for more details.
   
   Cite this work as:
   * C. Bannwarth, E. Caldeweyher, S. Ehlert, A. Hansen, P. Pracht,
     J. Seibert, S. Spicher, S. Grimme, WIREs Comput. Mol. Sci., 2020, 11,
     e01493. DOI: 10.1002/wcms.1493
   
   for GFN2-xTB:
   * C. Bannwarth, S. Ehlert and S. Grimme., J. Chem. Theory Comput., 2019,
     15, 1652-1671. DOI: 10.1021/acs.jctc.8b01176
   for GFN1-xTB:
   * S. Grimme, C. Bannwarth, P. Shushkov, J. Chem. Theory Comput., 2017,
     13, 1989-2009. DOI: 10.1021/acs.jctc.7b00118
   for GFN0-xTB:
   * P. Pracht, E. Caldeweyher, S. Ehlert, S. Grimme, ChemRxiv, 2019, preprint.
     DOI: 10.26434/chemrxiv.8326202.v1
   for GFN-FF:
   * S. Spicher and S. Grimme, Angew. Chem. Int. Ed., 2020, 59, 15665-15673.
     DOI: 10.1002/anie.202004239
   
   for ALPB and GBSA implicit solvation:
   * S. Ehlert, M. Stahn, S. Spicher, S. Grimme, J. Chem. Theory Comput.,
     2021, 17, 4250-4261. DOI: 10.1021/acs.jctc.1c00471
   
   for ddCOSMO and CPCM-X implicit solvation:
   * M. Stahn, S. Ehlert, S. Grimme, J. Phys. Chem. A,
     2023, XX, XXXX-XXXX. DOI: 10.1021/acs.jpca.3c04382
   
   for DFT-D4:
   * E. Caldeweyher, C. Bannwarth and S. Grimme, J. Chem. Phys., 2017,
     147, 034112. DOI: 10.1063/1.4993215
   * E. Caldeweyher, S. Ehlert, A. Hansen, H. Neugebauer, S. Spicher,
     C. Bannwarth and S. Grimme, J. Chem. Phys., 2019, 150, 154122.
     DOI: 10.1063/1.5090222
   * E. Caldeweyher, J.-M. Mewes, S. Ehlert and S. Grimme, Phys. Chem. Chem. Phys.
     2020, 22, 8499-8512. DOI: 10.1039/D0CP00502A
   
   for sTDA-xTB:
   * S. Grimme and C. Bannwarth, J. Chem. Phys., 2016, 145, 054103.
     DOI: 10.1063/1.4959605
   
   in the mass-spec context:
   * V. Asgeirsson, C. Bauer and S. Grimme, Chem. Sci., 2017, 8, 4879.
     DOI: 10.1039/c7sc00601b
   * J. Koopman and S. Grimme, ACS Omega 2019, 4, 12, 15120-15133.
     DOI: 10.1021/acsomega.9b02011
   
   for metadynamics refer to:
   * S. Grimme, J. Chem. Theory Comput., 2019, 155, 2847-2862
     DOI: 10.1021/acs.jctc.9b00143
   
   for SPH calculations refer to:
   * S. Spicher and S. Grimme, J. Chem. Theory Comput., 2021, 17, 1701-1714
     DOI: 10.1021/acs.jctc.0c01306
   
   for ONIOM refer to:
   * C. Plett, A. Katbashev, S. Ehlert, S. Grimme, M. Bursch,
     Phys. Chem. Chem. Phys., 2023, 25, 17860-17868. DOI: 10.1039/D3CP02178E
   
   for DIPRO refer to:
   * J. Kohn, N. Gildemeister, S. Grimme, D. Fazzi, A. Hansen,
     J. Chem. Phys., 2023, just accepted.
   
   for PTB refer to:
   * S. Grimme, M. Mueller, A. Hansen, J. Chem. Phys., 2023, 158, 124111.
     DOI: 10.1063/5.0137838
   
   with help from (in alphabetical order)
   P. Atkinson, C. Bannwarth, F. Bohle, G. Brandenburg, E. Caldeweyher
   M. Checinski, S. Dohm, S. Ehlert, S. Ehrlich, I. Gerasimov, C. Hölzer
   A. Katbashev, J. Kohn, J. Koopman, C. Lavigne, S. Lehtola, F. März, M. Müller,
   F. Musil, H. Neugebauer, J. Pisarek, C. Plett, P. Pracht, F. Pultar,
   J. Seibert, P. Shushkov, S. Spicher, M. Stahn, M. Steiner, T. Strunk,
   J. Stückrath, T. Rose, and J. Unsleber
   
 * started run on 2026/07/31 at 15:17:48.009     
   ID    Z sym.   atoms
    1    7 N      1, 2, 24, 25, 53, 55, 110, 112, 215
    2    6 C      3-5, 7, 9-12, 14, 16-20, 22, 23, 26-28, 30, 32-35, 37,
                  39-43, 45, 46, 49-52, 54, 57, 58, 61, 65, 67, 68, 70, 71,
                  73, 77, 81, 86-89, 91, 92, 106-109, 111, 114, 115, 118,
                  122, 124, 125, 127, 128, 130, 134, 138, 143-146, 148, 149,
                  171-174, 176, 178, 182-185, 187, 189, 193-196, 198, 200,
                  204-207, 209, 211, 216-226, 228
    3    1 H      6, 8, 13, 15, 21, 29, 31, 36, 38, 44, 56, 59, 60, 62, 63,
                  69, 72, 74-76, 78-80, 90, 93-105, 113, 116, 117, 119, 120,
                  126, 129, 131-133, 135-137, 147, 150-166, 175, 177,
                  179-181, 186, 188, 190-192, 197, 199, 201-203, 208, 210,
                  212-214, 229-239
    4   26 Fe     47
    5   17 Cl     48
    6    8 O      64, 66, 82-85, 121, 123, 139-142, 167-170
    7   16 S      227

           -------------------------------------------------
          |                Calculation Setup                |
           -------------------------------------------------

          program call               : /Users/haywoodau3/Documents/genaisubstrate/.chem-env/bin/xtb /Users/haywoodau3/Documents/genaisubstrate/data/jacs_2025/stage3/pilot/reference-optimizations/1v/start-0001/input-assembly.xyz --gfn 2 --alpb ether --opt --input /Users/haywoodau3/Documents/genaisubstrate/data/jacs_2025/stage3/pilot/reference-optimizations/1v/start-0001/xcontrol
          coordinate file            : /Users/haywoodau3/Documents/genaisubstrate/data/jacs_2025/stage3/pilot/reference-optimizations/1v/start-0001/input-assembly.xyz
          omp threads                :                     4


           -------------------------------------------------
          |                 G F N 2 - x T B                 |
           -------------------------------------------------

        Reference                      10.1021/acs.jctc.8b01176
      * Hamiltonian:
        H0-scaling (s, p, d)           1.850000    2.230000    2.230000
        zeta-weighting                 0.500000
      * Dispersion:
        s8                             2.700000
        a1                             0.520000
        a2                             5.000000
        s9                             5.000000
      * Repulsion:
        kExp                           1.500000    1.000000
        rExp                           1.000000
      * Coulomb:
        alpha                          2.000000
        third order                    shell-resolved
        anisotropic                    true
        a3                             3.000000
        a5                             4.000000
        cn-shift                       1.200000
        cn-exp                         4.000000
        max-rad                        5.000000

      * Solvation model:               ALPB
        Solvent                        ether
        Parameter file                 internal GFN2-xTB/ALPB
        Dielectric constant                4.3300E+00
        Reference state                gsolv [1 M gas/solution]
        Free energy shift                  4.9534E-03 Eh       3.1083E+00 kcal/mol
        Temperature                        2.9815E+02 K
        Density                            7.1300E-01 kg/L
        Solvent mass                       7.4120E+01 g/mol
        Interaction kernel             P16
        Born radius scaling (c1)           1.5847E+00
        Born radii integrator          GBOBC
        Born offset                        0.0000E+00 a0       0.0000E+00 AA
        H-bond correction              true
        Ion screening                  false
        Surface tension                    1.0000E-05 Eh       1.5569E+01 dyn/cm
        Grid points                               230 per atom

          ...................................................
          :                      SETUP                      :
          :.................................................:
          :  # basis functions                 677          :
          :  # atomic orbitals                 674          :
          :  # shells                          382          :
          :  # electrons                       709          :
          :  max. iterations                   250          :
          :  Hamiltonian                  GFN2-xTB          :
          :  restarted?                      false          :
          :  GBSA solvation                   true          :
          :  PC potential                    false          :
          :  electronic temp.          300.0000000     K    :
          :  accuracy                    1.0000000          :
          :  -> integral cutoff          0.2500000E+02      :
          :  -> integral neglect         0.1000000E-07      :
          :  -> SCF convergence          0.1000000E-05 Eh   :
          :  -> wf. convergence          0.1000000E-03 e    :
          :  Broyden damping             0.4000000          :
          :  net charge                          0          :
          :  unpaired electrons                  0          :
          ...................................................

 iter      E             dE          RMSdq      gap      omega  full diag
   1   -396.4594626 -0.396459E+03  0.459E+00    0.25       0.0  T
   2   -396.2746798  0.184783E+00  0.335E+00    0.41       1.0  T
   3   -395.5921911  0.682489E+00  0.292E+00    0.52       1.0  T
   4   -397.1223609 -0.153017E+01  0.181E+00    0.61       1.0  T
   5   -397.2748102 -0.152449E+00  0.952E-01    0.46       1.0  T
   6   -397.3993858 -0.124576E+00  0.735E-01    0.33       1.0  T
   7   -397.5271978 -0.127812E+00  0.276E-01    0.25       1.0  T
   8   -397.5393669 -0.121691E-01  0.127E-01    0.22       1.0  T
   9   -397.5393329  0.340330E-04  0.119E-01    0.23       1.0  T
  10   -397.5405856 -0.125270E-02  0.691E-02    0.21       1.0  T
  11   -397.5412134 -0.627859E-03  0.286E-02    0.22       1.0  T
  12   -397.5412693 -0.558874E-04  0.211E-02    0.22       1.0  T
  13   -397.5413430 -0.736563E-04  0.984E-03    0.22       1.0  T
  14   -397.5413477 -0.470605E-05  0.723E-03    0.22       1.0  T
  15   -397.5413502 -0.251655E-05  0.474E-03    0.22       1.4  T
  16   -397.5413537 -0.349258E-05  0.220E-03    0.22       2.9  T
  17   -397.5413541 -0.365628E-06  0.139E-03    0.22       4.6  T
  18   -397.5413542 -0.138293E-06  0.870E-04    0.22       7.4  T
  19   -397.5413543 -0.697768E-07  0.542E-04    0.22      11.9  T

   *** convergence criteria satisfied after 19 iterations ***

         #    Occupation            Energy/Eh            Energy/eV
      -------------------------------------------------------------
         1        2.0000           -0.9975748             -27.1454
       ...           ...                  ...                  ...
       349        2.0000           -0.3704902             -10.0816
       350        2.0000           -0.3692453             -10.0477
       351        2.0000           -0.3621082              -9.8535
       352        2.0000           -0.3580348              -9.7426
       353        2.0000           -0.3406451              -9.2694
       354        1.9641           -0.3227277              -8.7819
       355        1.0209           -0.3164745              -8.6117 (HOMO)
       356        0.0150           -0.3085214              -8.3953 (LUMO)
       357        0.0000           -0.2975120              -8.0957
       358                         -0.2706818              -7.3656
       359                         -0.2643514              -7.1934
       360                         -0.2613645              -7.1121
       ...                                ...                  ...
       674                          1.4854984              40.4225
      -------------------------------------------------------------
                  HL-Gap            0.0079531 Eh            0.2164 eV
             Fermi-level           -0.3160492 Eh           -8.6001 eV

 SCC (total)                   0 d,  0 h,  0 min,  1.520 sec
 SCC setup                      ...        0 min,  0.004 sec (  0.254%)
 Dispersion                     ...        0 min,  0.004 sec (  0.269%)
 classical contributions        ...        0 min,  0.001 sec (  0.047%)
 integral evaluation            ...        0 min,  0.022 sec (  1.442%)
 iterations                     ...        0 min,  1.188 sec ( 78.104%)
 molecular gradient             ...        0 min,  0.284 sec ( 18.696%)
 printout                       ...        0 min,  0.018 sec (  1.186%)

         :::::::::::::::::::::::::::::::::::::::::::::::::::::
         ::                     SUMMARY                     ::
         :::::::::::::::::::::::::::::::::::::::::::::::::::::
         :: total energy            -392.390726262183 Eh    ::
         :: total w/o Gsasa/hb      -392.279030466422 Eh    ::
         :: gradient norm              0.446943026792 Eh/a0 ::
         :: HOMO-LUMO gap              0.216415200052 eV    ::
         ::.................................................::
         :: SCC energy              -397.516870658517 Eh    ::
         :: -> isotropic ES            0.556301420761 Eh    ::
         :: -> anisotropic ES          0.009023746963 Eh    ::
         :: -> anisotropic XC          0.166974531542 Eh    ::
         :: -> dispersion             -0.361264952833 Eh    ::
         :: -> Gsolv                  -0.176886692547 Eh    ::
         ::    -> Gelec               -0.065190896786 Eh    ::
         ::    -> Gsasa               -0.110602851194 Eh    ::
         ::    -> Ghb                 -0.006046382144 Eh    ::
         ::    -> Gshift               0.004953437577 Eh    ::
         :: repulsion energy           5.126144396334 Eh    ::
         :: add. restraining           0.000000000000 Eh    ::
         :: total charge               0.000000000003 e     ::
         :::::::::::::::::::::::::::::::::::::::::::::::::::::

      ----------------------------------------------------------- 
     |                   =====================                   |
     |                        A N C O P T                        |
     |                   =====================                   |
     |               Approximate Normal Coordinate               |
     |                Rational Function Optimizer                |
      ----------------------------------------------------------- 
      ----------------------------------------------------------- 
     |                   =====================                   |
     |                        A N C O P T                        |
     |                   =====================                   |
     |               Approximate Normal Coordinate               |
     |                Rational Function Optimizer                |
      ----------------------------------------------------------- 

          ...................................................
          :                      SETUP                      :
          :.................................................:
          :   optimization level            normal          :
          :   max. optcycles                   717          :
          :   ANC micro-cycles                  20          :
          :   degrees of freedom               711          :
          :.................................................:
          :   RF solver                   davidson          :
          :   write xtbopt.log                true          :
          :   linear?                        false          :
          :   energy convergence         0.5000000E-05 Eh   :
          :   grad. convergence          0.1000000E-02 Eh/α :
          :   maxmium RF displ.          1.0000000          :
          :   Hlow (freq-cutoff)         0.1000000E-01      :
          :   Hmax (freq-cutoff)         5.0000000          :
          :   S6 in model hess.         20.0000000          :
          ...................................................

generating ANC from exact Hessian ...
Using Lindh-Hessian (1995)
 Shifting diagonal of input Hessian by    9.1643711703981914E-003
 Lowest  eigenvalues of input Hessian
    0.000000    0.000000    0.000000    0.000000    0.000000    0.000000
    0.010000    0.010989    0.011808    0.012698    0.013277    0.016585
    0.017904    0.023552    0.024602    0.025874    0.028692    0.029849
 Highest eigenvalues
    3.077515    3.147090    3.174042    3.208935    3.296662    3.297197


........................................................................
.............................. CYCLE    1 ..............................
........................................................................

 iter      E             dE          RMSdq      gap      omega  full diag
   1   -397.5413543 -0.397541E+03  0.272E-04    0.22       0.0  T
   2   -397.5413542  0.824988E-07  0.612E-04    0.22      10.6  T
   3   -397.5413543 -0.689825E-07  0.318E-04    0.22      20.3  T
     SCC iter.                  ...        0 min,  0.186 sec
     gradient                   ...        0 min,  0.282 sec
 * total energy  :  -392.3907263 Eh     change       -0.3929142E-07 Eh
   gradient norm :     0.4469435 Eh/α   predicted     0.0000000E+00 (-100.00%)
   displ. norm   :     0.5338104 α      lambda       -0.1745827E+00
   maximum displ.:     0.1708416 α      in ANC's #23, #18, #20, ...

........................................................................
.............................. CYCLE    2 ..............................
........................................................................

 iter      E             dE          RMSdq      gap      omega  full diag
   1   -397.7877877 -0.397788E+03  0.195E-01    0.18       0.0  T
   2   -397.7634766  0.243111E-01  0.344E-01    0.22       1.0  T
   3   -397.7887560 -0.252794E-01  0.145E-01    0.19       1.0  T
   4   -397.7875213  0.123474E-02  0.143E-01    0.19       1.0  T
   5   -397.7900211 -0.249982E-02  0.773E-02    0.19       1.0  T
   6   -397.7912712 -0.125014E-02  0.301E-02    0.18       1.0  T
   7   -397.7913822 -0.110957E-03  0.158E-02    0.19       1.0  T
   8   -397.7914116 -0.294075E-04  0.864E-03    0.19       1.0  T
   9   -397.7914248 -0.132443E-04  0.341E-03    0.19       1.9  T
  10   -397.7914256 -0.774741E-06  0.225E-03    0.19       2.9  T
  11   -397.7914258 -0.213281E-06  0.157E-03    0.19       4.1  T
  12   -397.7914260 -0.163087E-06  0.981E-04    0.19       6.6  T
  13   -397.7914261 -0.896982E-07  0.633E-04    0.19      10.2  T
     SCC iter.                  ...        0 min,  0.835 sec
     gradient                   ...        0 min,  0.292 sec
 * total energy  :  -392.5222657 Eh     change       -0.1315394E+00 Eh
   gradient norm :     0.2213332 Eh/α   predicted    -0.1122700E+00 ( -14.65%)
   displ. norm   :     0.6045155 α      lambda       -0.9900204E-01
   maximum displ.:     0.2222830 α      in ANC's #18, #23, #20, ...

........................................................................
.............................. CYCLE    3 ..............................
........................................................................

 iter      E             dE          RMSdq      gap      omega  full diag
   1   -397.9355453 -0.397936E+03  0.203E-01    0.13       0.0  T
   2   -397.9236412  0.119041E-01  0.287E-01    0.18       1.0  T
   3   -397.9358264 -0.121853E-01  0.142E-01    0.14       1.0  T
   4   -397.9336963  0.213018E-02  0.163E-01    0.15       1.0  T
   5   -397.9360530 -0.235670E-02  0.939E-02    0.14       1.0  T
   6   -397.9383413 -0.228832E-02  0.249E-02    0.14       1.0  T
   7   -397.9384305 -0.892143E-04  0.110E-02    0.15       1.0  T
   8   -397.9384399 -0.938198E-05  0.711E-03    0.14       1.0  T
   9   -397.9384511 -0.112353E-04  0.268E-03    0.14       2.4  T
  10   -397.9384515 -0.419389E-06  0.184E-03    0.14       3.5  T
  11   -397.9384517 -0.166423E-06  0.120E-03    0.14       5.4  T
  12   -397.9384518 -0.745228E-07  0.726E-04    0.14       8.9  T
  13   -397.9384518 -0.486043E-07  0.490E-04    0.14      13.2  T
     SCC iter.                  ...        0 min,  0.837 sec
     gradient                   ...        0 min,  0.283 sec
 * total energy  :  -392.5993293 Eh     change       -0.7706361E-01 Eh
   gradient norm :     0.1329931 Eh/α   predicted    -0.6759067E-01 ( -12.29%)
   displ. norm   :     0.6797727 α      lambda       -0.6542187E-01
   maximum displ.:     0.2814277 α      in ANC's #18, #23, #5, ...

........................................................................
.............................. CYCLE    4 ..............................
........................................................................

 iter      E             dE          RMSdq      gap      omega  full diag
   1   -397.9992392 -0.397999E+03  0.231E-01    0.09       0.0  T
   2   -397.9728322  0.264070E-01  0.377E-01    0.19       1.0  T
   3   -398.0031153 -0.302832E-01  0.124E-01    0.10       1.0  T
   4   -398.0020768  0.103856E-02  0.134E-01    0.11       1.0  T
   5   -398.0038676 -0.179079E-02  0.632E-02    0.10       1.0  T
   6   -398.0046002 -0.732593E-03  0.278E-02    0.11       1.0  T
   7   -398.0047190 -0.118851E-03  0.121E-02    0.11       1.0  T
   8   -398.0047268 -0.779043E-05  0.776E-03    0.11       1.0  T
   9   -398.0047359 -0.913271E-05  0.346E-03    0.11       1.9  T
  10   -398.0047359 -0.853049E-09  0.250E-03    0.11       2.6  T
  11   -398.0047366 -0.710183E-06  0.167E-03    0.11       3.9  T
  12   -398.0047368 -0.178293E-06  0.107E-03    0.11       6.0  T
  13   -398.0047369 -0.113366E-06  0.577E-04    0.11      11.2  T
  14   -398.0047369 -0.190236E-07  0.286E-04    0.11      22.6  T
     SCC iter.                  ...        0 min,  0.897 sec
     gradient                   ...        0 min,  0.286 sec
 * total energy  :  -392.6545065 Eh     change       -0.5517717E-01 Eh
   gradient norm :     0.1406040 Eh/α   predicted    -0.4782647E-01 ( -13.32%)
   displ. norm   :     0.7620378 α      lambda       -0.6365288E-01
   maximum displ.:     0.3111438 α      in ANC's #18, #23, #5, ...

........................................................................
.............................. CYCLE    5 ..............................
........................................................................

 iter      E             dE          RMSdq      gap      omega  full diag
   1   -398.0338130 -0.398034E+03  0.342E-01    0.02       0.0  T
   2   -397.9436406  0.901724E-01  0.611E-01    0.27       1.0  T
   3   -398.0569591 -0.113319E+00  0.170E-01    0.07       1.0  T
   4   -398.0585036 -0.154445E-02  0.985E-02    0.05       1.0  T
   5   -398.0582840  0.219571E-03  0.970E-02    0.05       1.0  T
   6   -398.0592048 -0.920830E-03  0.409E-02    0.06       1.0  T
   7   -398.0593833 -0.178498E-03  0.188E-02    0.06       1.0  T
   8   -398.0594122 -0.289045E-04  0.107E-02    0.06       1.0  T
   9   -398.0594240 -0.117213E-04  0.740E-03    0.06       1.0  T
  10   -398.0594285 -0.458410E-05  0.519E-03    0.06       1.2  T
  11   -398.0594311 -0.259607E-05  0.374E-03    0.06       1.7  T
  12   -398.0594312 -0.101015E-06  0.326E-03    0.06       2.0  T
  13   -398.0594326 -0.134477E-05  0.128E-03    0.06       5.0  T
  14   -398.0594327 -0.119847E-06  0.101E-03    0.06       6.4  T
  15   -398.0594328 -0.646965E-07  0.460E-04    0.06      14.1  T
  16   -398.0594328 -0.749441E-08  0.257E-04    0.06      25.2  T
     SCC iter.                  ...        0 min,  1.033 sec
     gradient                   ...        0 min,  0.290 sec
 * total energy  :  -392.7164117 Eh     change       -0.6190522E-01 Eh
   gradient norm :     0.1613060 Eh/α   predicted    -0.5030813E-01 ( -18.73%)
   displ. norm   :     0.8914557 α      lambda       -0.8550624E-01
   maximum displ.:     0.3243620 α      in ANC's #18, #23, #104, ...

........................................................................
.............................. CYCLE    6 ..............................
........................................................................

 iter      E             dE          RMSdq      gap      omega  full diag
   1   -398.1055594 -0.398106E+03  0.345E-01    0.05       0.0  T
   2   -398.0681996  0.373598E-01  0.524E-01    0.19       1.0  T
   3   -398.1224209 -0.542213E-01  0.152E-01    0.01       1.0  T
   4   -398.1204975  0.192342E-02  0.185E-01    0.03       1.0  T
   5   -398.1244983 -0.400085E-02  0.861E-02    0.03       1.0  T
   6   -398.1251180 -0.619619E-03  0.476E-02    0.01       1.0  T
   7   -398.1253724 -0.254453E-03  0.238E-02    0.01       1.0  T
   8   -398.1254009 -0.284754E-04  0.119E-02    0.01       1.0  T
   9   -398.1254106 -0.974939E-05  0.913E-03    0.01       1.0  T
  10   -398.1254145 -0.382612E-05  0.540E-03    0.01       1.2  T
  11   -398.1254168 -0.238445E-05  0.347E-03    0.01       1.9  T
  12   -398.1254170 -0.141985E-06  0.352E-03    0.01       1.8  T
  13   -398.1254177 -0.695379E-06  0.169E-03    0.01       3.8  T
  14   -398.1254180 -0.320289E-06  0.120E-03    0.01       5.4  T
  15   -398.1254181 -0.896603E-07  0.489E-04    0.01      13.2  T
  16   -398.1254181 -0.196992E-07  0.419E-04    0.01      15.4  T
     SCC iter.                  ...        0 min,  1.030 sec
     gradient                   ...        0 min,  0.299 sec
 * total energy  :  -392.7825008 Eh     change       -0.6608907E-01 Eh
   gradient norm :     0.1067859 Eh/α   predicted    -0.7672881E-01 (  16.10%)
   displ. norm   :     0.7429907 α      lambda       -0.4064473E-01
   maximum displ.:     0.3125886 α      in ANC's #18, #5, #10, ...

........................................................................
.............................. CYCLE    7 ..............................
........................................................................

 iter      E             dE          RMSdq      gap      omega  full diag
   1   -398.1312854 -0.398131E+03  0.142E-01    0.02       0.0  T
   2   -398.1232240  0.806149E-02  0.262E-01    0.06       1.0  T
   3   -398.1327687 -0.954470E-02  0.747E-02    0.01       1.0  T
   4   -398.1326460  0.122627E-03  0.543E-02    0.01       1.0  T
   5   -398.1331101 -0.464086E-03  0.386E-02    0.01       1.0  T
   6   -398.1331968 -0.867097E-04  0.155E-02    0.01       1.0  T
   7   -398.1332452 -0.483295E-04  0.598E-03    0.01       1.1  T
   8   -398.1332471 -0.199132E-05  0.488E-03    0.01       1.3  T
   9   -398.1332503 -0.311488E-05  0.134E-03    0.01       4.8  T
  10   -398.1332503 -0.852320E-07  0.120E-03    0.01       5.4  T
  11   -398.1332504 -0.859937E-07  0.828E-04    0.01       7.8  T
  12   -398.1332505 -0.214923E-07  0.565E-04    0.01      11.5  T
     SCC iter.                  ...        0 min,  0.778 sec
     gradient                   ...        0 min,  0.297 sec
 * total energy  :  -392.8150021 Eh     change       -0.3250131E-01 Eh
   gradient norm :     0.0780030 Eh/α   predicted    -0.3154104E-01 (  -2.95%)
   displ. norm   :     0.7363822 α      lambda       -0.2869877E-01
   maximum displ.:     0.3941620 α      in ANC's #5, #10, #18, ...

........................................................................
.............................. CYCLE    8 ..............................
........................................................................

 iter      E             dE          RMSdq      gap      omega  full diag
   1   -398.1401634 -0.398140E+03  0.112E-01    0.02       0.0  T
   2   -398.1354850  0.467841E-02  0.203E-01    0.04       1.0  T
   3   -398.1409198 -0.543473E-02  0.571E-02    0.02       1.0  T
   4   -398.1407772  0.142606E-03  0.353E-02    0.01       1.0  T
   5   -398.1410469 -0.269709E-03  0.204E-02    0.01       1.0  T
   6   -398.1410872 -0.403095E-04  0.922E-03    0.01       1.0  T
   7   -398.1410987 -0.115577E-04  0.384E-03    0.01       1.7  T
   8   -398.1411002 -0.147623E-05  0.258E-03    0.01       2.5  T
   9   -398.1411010 -0.784752E-06  0.965E-04    0.01       6.7  T
  10   -398.1411010 -0.476628E-07  0.739E-04    0.01       8.8  T
     SCC iter.                  ...        0 min,  0.646 sec
     gradient                   ...        0 min,  0.297 sec
 * total energy  :  -392.8395478 Eh     change       -0.2454571E-01 Eh
   gradient norm :     0.0642913 Eh/α   predicted    -0.2213067E-01 (  -9.84%)
   displ. norm   :     0.7738668 α      lambda       -0.2475131E-01
   maximum displ.:     0.4594716 α      in ANC's #5, #10, #18, ...

........................................................................
.............................. CYCLE    9 ..............................
........................................................................

 iter      E             dE          RMSdq      gap      omega  full diag
   1   -398.1556046 -0.398156E+03  0.109E-01    0.03       0.0  T
   2   -398.1530128  0.259177E-02  0.162E-01    0.02       1.0  T
   3   -398.1558834 -0.287051E-02  0.671E-02    0.02       1.0  T
   4   -398.1558889 -0.550722E-05  0.375E-02    0.02       1.0  T
   5   -398.1561345 -0.245647E-03  0.233E-02    0.02       1.0  T
   6   -398.1561755 -0.410213E-04  0.732E-03    0.02       1.0  T
   7   -398.1561864 -0.109139E-04  0.328E-03    0.02       2.0  T
   8   -398.1561874 -0.970045E-06  0.241E-03    0.02       2.7  T
   9   -398.1561881 -0.653104E-06  0.933E-04    0.02       6.9  T
  10   -398.1561881 -0.502228E-07  0.620E-04    0.02      10.4  T
     SCC iter.                  ...        0 min,  0.683 sec
     gradient                   ...        0 min,  0.310 sec
 * total energy  :  -392.8610821 Eh     change       -0.2153430E-01 Eh
   gradient norm :     0.0567185 Eh/α   predicted    -0.1978707E-01 (  -8.11%)
   displ. norm   :     0.7911601 α      lambda       -0.2120042E-01
   maximum displ.:     0.5030692 α      in ANC's #5, #10, #6, ...

........................................................................
.............................. CYCLE   10 ..............................
........................................................................

 iter      E             dE          RMSdq      gap      omega  full diag
   1   -398.1728578 -0.398173E+03  0.100E-01    0.03       0.0  T
   2   -398.1720803  0.777533E-03  0.107E-01    0.01       1.0  T
   3   -398.1726151 -0.534791E-03  0.789E-02    0.03       1.0  T
   4   -398.1728515 -0.236456E-03  0.410E-02    0.02       1.0  T
   5   -398.1730699 -0.218387E-03  0.207E-02    0.02       1.0  T
   6   -398.1731053 -0.353976E-04  0.615E-03    0.02       1.1  T
   7   -398.1731122 -0.691876E-05  0.293E-03    0.02       2.2  T
   8   -398.1731134 -0.114616E-05  0.199E-03    0.02       3.3  T
   9   -398.1731138 -0.437560E-06  0.742E-04    0.02       8.7  T
  10   -398.1731138 -0.275641E-07  0.494E-04    0.02      13.1  T
     SCC iter.                  ...        0 min,  0.661 sec
     gradient                   ...        0 min,  0.300 sec
 * total energy  :  -392.8795132 Eh     change       -0.1843108E-01 Eh
   gradient norm :     0.0451430 Eh/α   predicted    -0.1723526E-01 (  -6.49%)
   displ. norm   :     0.7979493 α      lambda       -0.1729571E-01
   maximum displ.:     0.5434762 α      in ANC's #5, #10, #11, ...

........................................................................
.............................. CYCLE   11 ..............................
........................................................................

 iter      E             dE          RMSdq      gap      omega  full diag
   1   -398.1895689 -0.398190E+03  0.947E-02    0.03       0.0  T
   2   -398.1892645  0.304421E-03  0.904E-02    0.01       1.0  T
   3   -398.1894709 -0.206399E-03  0.692E-02    0.03       1.0  T
   4   -398.1894913 -0.204033E-04  0.391E-02    0.02       1.0  T
   5   -398.1896882 -0.196898E-03  0.191E-02    0.02       1.0  T
   6   -398.1897257 -0.375249E-04  0.490E-03    0.02       1.3  T
   7   -398.1897286 -0.288659E-05  0.286E-03    0.02       2.3  T
   8   -398.1897302 -0.155706E-05  0.153E-03    0.02       4.2  T
   9   -398.1897304 -0.272628E-06  0.644E-04    0.02      10.0  T
  10   -398.1897305 -0.185365E-07  0.461E-04    0.02      14.0  T
     SCC iter.                  ...        0 min,  0.648 sec
     gradient                   ...        0 min,  0.298 sec
 * total energy  :  -392.8944070 Eh     change       -0.1489382E-01 Eh
   gradient norm :     0.0334685 Eh/α   predicted    -0.1415419E-01 (  -4.97%)
   displ. norm   :     0.8018607 α      lambda       -0.1338315E-01
   maximum displ.:     0.5758261 α      in ANC's #5, #10, #11, ...

........................................................................
.............................. CYCLE   12 ..............................
........................................................................

 iter      E             dE          RMSdq      gap      omega  full diag
   1   -398.1988448 -0.398199E+03  0.912E-02    0.03       0.0  T
   2   -398.1985328  0.312031E-03  0.956E-02    0.01       1.0  T
   3   -398.1989038 -0.371042E-03  0.559E-02    0.04       1.0  T
   4   -398.1989253 -0.214230E-04  0.230E-02    0.03       1.0  T
   5   -398.1989260 -0.709312E-06  0.250E-02    0.03       1.0  T
   6   -398.1990064 -0.803949E-04  0.464E-03    0.03       1.4  T
   7   -398.1990083 -0.190664E-05  0.248E-03    0.03       2.6  T
   8   -398.1990096 -0.127549E-05  0.120E-03    0.03       5.4  T
   9   -398.1990098 -0.203648E-06  0.528E-04    0.03      12.2  T
  10   -398.1990098 -0.982823E-08  0.413E-04    0.03      15.6  T
     SCC iter.                  ...        0 min,  0.652 sec
     gradient                   ...        0 min,  0.329 sec
 * total energy  :  -392.9058506 Eh     change       -0.1144362E-01 Eh
   gradient norm :     0.0277474 Eh/α   predicted    -0.1099414E-01 (  -3.93%)
   displ. norm   :     0.8170349 α      lambda       -0.1103631E-01
   maximum displ.:     0.6230298 α      in ANC's #5, #10, #3, ...

........................................................................
.............................. CYCLE   13 ..............................
........................................................................

 iter      E             dE          RMSdq      gap      omega  full diag
   1   -398.2168864 -0.398217E+03  0.900E-02    0.04       0.0  T
   2   -398.2162503  0.636101E-03  0.117E-01    0.01       1.0  T
   3   -398.2170102 -0.759898E-03  0.503E-02    0.04       1.0  T
   4   -398.2167856  0.224582E-03  0.461E-02    0.03       1.0  T
   5   -398.2170971 -0.311489E-03  0.130E-02    0.03       1.0  T
   6   -398.2171086 -0.115343E-04  0.511E-03    0.03       1.3  T
   7   -398.2171122 -0.357404E-05  0.229E-03    0.03       2.8  T
   8   -398.2171127 -0.504160E-06  0.138E-03    0.03       4.7  T
   9   -398.2171130 -0.299859E-06  0.692E-04    0.03       9.3  T
  10   -398.2171130 -0.189804E-07  0.494E-04    0.03      13.1  T
     SCC iter.                  ...        0 min,  0.672 sec
     gradient                   ...        0 min,  0.301 sec
 * total energy  :  -392.9144498 Eh     change       -0.8599168E-02 Eh
   gradient norm :     0.0393035 Eh/α   predicted    -0.9201782E-02 (   7.01%)
   displ. norm   :     0.8019848 α      lambda       -0.1037528E-01
   maximum displ.:     0.5933513 α      in ANC's #5, #10, #6, ...

........................................................................
.............................. CYCLE   14 ..............................
........................................................................

 iter      E             dE          RMSdq      gap      omega  full diag
   1   -398.2131562 -0.398213E+03  0.106E-01    0.05       0.0  T
   2   -398.2124880  0.668198E-03  0.127E-01    0.02       1.0  T
   3   -398.2132923 -0.804349E-03  0.619E-02    0.05       1.0  T
   4   -398.2130892  0.203158E-03  0.472E-02    0.04       1.0  T
   5   -398.2134166 -0.327424E-03  0.177E-02    0.04       1.0  T
   6   -398.2134459 -0.293076E-04  0.470E-03    0.04       1.4  T
   7   -398.2134478 -0.190311E-05  0.224E-03    0.04       2.9  T
   8   -398.2134484 -0.581794E-06  0.922E-04    0.04       7.0  T
   9   -398.2134485 -0.165828E-06  0.483E-04    0.04      13.4  T
     SCC iter.                  ...        0 min,  0.592 sec
     gradient                   ...        0 min,  0.301 sec
 * total energy  :  -392.9221454 Eh     change       -0.7695636E-02 Eh
   gradient norm :     0.0351935 Eh/α   predicted    -0.8524243E-02 (  10.77%)
   displ. norm   :     0.7562804 α      lambda       -0.7365771E-02
   maximum displ.:     0.6092930 α      in ANC's #5, #3, #11, ...

........................................................................
.............................. CYCLE   15 ..............................
........................................................................

 iter      E             dE          RMSdq      gap      omega  full diag
   1   -398.2222093 -0.398222E+03  0.725E-02    0.06       0.0  T
   2   -398.2211939  0.101537E-02  0.124E-01    0.02       1.0  T
   3   -398.2224145 -0.122065E-02  0.317E-02    0.05       1.0  T
   4   -398.2222999  0.114683E-03  0.333E-02    0.05       1.0  T
   5   -398.2224509 -0.151067E-03  0.823E-03    0.05       1.0  T
   6   -398.2224517 -0.808361E-06  0.423E-03    0.04       1.5  T
   7   -398.2224538 -0.206440E-05  0.136E-03    0.05       4.8  T
   8   -398.2224540 -0.202702E-06  0.897E-04    0.05       7.2  T
   9   -398.2224541 -0.115291E-06  0.424E-04    0.05      15.2  T
     SCC iter.                  ...        0 min,  0.587 sec
     gradient                   ...        0 min,  0.300 sec
 * total energy  :  -392.9286533 Eh     change       -0.6507908E-02 Eh
   gradient norm :     0.0279032 Eh/α   predicted    -0.5789355E-02 ( -11.04%)
   displ. norm   :     0.8015890 α      lambda       -0.7674517E-02
   maximum displ.:     0.6320375 α      in ANC's #5, #3, #11, ...

........................................................................
.............................. CYCLE   16 ..............................
........................................................................

 iter      E             dE          RMSdq      gap      omega  full diag
   1   -398.2353173 -0.398235E+03  0.904E-02    0.07       0.0  T
   2   -398.2340902  0.122707E-02  0.133E-01    0.03       1.0  T
   3   -398.2355535 -0.146326E-02  0.472E-02    0.06       1.0  T
   4   -398.2355407  0.127890E-04  0.288E-02    0.06       1.0  T
   5   -398.2356124 -0.717360E-04  0.191E-02    0.05       1.0  T
   6   -398.2356450 -0.325291E-04  0.481E-03    0.05       1.3  T
   7   -398.2356476 -0.260618E-05  0.222E-03    0.05       2.9  T
   8   -398.2356479 -0.330964E-06  0.105E-03    0.05       6.1  T
   9   -398.2356481 -0.136438E-06  0.592E-04    0.05      10.9  T
  10   -398.2356481 -0.204923E-07  0.418E-04    0.05      15.5  T
     SCC iter.                  ...        0 min,  0.665 sec
     gradient                   ...        0 min,  0.305 sec
 * total energy  :  -392.9347883 Eh     change       -0.6135004E-02 Eh
   gradient norm :     0.0262108 Eh/α   predicted    -0.6302874E-02 (   2.74%)
   displ. norm   :     0.7851102 α      lambda       -0.6791782E-02
   maximum displ.:     0.6181516 α      in ANC's #5, #3, #11, ...

........................................................................
.............................. CYCLE   17 ..............................
........................................................................

 iter      E             dE          RMSdq      gap      omega  full diag
   1   -398.2456008 -0.398246E+03  0.798E-02    0.07       0.0  T
   2   -398.2450677  0.533110E-03  0.979E-02    0.04       1.0  T
   3   -398.2457463 -0.678565E-03  0.456E-02    0.07       1.0  T
   4   -398.2457924 -0.461317E-04  0.220E-02    0.06       1.0  T
   5   -398.2458107 -0.183378E-04  0.206E-02    0.06       1.0  T
   6   -398.2458515 -0.407294E-04  0.426E-03    0.06       1.5  T
   7   -398.2458532 -0.176954E-05  0.188E-03    0.06       3.4  T
   8   -398.2458535 -0.259823E-06  0.876E-04    0.06       7.4  T
   9   -398.2458536 -0.667931E-07  0.458E-04    0.06      14.1  T
     SCC iter.                  ...        0 min,  0.598 sec
     gradient                   ...        0 min,  0.304 sec
 * total energy  :  -392.9399560 Eh     change       -0.5167644E-02 Eh
   gradient norm :     0.0291092 Eh/α   predicted    -0.5489115E-02 (   6.22%)
   displ. norm   :     0.7932700 α      lambda       -0.4996576E-02
   maximum displ.:     0.6417634 α      in ANC's #5, #3, #11, ...

........................................................................
.............................. CYCLE   18 ..............................
........................................................................

 iter      E             dE          RMSdq      gap      omega  full diag
   1   -398.2407406 -0.398241E+03  0.662E-02    0.07       0.0  T
   2   -398.2404935  0.247118E-03  0.734E-02    0.05       1.0  T
   3   -398.2407902 -0.296765E-03  0.379E-02    0.07       1.0  T
   4   -398.2407862  0.402313E-05  0.218E-02    0.07       1.0  T
   5   -398.2408330 -0.467527E-04  0.119E-02    0.06       1.0  T
   6   -398.2408481 -0.151398E-04  0.237E-03    0.06       2.7  T
   7   -398.2408485 -0.421311E-06  0.116E-03    0.06       5.6  T
   8   -398.2408487 -0.140231E-06  0.531E-04    0.06      12.2  T
   9   -398.2408487 -0.458705E-07  0.360E-04    0.06      18.0  T
     SCC iter.                  ...        0 min,  0.593 sec
     gradient                   ...        0 min,  0.304 sec
 * total energy  :  -392.9441168 Eh     change       -0.4160856E-02 Eh
   gradient norm :     0.0199846 Eh/α   predicted    -0.4070407E-02 (  -2.17%)
   displ. norm   :     0.7839085 α      lambda       -0.4217782E-02
   maximum displ.:     0.5759979 α      in ANC's #5, #3, #11, ...

........................................................................
.............................. CYCLE   19 ..............................
........................................................................

 iter      E             dE          RMSdq      gap      omega  full diag
   1   -398.2456321 -0.398246E+03  0.586E-02    0.07       0.0  T
   2   -398.2456210  0.111289E-04  0.375E-02    0.06       1.0  T
   3   -398.2454876  0.133314E-03  0.459E-02    0.08       1.0  T
   4   -398.2456583 -0.170690E-03  0.883E-03    0.07       1.0  T
   5   -398.2456621 -0.378428E-05  0.424E-03    0.06       1.5  T
   6   -398.2456637 -0.158294E-05  0.322E-03    0.07       2.0  T
   7   -398.2456646 -0.882226E-06  0.116E-03    0.07       5.6  T
   8   -398.2456647 -0.166441E-06  0.595E-04    0.07      10.9  T
   9   -398.2456648 -0.581266E-07  0.331E-04    0.07      19.5  T
     SCC iter.                  ...        0 min,  0.598 sec
     gradient                   ...        0 min,  0.302 sec
 * total energy  :  -392.9477126 Eh     change       -0.3595831E-02 Eh
   gradient norm :     0.0198047 Eh/α   predicted    -0.3404831E-02 (  -5.31%)
   displ. norm   :     0.7858256 α      lambda       -0.3981367E-02
   maximum displ.:     0.5682727 α      in ANC's #5, #3, #11, ...

........................................................................
.............................. CYCLE   20 ..............................
........................................................................

 iter      E             dE          RMSdq      gap      omega  full diag
   1   -398.2522450 -0.398252E+03  0.599E-02    0.07       0.0  T
   2   -398.2522049  0.400670E-04  0.402E-02    0.07       1.0  T
   3   -398.2519958  0.209066E-03  0.496E-02    0.07       1.0  T
   4   -398.2522559 -0.260030E-03  0.161E-02    0.07       1.0  T
   5   -398.2522762 -0.203805E-04  0.761E-03    0.07       1.0  T
   6   -398.2522807 -0.449475E-05  0.212E-03    0.07       3.1  T
   7   -398.2522807  0.835462E-08  0.102E-03    0.07       6.3  T
   8   -398.2522809 -0.155680E-06  0.477E-04    0.07      13.6  T
   9   -398.2522809 -0.356520E-07  0.286E-04    0.07      22.6  T
     SCC iter.                  ...        0 min,  0.602 sec
     gradient                   ...        0 min,  0.304 sec
 * total energy  :  -392.9508971 Eh     change       -0.3184437E-02 Eh
   gradient norm :     0.0210555 Eh/α   predicted    -0.3219975E-02 (   1.12%)
   displ. norm   :     0.7672458 α      lambda       -0.3831576E-02
   maximum displ.:     0.5124646 α      in ANC's #5, #3, #4, ...
 * RMSD in coord.:     0.8278653 α      energy gain  -0.5601708E+00 Eh

generating ANC from exact Hessian ...
Using Lindh-Hessian (1995)
 Shifting diagonal of input Hessian by    9.6841163213203102E-003
 Lowest  eigenvalues of input Hessian
    0.000000    0.000000    0.000000    0.000000    0.000000    0.000000
    0.010000    0.010257    0.010392    0.010808    0.011289    0.011749
    0.012758    0.013052    0.016058    0.017305    0.020105    0.022350
 Highest eigenvalues
    3.131524    3.202806    3.211595    3.246356    3.329319    3.334569


........................................................................
.............................. CYCLE   21 ..............................
........................................................................

 iter      E             dE          RMSdq      gap      omega  full diag
   1   -398.2477541 -0.398248E+03  0.666E-02    0.07       0.0  T
   2   -398.2477223  0.317808E-04  0.431E-02    0.07       1.0  T
   3   -398.2474918  0.230530E-03  0.518E-02    0.07       1.0  T
   4   -398.2477367 -0.244975E-03  0.212E-02    0.07       1.0  T
   5   -398.2477847 -0.479148E-04  0.509E-03    0.07       1.3  T
   6   -398.2477864 -0.169739E-05  0.305E-03    0.07       2.1  T
   7   -398.2477868 -0.469161E-06  0.928E-04    0.07       7.0  T
   8   -398.2477869 -0.605982E-07  0.464E-04    0.07      13.9  T
     SCC iter.                  ...        0 min,  0.522 sec
     gradient                   ...        0 min,  0.305 sec
 * total energy  :  -392.9538952 Eh     change       -0.2998139E-02 Eh
   gradient norm :     0.0202591 Eh/α   predicted     0.0000000E+00 (-100.00%)
   displ. norm   :     0.3166711 α      lambda       -0.2489003E-02
   maximum displ.:     0.1825913 α      in ANC's #3, #8, #6, ...

........................................................................
.............................. CYCLE   22 ..............................
........................................................................

 iter      E             dE          RMSdq      gap      omega  full diag
   1   -398.2573825 -0.398257E+03  0.406E-02    0.07       0.0  T
   2   -398.2573840 -0.147156E-05  0.233E-02    0.07       1.0  T
   3   -398.2573430  0.410255E-04  0.213E-02    0.07       1.0  T
   4   -398.2573588 -0.157757E-04  0.164E-02    0.07       1.0  T
   5   -398.2573899 -0.311353E-04  0.152E-03    0.07       4.3  T
   6   -398.2573899  0.378207E-07  0.926E-04    0.07       7.0  T
   7   -398.2573899 -0.802892E-07  0.605E-04    0.07      10.7  T
     SCC iter.                  ...        0 min,  0.472 sec
     gradient                   ...        0 min,  0.307 sec
 * total energy  :  -392.9559086 Eh     change       -0.2013361E-02 Eh
   gradient norm :     0.0085743 Eh/α   predicted    -0.1373915E-02 ( -31.76%)
   displ. norm   :     0.5984714 α      lambda       -0.2789356E-02
   maximum displ.:     0.3650424 α      in ANC's #3, #8, #6, ...

........................................................................
.............................. CYCLE   23 ..............................
........................................................................

 iter      E             dE          RMSdq      gap      omega  full diag
   1   -398.2633879 -0.398263E+03  0.610E-02    0.08       0.0  T
   2   -398.2633750  0.129695E-04  0.362E-02    0.07       1.0  T
   3   -398.2631668  0.208206E-03  0.445E-02    0.08       1.0  T
   4   -398.2633810 -0.214207E-03  0.183E-02    0.07       1.0  T
   5   -398.2634059 -0.249582E-04  0.262E-03    0.07       2.5  T
   6   -398.2634060 -0.470799E-07  0.203E-03    0.07       3.2  T
   7   -398.2634063 -0.285569E-06  0.112E-03    0.07       5.8  T
   8   -398.2634064 -0.101884E-06  0.403E-04    0.07      16.1  T
   9   -398.2634064 -0.117678E-07  0.236E-04    0.07      27.4  T
     SCC iter.                  ...        0 min,  0.602 sec
     gradient                   ...        0 min,  0.304 sec
 * total energy  :  -392.9582103 Eh     change       -0.2301768E-02 Eh
   gradient norm :     0.0090266 Eh/α   predicted    -0.1894207E-02 ( -17.71%)
   displ. norm   :     0.7017344 α      lambda       -0.2514383E-02
   maximum displ.:     0.4426166 α      in ANC's #3, #8, #6, ...

........................................................................
.............................. CYCLE   24 ..............................
........................................................................

 iter      E             dE          RMSdq      gap      omega  full diag
   1   -398.2633629 -0.398263E+03  0.654E-02    0.08       0.0  T
   2   -398.2633611  0.185136E-05  0.381E-02    0.07       1.0  T
   3   -398.2631939  0.167225E-03  0.390E-02    0.08       1.0  T
   4   -398.2633316 -0.137742E-03  0.224E-02    0.07       1.0  T
   5   -398.2633797 -0.481222E-04  0.258E-03    0.08       2.5  T
   6   -398.2633798 -0.507693E-07  0.176E-03    0.08       3.7  T
   7   -398.2633801 -0.303334E-06  0.979E-04    0.08       6.6  T
   8   -398.2633802 -0.836651E-07  0.408E-04    0.08      15.8  T
     SCC iter.                  ...        0 min,  0.542 sec
     gradient                   ...        0 min,  0.305 sec
 * total energy  :  -392.9604616 Eh     change       -0.2251258E-02 Eh
   gradient norm :     0.0139802 Eh/α   predicted    -0.1876305E-02 ( -16.66%)
   displ. norm   :     0.7326116 α      lambda       -0.2549333E-02
   maximum displ.:     0.4783944 α      in ANC's #3, #8, #1, ...

........................................................................
.............................. CYCLE   25 ..............................
........................................................................

 iter      E             dE          RMSdq      gap      omega  full diag
   1   -398.2618964 -0.398262E+03  0.649E-02    0.08       0.0  T
   2   -398.2619061 -0.965944E-05  0.375E-02    0.08       1.0  T
   3   -398.2618922  0.138223E-04  0.186E-02    0.08       1.0  T
   4   -398.2618978 -0.557031E-05  0.101E-02    0.07       1.0  T
   5   -398.2619099 -0.121486E-04  0.344E-03    0.08       1.9  T
   6   -398.2619108 -0.805138E-06  0.155E-03    0.08       4.2  T
   7   -398.2619110 -0.253544E-06  0.807E-04    0.08       8.0  T
   8   -398.2619111 -0.755162E-07  0.372E-04    0.08      17.4  T
     SCC iter.                  ...        0 min,  0.541 sec
     gradient                   ...        0 min,  0.306 sec
 * total energy  :  -392.9627490 Eh     change       -0.2287423E-02 Eh
   gradient norm :     0.0145856 Eh/α   predicted    -0.1958806E-02 ( -14.37%)
   displ. norm   :     0.7191658 α      lambda       -0.2506391E-02
   maximum displ.:     0.4984191 α      in ANC's #3, #1, #8, ...

........................................................................
.............................. CYCLE   26 ..............................
........................................................................

 iter      E             dE          RMSdq      gap      omega  full diag
   1   -398.2631194 -0.398263E+03  0.558E-02    0.08       0.0  T
   2   -398.2631183  0.110162E-05  0.339E-02    0.08       1.0  T
   3   -398.2629836  0.134693E-03  0.377E-02    0.07       1.0  T
   4   -398.2631007 -0.117086E-03  0.156E-02    0.08       1.0  T
   5   -398.2631329 -0.321959E-04  0.215E-03    0.08       3.0  T
   6   -398.2631331 -0.220838E-06  0.103E-03    0.08       6.3  T
   7   -398.2631332 -0.935296E-07  0.527E-04    0.08      12.3  T
   8   -398.2631333 -0.365924E-07  0.279E-04    0.08      23.2  T
     SCC iter.                  ...        0 min,  0.538 sec
     gradient                   ...        0 min,  0.306 sec
 * total energy  :  -392.9649542 Eh     change       -0.2205167E-02 Eh
   gradient norm :     0.0124233 Eh/α   predicted    -0.1901353E-02 ( -13.78%)
   displ. norm   :     0.7448925 α      lambda       -0.2326368E-02
   maximum displ.:     0.5301695 α      in ANC's #3, #1, #8, ...

........................................................................
.............................. CYCLE   27 ..............................
........................................................................

 iter      E             dE          RMSdq      gap      omega  full diag
   1   -398.2660697 -0.398266E+03  0.476E-02    0.08       0.0  T
   2   -398.2660503  0.194393E-04  0.317E-02    0.08       1.0  T
   3   -398.2659003  0.150029E-03  0.407E-02    0.07       1.0  T
   4   -398.2660716 -0.171379E-03  0.106E-02    0.08       1.0  T
   5   -398.2660844 -0.127726E-04  0.185E-03    0.08       3.5  T
   6   -398.2660845 -0.104536E-06  0.109E-03    0.08       6.0  T
   7   -398.2660846 -0.128445E-06  0.649E-04    0.08      10.0  T
   8   -398.2660847 -0.409939E-07  0.296E-04    0.08      21.9  T
     SCC iter.                  ...        0 min,  0.537 sec
     gradient                   ...        0 min,  0.306 sec
 * total energy  :  -392.9669942 Eh     change       -0.2040056E-02 Eh
   gradient norm :     0.0105565 Eh/α   predicted    -0.1808594E-02 ( -11.35%)
   displ. norm   :     0.7905604 α      lambda       -0.2145503E-02
   maximum displ.:     0.5556647 α      in ANC's #3, #1, #8, ...

........................................................................
.............................. CYCLE   28 ..............................
........................................................................

 iter      E             dE          RMSdq      gap      omega  full diag
   1   -398.2681205 -0.398268E+03  0.445E-02    0.08       0.0  T
   2   -398.2681018  0.186426E-04  0.300E-02    0.08       1.0  T
   3   -398.2679987  0.103121E-03  0.360E-02    0.07       1.0  T
   4   -398.2681173 -0.118602E-03  0.122E-02    0.08       1.0  T
   5   -398.2681348 -0.174549E-04  0.236E-03    0.08       2.7  T
   6   -398.2681349 -0.159055E-06  0.194E-03    0.08       3.3  T
   7   -398.2681353 -0.343531E-06  0.672E-04    0.08       9.6  T
   8   -398.2681353 -0.351899E-07  0.336E-04    0.08      19.3  T
     SCC iter.                  ...        0 min,  0.537 sec
     gradient                   ...        0 min,  0.304 sec
 * total energy  :  -392.9688965 Eh     change       -0.1902207E-02 Eh
   gradient norm :     0.0101122 Eh/α   predicted    -0.1743207E-02 (  -8.36%)
   displ. norm   :     0.7770679 α      lambda       -0.1998087E-02
   maximum displ.:     0.5351426 α      in ANC's #3, #1, #4, ...

........................................................................
.............................. CYCLE   29 ..............................
........................................................................

 iter      E             dE          RMSdq      gap      omega  full diag
   1   -398.2738824 -0.398274E+03  0.395E-02    0.08       0.0  T
   2   -398.2738682  0.141530E-04  0.274E-02    0.08       1.0  T
   3   -398.2738220  0.461939E-04  0.280E-02    0.08       1.0  T
   4   -398.2738697 -0.477407E-04  0.146E-02    0.08       1.0  T
   5   -398.2738953 -0.255728E-04  0.258E-03    0.08       2.5  T
   6   -398.2738960 -0.671195E-06  0.162E-03    0.08       4.0  T
   7   -398.2738962 -0.165920E-06  0.649E-04    0.08      10.0  T
   8   -398.2738962 -0.436593E-07  0.351E-04    0.08      18.4  T
     SCC iter.                  ...        0 min,  0.603 sec
     gradient                   ...        0 min,  0.306 sec
 * total energy  :  -392.9706266 Eh     change       -0.1730169E-02 Eh
   gradient norm :     0.0087943 Eh/α   predicted    -0.1602310E-02 (  -7.39%)
   displ. norm   :     0.8610078 α      lambda       -0.1911568E-02
   maximum displ.:     0.5510249 α      in ANC's #3, #1, #8, ...

........................................................................
.............................. CYCLE   30 ..............................
........................................................................

 iter      E             dE          RMSdq      gap      omega  full diag
   1   -398.2680623 -0.398268E+03  0.522E-02    0.08       0.0  T
   2   -398.2680700 -0.767318E-05  0.316E-02    0.08       1.0  T
   3   -398.2680566  0.134255E-04  0.241E-02    0.08       1.0  T
   4   -398.2680354  0.211383E-04  0.186E-02    0.08       1.0  T
   5   -398.2680796 -0.441787E-04  0.408E-03    0.08       1.6  T
   6   -398.2680812 -0.162711E-05  0.253E-03    0.08       2.6  T
   7   -398.2680817 -0.484880E-06  0.892E-04    0.08       7.3  T
   8   -398.2680818 -0.638029E-07  0.505E-04    0.08      12.8  T
     SCC iter.                  ...        0 min,  0.544 sec
     gradient                   ...        0 min,  0.307 sec
 * total energy  :  -392.9720996 Eh     change       -0.1472947E-02 Eh
   gradient norm :     0.0141032 Eh/α   predicted    -0.1664339E-02 (  12.99%)
   displ. norm   :     0.6841347 α      lambda       -0.1894872E-02
   maximum displ.:     0.3948428 α      in ANC's #3, #1, #4, ...

........................................................................
.............................. CYCLE   31 ..............................
........................................................................

 iter      E             dE          RMSdq      gap      omega  full diag
   1   -398.2755276 -0.398276E+03  0.434E-02    0.08       0.0  T
   2   -398.2755322 -0.457812E-05  0.268E-02    0.08       1.0  T
   3   -398.2755287  0.351420E-05  0.182E-02    0.08       1.0  T
   4   -398.2754973  0.313594E-04  0.186E-02    0.09       1.0  T
   5   -398.2755403 -0.429596E-04  0.327E-03    0.08       2.0  T
   6   -398.2755414 -0.116199E-05  0.196E-03    0.08       3.3  T
   7   -398.2755418 -0.363775E-06  0.755E-04    0.08       8.6  T
   8   -398.2755418 -0.179224E-07  0.415E-04    0.08      15.6  T
     SCC iter.                  ...        0 min,  0.539 sec
     gradient                   ...        0 min,  0.304 sec
 * total energy  :  -392.9735416 Eh     change       -0.1442005E-02 Eh
   gradient norm :     0.0091265 Eh/α   predicted    -0.1390875E-02 (  -3.55%)
   displ. norm   :     0.7731982 α      lambda       -0.1794554E-02
   maximum displ.:     0.4447610 α      in ANC's #3, #1, #4, ...

........................................................................
.............................. CYCLE   32 ..............................
........................................................................

 iter      E             dE          RMSdq      gap      omega  full diag
   1   -398.2772869 -0.398277E+03  0.538E-02    0.08       0.0  T
   2   -398.2772997 -0.127331E-04  0.332E-02    0.08       1.0  T
   3   -398.2773082 -0.849754E-05  0.196E-02    0.08       1.0  T
   4   -398.2773091 -0.956317E-06  0.778E-03    0.08       1.0  T
   5   -398.2773153 -0.619041E-05  0.517E-03    0.08       1.3  T
   6   -398.2773182 -0.288131E-05  0.165E-03    0.08       3.9  T
   7   -398.2773185 -0.285217E-06  0.108E-03    0.08       6.0  T
   8   -398.2773186 -0.767528E-07  0.523E-04    0.08      12.4  T
   9   -398.2773186 -0.241091E-07  0.283E-04    0.08      22.8  T
     SCC iter.                  ...        0 min,  0.606 sec
     gradient                   ...        0 min,  0.305 sec
 * total energy  :  -392.9748219 Eh     change       -0.1280312E-02 Eh
   gradient norm :     0.0121018 Eh/α   predicted    -0.1433712E-02 (  11.98%)
   displ. norm   :     0.7368890 α      lambda       -0.1321376E-02
   maximum displ.:     0.4124274 α      in ANC's #3, #4, #1, ...

........................................................................
.............................. CYCLE   33 ..............................
........................................................................

 iter      E             dE          RMSdq      gap      omega  full diag
   1   -398.2728600 -0.398273E+03  0.483E-02    0.08       0.0  T
   2   -398.2728674 -0.737920E-05  0.286E-02    0.08       1.0  T
   3   -398.2728679 -0.510269E-06  0.176E-02    0.08       1.0  T
   4   -398.2728616  0.627718E-05  0.885E-03    0.09       1.0  T
   5   -398.2728703 -0.868928E-05  0.290E-03    0.08       2.2  T
   6   -398.2728709 -0.518273E-06  0.189E-03    0.08       3.4  T
   7   -398.2728713 -0.436761E-06  0.687E-04    0.08       9.4  T
   8   -398.2728713 -0.126258E-07  0.294E-04    0.08      22.0  T
     SCC iter.                  ...        0 min,  0.542 sec
     gradient                   ...        0 min,  0.307 sec
 * total energy  :  -392.9759027 Eh     change       -0.1080854E-02 Eh
   gradient norm :     0.0111312 Eh/α   predicted    -0.1019449E-02 (  -5.68%)
   displ. norm   :     0.6377735 α      lambda       -0.1673121E-02
   maximum displ.:     0.3542955 α      in ANC's #4, #5, #3, ...

........................................................................
.............................. CYCLE   34 ..............................
........................................................................

 iter      E             dE          RMSdq      gap      omega  full diag
   1   -398.2875354 -0.398288E+03  0.569E-02    0.09       0.0  T
   2   -398.2875296  0.584447E-05  0.348E-02    0.08       1.0  T
   3   -398.2873282  0.201400E-03  0.453E-02    0.09       1.0  T
   4   -398.2875485 -0.220271E-03  0.957E-03    0.09       1.0  T
   5   -398.2875475  0.935292E-06  0.860E-03    0.08       1.0  T
   6   -398.2875571 -0.960710E-05  0.153E-03    0.09       4.2  T
   7   -398.2875572 -0.216454E-07  0.759E-04    0.09       8.5  T
   8   -398.2875572 -0.208487E-07  0.385E-04    0.09      16.8  T
     SCC iter.                  ...        0 min,  0.542 sec
     gradient                   ...        0 min,  0.309 sec
 * total energy  :  -392.9767995 Eh     change       -0.8967898E-03 Eh
   gradient norm :     0.0112924 Eh/α   predicted    -0.1176836E-02 (  31.23%)
   displ. norm   :     0.7317891 α      lambda       -0.1239853E-02
   maximum displ.:     0.4115883 α      in ANC's #3, #4, #1, ...

........................................................................
.............................. CYCLE   35 ..............................
........................................................................

 iter      E             dE          RMSdq      gap      omega  full diag
   1   -398.2773177 -0.398277E+03  0.530E-02    0.08       0.0  T
   2   -398.2773191 -0.135737E-05  0.343E-02    0.09       1.0  T
   3   -398.2773188  0.274700E-06  0.235E-02    0.08       1.0  T
   4   -398.2773030  0.158235E-04  0.175E-02    0.09       1.0  T
   5   -398.2773338 -0.308179E-04  0.224E-03    0.08       2.9  T
   6   -398.2773336  0.139879E-06  0.234E-03    0.08       2.8  T
   7   -398.2773343 -0.664961E-06  0.557E-04    0.08      11.6  T
   8   -398.2773343 -0.132450E-07  0.287E-04    0.08      22.5  T
     SCC iter.                  ...        0 min,  0.543 sec
     gradient                   ...        0 min,  0.305 sec
 * total energy  :  -392.9776649 Eh     change       -0.8653253E-03 Eh
   gradient norm :     0.0100259 Eh/α   predicted    -0.9519088E-03 (  10.01%)
   displ. norm   :     0.6088848 α      lambda       -0.7315068E-03
   maximum displ.:     0.3284966 α      in ANC's #4, #3, #1, ...

........................................................................
.............................. CYCLE   36 ..............................
........................................................................

 iter      E             dE          RMSdq      gap      omega  full diag
   1   -398.2743154 -0.398274E+03  0.388E-02    0.08       0.0  T
   2   -398.2743188 -0.343202E-05  0.237E-02    0.08       1.0  T
   3   -398.2743151  0.373161E-05  0.169E-02    0.08       1.0  T
   4   -398.2743083  0.680106E-05  0.109E-02    0.08       1.0  T
   5   -398.2743227 -0.143921E-04  0.204E-03    0.08       3.2  T
   6   -398.2743230 -0.306264E-06  0.122E-03    0.08       5.3  T
   7   -398.2743231 -0.123982E-06  0.520E-04    0.08      12.4  T
   8   -398.2743231 -0.268629E-07  0.199E-04    0.08      32.5  T
     SCC iter.                  ...        0 min,  0.540 sec
     gradient                   ...        0 min,  0.306 sec
 * total energy  :  -392.9782075 Eh     change       -0.5426578E-03 Eh
   gradient norm :     0.0112927 Eh/α   predicted    -0.5013555E-03 (  -7.61%)
   displ. norm   :     0.5294172 α      lambda       -0.8039423E-03
   maximum displ.:     0.3281218 α      in ANC's #4, #3, #5, ...

........................................................................
.............................. CYCLE   37 ..............................
........................................................................

 iter      E             dE          RMSdq      gap      omega  full diag
   1   -398.2763767 -0.398276E+03  0.376E-02    0.08       0.0  T
   2   -398.2763661  0.105508E-04  0.257E-02    0.08       1.0  T
   3   -398.2763236  0.425829E-04  0.271E-02    0.07       1.0  T
   4   -398.2763634 -0.398883E-04  0.126E-02    0.08       1.0  T
   5   -398.2763856 -0.221848E-04  0.373E-03    0.08       1.7  T
   6   -398.2763867 -0.110751E-05  0.939E-04    0.08       6.9  T
   7   -398.2763868 -0.303069E-07  0.503E-04    0.08      12.9  T
   8   -398.2763868 -0.206058E-07  0.242E-04    0.08      26.8  T
     SCC iter.                  ...        0 min,  0.541 sec
     gradient                   ...        0 min,  0.306 sec
 * total energy  :  -392.9788210 Eh     change       -0.6135103E-03 Eh
   gradient norm :     0.0075954 Eh/α   predicted    -0.5146370E-03 ( -16.12%)
   displ. norm   :     0.6228601 α      lambda       -0.7405560E-03
   maximum displ.:     0.3731440 α      in ANC's #4, #3, #2, ...

........................................................................
.............................. CYCLE   38 ..............................
........................................................................

 iter      E             dE          RMSdq      gap      omega  full diag
   1   -398.2833303 -0.398283E+03  0.475E-02    0.08       0.0  T
   2   -398.2832921  0.382008E-04  0.338E-02    0.08       1.0  T
   3   -398.2831111  0.180932E-03  0.440E-02    0.07       1.0  T
   4   -398.2833436 -0.232495E-03  0.827E-03    0.08       1.0  T
   5   -398.2833529 -0.925803E-05  0.313E-03    0.08       2.1  T
   6   -398.2833536 -0.734068E-06  0.134E-03    0.08       4.8  T
   7   -398.2833537 -0.103065E-06  0.561E-04    0.08      11.5  T
   8   -398.2833538 -0.359331E-07  0.316E-04    0.08      20.4  T
     SCC iter.                  ...        0 min,  0.549 sec
     gradient                   ...        0 min,  0.307 sec
 * total energy  :  -392.9792439 Eh     change       -0.4228780E-03 Eh
   gradient norm :     0.0094474 Eh/α   predicted    -0.5139359E-03 (  21.53%)
   displ. norm   :     0.5890058 α      lambda       -0.5492221E-03
   maximum displ.:     0.3458807 α      in ANC's #4, #3, #5, ...

........................................................................
.............................. CYCLE   39 ..............................
........................................................................

 iter      E             dE          RMSdq      gap      omega  full diag
   1   -398.2775769 -0.398278E+03  0.418E-02    0.07       0.0  T
   2   -398.2775743  0.254405E-05  0.266E-02    0.08       1.0  T
   3   -398.2775491  0.252336E-04  0.243E-02    0.07       1.0  T
   4   -398.2775425  0.655344E-05  0.178E-02    0.08       1.0  T
   5   -398.2775856 -0.431053E-04  0.401E-03    0.08       1.6  T
   6   -398.2775870 -0.134583E-05  0.125E-03    0.07       5.2  T
   7   -398.2775871 -0.978575E-07  0.677E-04    0.07       9.6  T
   8   -398.2775871 -0.533988E-07  0.271E-04    0.07      23.9  T
     SCC iter.                  ...        0 min,  0.546 sec
     gradient                   ...        0 min,  0.306 sec
 * total energy  :  -392.9795489 Eh     change       -0.3050043E-03 Eh
   gradient norm :     0.0067471 Eh/α   predicted    -0.3698811E-03 (  21.27%)
   displ. norm   :     0.3746806 α      lambda       -0.2820346E-03
   maximum displ.:     0.2038728 α      in ANC's #4, #3, #2, ...

........................................................................
.............................. CYCLE   40 ..............................
........................................................................

 iter      E             dE          RMSdq      gap      omega  full diag
   1   -398.2782327 -0.398278E+03  0.210E-02    0.07       0.0  T
   2   -398.2782315  0.118463E-05  0.132E-02    0.07       1.0  T
   3   -398.2781941  0.373963E-04  0.180E-02    0.07       1.0  T
   4   -398.2782348 -0.406842E-04  0.452E-03    0.07       1.4  T
   5   -398.2782371 -0.230673E-05  0.175E-03    0.07       3.7  T
   6   -398.2782375 -0.390743E-06  0.732E-04    0.07       8.8  T
   7   -398.2782375 -0.148093E-07  0.375E-04    0.07      17.2  T
     SCC iter.                  ...        0 min,  0.473 sec
     gradient                   ...        0 min,  0.307 sec
 * total energy  :  -392.9796923 Eh     change       -0.1434073E-03 Eh
   gradient norm :     0.0072956 Eh/α   predicted    -0.1608166E-03 (  12.14%)
   displ. norm   :     0.2875448 α      lambda       -0.1586694E-03
   maximum displ.:     0.1541666 α      in ANC's #4, #3, #2, ...

........................................................................
.............................. CYCLE   41 ..............................
........................................................................

 iter      E             dE          RMSdq      gap      omega  full diag
   1   -398.2795410 -0.398280E+03  0.200E-02    0.08       0.0  T
   2   -398.2795371  0.388314E-05  0.134E-02    0.07       1.0  T
   3   -398.2795054  0.317120E-04  0.181E-02    0.08       1.0  T
   4   -398.2795425 -0.371522E-04  0.423E-03    0.08       1.5  T
   5   -398.2795432 -0.686328E-06  0.327E-03    0.07       2.0  T
   6   -398.2795443 -0.114692E-05  0.518E-04    0.07      12.5  T
   7   -398.2795443  0.472539E-09  0.282E-04    0.07      22.9  T
   8   -398.2795444 -0.901690E-08  0.105E-04    0.07      61.6  T
     SCC iter.                  ...        0 min,  0.544 sec
     gradient                   ...        0 min,  0.305 sec
 * total energy  :  -392.9797795 Eh     change       -0.8720818E-04 Eh
   gradient norm :     0.0045755 Eh/α   predicted    -0.8589606E-04 (  -1.50%)
   displ. norm   :     0.1626801 α      lambda       -0.9085595E-04
   maximum displ.:     0.0763796 α      in ANC's #2, #3, #4, ...

........................................................................
.............................. CYCLE   42 ..............................
........................................................................

 iter      E             dE          RMSdq      gap      omega  full diag
   1   -398.2816895 -0.398282E+03  0.133E-02    0.08       0.0  T
   2   -398.2816846  0.495498E-05  0.112E-02    0.07       1.0  T
   3   -398.2816892 -0.463080E-05  0.866E-03    0.08       1.0  T
   4   -398.2816931 -0.386541E-05  0.341E-03    0.08       1.9  T
   5   -398.2816925  0.627726E-06  0.305E-03    0.08       2.1  T
   6   -398.2816938 -0.130927E-05  0.450E-04    0.08      14.4  T
   7   -398.2816938 -0.915753E-08  0.203E-04    0.08      31.9  T
   8   -398.2816938 -0.308995E-08  0.879E-05    0.08      73.6  T
     SCC iter.                  ...        0 min,  0.546 sec
     gradient                   ...        0 min,  0.308 sec
 * total energy  :  -392.9798186 Eh     change       -0.3904178E-04 Eh
   gradient norm :     0.0044594 Eh/α   predicted    -0.4663077E-04 (  19.44%)
   displ. norm   :     0.1362267 α      lambda       -0.6897531E-04
   maximum displ.:     0.0663623 α      in ANC's #3, #2, #1, ...
 * RMSD in coord.:     0.7753588 α      energy gain  -0.2892149E-01 Eh

generating ANC from exact Hessian ...
Using Lindh-Hessian (1995)
 Shifting diagonal of input Hessian by    9.8539600809267672E-003
 Lowest  eigenvalues of input Hessian
    0.000000    0.000000    0.000000    0.000000    0.000000    0.000000
    0.010000    0.010412    0.010553    0.010771    0.011323    0.012092
    0.012802    0.013963    0.016383    0.017709    0.018408    0.021913
 Highest eigenvalues
    3.131355    3.201155    3.211793    3.246237    3.328450    3.333684


........................................................................
.............................. CYCLE   43 ..............................
........................................................................

 iter      E             dE          RMSdq      gap      omega  full diag
   1   -398.2807498 -0.398281E+03  0.109E-02    0.08       0.0  T
   2   -398.2807476  0.219879E-05  0.835E-03    0.08       1.0  T
   3   -398.2807478 -0.159258E-06  0.744E-03    0.08       1.0  T
   4   -398.2807515 -0.369504E-05  0.257E-03    0.08       2.5  T
   5   -398.2807509  0.593039E-06  0.268E-03    0.08       2.4  T
   6   -398.2807518 -0.897686E-06  0.510E-04    0.08      12.7  T
   7   -398.2807518 -0.253623E-07  0.189E-04    0.08      34.3  T
     SCC iter.                  ...        0 min,  0.462 sec
     gradient                   ...        0 min,  0.308 sec
 * total energy  :  -392.9798519 Eh     change       -0.3331164E-04 Eh
   gradient norm :     0.0041875 Eh/α   predicted     0.0000000E+00 (-100.00%)
   displ. norm   :     0.0426699 α      lambda       -0.5152527E-04
   maximum displ.:     0.0205702 α      in ANC's #7, #5, #10, ...

........................................................................
.............................. CYCLE   44 ..............................
........................................................................

 iter      E             dE          RMSdq      gap      omega  full diag
   1   -398.2807609 -0.398281E+03  0.868E-03    0.08       0.0  T
   2   -398.2807600  0.875985E-06  0.601E-03    0.08       1.1  T
   3   -398.2807553  0.470477E-05  0.769E-03    0.08       1.0  T
   4   -398.2807610 -0.571322E-05  0.214E-03    0.08       3.0  T
   5   -398.2807613 -0.244195E-06  0.127E-03    0.08       5.1  T
   6   -398.2807615 -0.228120E-06  0.148E-04    0.08      43.7  T
   7   -398.2807615 -0.714692E-09  0.780E-05    0.08      82.9  T
     SCC iter.                  ...        0 min,  0.484 sec
     gradient                   ...        0 min,  0.308 sec
 * total energy  :  -392.9798926 Eh     change       -0.4071003E-04 Eh
   gradient norm :     0.0017349 Eh/α   predicted    -0.2710490E-04 ( -33.42%)
   displ. norm   :     0.1251607 α      lambda       -0.5145269E-04
   maximum displ.:     0.0694643 α      in ANC's #7, #10, #5, ...

........................................................................
.............................. CYCLE   45 ..............................
........................................................................

 iter      E             dE          RMSdq      gap      omega  full diag
   1   -398.2806191 -0.398281E+03  0.229E-02    0.08       0.0  T
   2   -398.2806160  0.303553E-05  0.145E-02    0.08       1.0  T
   3   -398.2805750  0.410788E-04  0.201E-02    0.07       1.0  T
   4   -398.2806194 -0.444639E-04  0.410E-03    0.08       1.6  T
   5   -398.2806201 -0.655886E-06  0.287E-03    0.08       2.3  T
   6   -398.2806210 -0.968206E-06  0.340E-04    0.08      19.0  T
   7   -398.2806211 -0.317817E-08  0.173E-04    0.08      37.5  T
     SCC iter.                  ...        0 min,  0.482 sec
     gradient                   ...        0 min,  0.308 sec
 * total energy  :  -392.9799291 Eh     change       -0.3655136E-04 Eh
   gradient norm :     0.0028582 Eh/α   predicted    -0.2590628E-04 ( -29.12%)
   displ. norm   :     0.0324787 α      lambda       -0.1545686E-04
   maximum displ.:     0.0215199 α      in ANC's #7, #9, #1, ...

........................................................................
.............................. CYCLE   46 ..............................
........................................................................

 iter      E             dE          RMSdq      gap      omega  full diag
   1   -398.2807342 -0.398281E+03  0.592E-03    0.08       0.0  T
   2   -398.2807342 -0.220394E-07  0.354E-03    0.08       1.8  T
   3   -398.2807340  0.189364E-06  0.239E-03    0.08       2.7  T
   4   -398.2807341 -0.694248E-07  0.126E-03    0.08       5.1  T
   5   -398.2807343 -0.167030E-06  0.221E-04    0.08      29.2  T
   6   -398.2807343 -0.644593E-08  0.111E-04    0.08      58.3  T
     SCC iter.                  ...        0 min,  0.405 sec
     gradient                   ...        0 min,  0.308 sec
 * total energy  :  -392.9799423 Eh     change       -0.1315180E-04 Eh
   gradient norm :     0.0019853 Eh/α   predicted    -0.7737029E-05 ( -41.17%)
   displ. norm   :     0.1234042 α      lambda       -0.2880276E-04
   maximum displ.:     0.0825023 α      in ANC's #7, #9, #1, ...

........................................................................
.............................. CYCLE   47 ..............................
........................................................................

 iter      E             dE          RMSdq      gap      omega  full diag
   1   -398.2808510 -0.398281E+03  0.217E-02    0.08       0.0  T
   2   -398.2808512 -0.178367E-06  0.129E-02    0.08       1.0  T
   3   -398.2808466  0.455686E-05  0.921E-03    0.08       1.0  T
   4   -398.2808484 -0.180841E-05  0.536E-03    0.08       1.2  T
   5   -398.2808517 -0.328865E-05  0.960E-04    0.08       6.7  T
   6   -398.2808518 -0.127661E-06  0.279E-04    0.08      23.2  T
   7   -398.2808518 -0.790862E-09  0.152E-04    0.08      42.5  T
     SCC iter.                  ...        0 min,  0.485 sec
     gradient                   ...        0 min,  0.308 sec
 * total energy  :  -392.9799609 Eh     change       -0.1860048E-04 Eh
   gradient norm :     0.0015186 Eh/α   predicted    -0.1450246E-04 ( -22.03%)
   displ. norm   :     0.0238601 α      lambda       -0.4862604E-05
   maximum displ.:     0.0156997 α      in ANC's #7, #1, #4, ...

........................................................................
.............................. CYCLE   48 ..............................
........................................................................

 iter      E             dE          RMSdq      gap      omega  full diag
   1   -398.2808215 -0.398281E+03  0.390E-03    0.08       0.0  T
   2   -398.2808215  0.508453E-08  0.232E-03    0.08       2.8  T
   3   -398.2808209  0.641800E-06  0.263E-03    0.08       2.5  T
   4   -398.2808215 -0.663288E-06  0.340E-04    0.08      19.0  T
   5   -398.2808215 -0.849394E-08  0.290E-04    0.08      22.3  T
     SCC iter.                  ...        0 min,  0.341 sec
     gradient                   ...        0 min,  0.307 sec
 * total energy  :  -392.9799662 Eh     change       -0.5297758E-05 Eh
   gradient norm :     0.0006180 Eh/α   predicted    -0.2432474E-05 ( -54.08%)
   displ. norm   :     0.0437217 α      lambda       -0.5004739E-05
   maximum displ.:     0.0236995 α      in ANC's #7, #1, #4, ...

........................................................................
.............................. CYCLE   49 ..............................
........................................................................

 iter      E             dE          RMSdq      gap      omega  full diag
   1   -398.2808379 -0.398281E+03  0.626E-03    0.08       0.0  T
   2   -398.2808379 -0.614722E-08  0.368E-03    0.08       1.8  T
   3   -398.2808368  0.114191E-05  0.291E-03    0.08       2.2  T
   4   -398.2808379 -0.114024E-05  0.617E-04    0.08      10.5  T
   5   -398.2808380 -0.450675E-07  0.132E-04    0.08      49.0  T
   6   -398.2808380 -0.213061E-08  0.709E-05    0.08      91.2  T
     SCC iter.                  ...        0 min,  0.407 sec
     gradient                   ...        0 min,  0.337 sec
 * total energy  :  -392.9799708 Eh     change       -0.4575853E-05 Eh
   gradient norm :     0.0005390 Eh/α   predicted    -0.2507103E-05 ( -45.21%)
   displ. norm   :     0.0400868 α      lambda       -0.2099054E-05
   maximum displ.:     0.0229012 α      in ANC's #1, #7, #4, ...

   *** GEOMETRY OPTIMIZATION CONVERGED AFTER 49 ITERATIONS ***

------------------------------------------------------------------------
 total energy gain   :        -0.5892445 Eh     -369.7565 kcal/mol
 total RMSD          :         1.4353268 a0        0.7595 Å
 total power (kW/mol):       -31.5726781 (step)  -33.0967 (real)
------------------------------------------------------------------------

 ANCopt (total)                0 d,  0 h,  0 min, 46.744 sec
 optimizer setup                ...        0 min,  0.000 sec (  0.001%)
 model hessian                  ...        0 min,  0.282 sec (  0.604%)
 ANC generation                 ...        0 min,  0.112 sec (  0.239%)
 coordinate transformation      ...        0 min,  0.010 sec (  0.020%)
 single point calculation       ...        0 min, 46.278 sec ( 99.001%)
 optimization log               ...        0 min,  0.017 sec (  0.036%)
 hessian update                 ...        0 min,  0.007 sec (  0.014%)
 rational function              ...        0 min,  0.032 sec (  0.068%)

================
 final structure:
================
239
 xtb: 6.7.1 (edcfbbe)
N            0.12741885902205       -1.72686915902121       -0.82949218249708
N           -0.14418972914539       -1.06431269784724        1.92988573623769
C           -0.44528385558956       -0.95205201629866       -3.11902338910961
C           -0.00997573131713       -1.91463149951424       -2.18023545979484
C            0.41772480548361       -3.25541616448092       -2.53366921638335
H            0.40198913041152       -3.66474889799198       -3.54478938235712
C            0.83899837476589       -3.85141065802120       -1.37872571541468
H            1.24085571716854       -4.85627061182135       -1.24260092748973
C            0.62232555386762       -2.89697610884858       -0.30822528588087
C            0.79828141986029       -3.19177770010688        1.05871468755060
C            0.37035656281051       -2.32784256512944        2.08569909115624
C            0.29005172218765       -2.71320770511796        3.48229434421905
H            0.63182316030152       -3.67018765400151        3.87955505820616
C           -0.32123039802298       -1.68726323308139        4.14496529753036
H           -0.57816452126895       -1.61476680940416        5.20261781418821
C           -0.57644872829099       -0.64967633692427        3.16350871825908
C            1.35488747939386       -4.53717135681843        1.44355726255565
C            2.69430741528452       -4.67215911339158        1.87989027127264
C            3.22266725747469       -5.92358705727405        2.24548519535274
C            2.40769623458493       -7.05667171166704        2.16648553400527
H            2.81917473212614       -8.03711171618398        2.44034141617082
C            1.07987796483104       -6.96357586131730        1.74161776777009
C            0.55541125348546       -5.70458406300185        1.39234243466758
N           -0.91887171097306        1.60610315421880        1.20535070742611
N           -0.60122740824501        0.95817616338731       -1.53477652633620
C           -1.15488687268197        0.60093005478328        3.46838335403652
C           -1.24964857479438        1.65840576163489        2.53713599801831
C           -1.64433715144664        3.00765859614282        2.88765389340464
H           -1.97353042769504        3.31702747490242        3.88097812857633
C           -1.50080066284471        3.76903003902871        1.76096674509782
H           -1.69647504171243        4.83411057165557        1.63409194374349
C           -1.08367240995269        2.87622283625106        0.70051241727316
C           -0.95740824546043        3.25131065826036       -0.64996447421999
C           -0.81287988091951        2.30541135909072       -1.68403810527672
C           -1.00936263620881        2.61568312846005       -3.08604029820270
H           -1.19559929811881        3.61605857449597       -3.47838094873277
C           -0.96720532980377        1.43108489046507       -3.76458147107154
H           -1.10758088606547        1.25208427301818       -4.83145254012246
C           -0.67838280079567        0.39877399664033       -2.78733268015005
C           -1.04799730929978        4.70368378469978       -1.03179431864450
C            0.13026581687454        5.41280095981839       -1.37095497556697
C            0.07893089708860        6.75597336243001       -1.78566260027127
C           -1.15777064729934        7.40666355004644       -1.83426493794065
H           -1.20209593080694        8.45774972174974       -2.14856932124352
C           -2.33950334214760        6.74212185475993       -1.49321201170810
C           -2.28332125090224        5.38908446078629       -1.10908296359506
Fe          -0.28756316485832       -0.02055301752318        0.20056973707164
Cl          -2.50609540723919       -0.68421545714349        0.15041574710318
C           -1.75249220104494        0.79942058177537        4.83968904867659
C           -1.00233700542591        1.34561556060622        5.91504184101963
C           -3.10829613997274        0.42424668245088        5.05435740553944
C           -1.59411265376966        1.52045127635757        7.18188401804250
N            0.34359855217726        1.71484750771047        5.65939841340652
C           -3.69664869078989        0.62340276048187        6.32184160048251
N           -3.81819847190728       -0.16982751432420        3.98405030908504
H           -0.99459438153144        1.92926200070084        7.99970185761464
C           -2.93362546472690        1.16229900414704        7.36107388737431
C            1.30790942215675        2.13563822271126        6.54867448166590
H            0.62583831772407        1.62140686201970        4.68177676963185
H           -4.74541773422320        0.35043013786918        6.46355673838378
C           -5.14280797431464       -0.55989744439588        3.95095937254437
H           -3.27900818297535       -0.33399848022211        3.12860865353174
H           -3.39718630623617        1.30626214909247        8.34556146803000
O            1.15019577602287        2.23742873527179        7.76000996373182
C            2.63498789760324        2.47772775975352        5.90535866058332
O           -5.95251707741911       -0.33910327347853        4.84626375303050
C           -5.53515292714135       -1.31210957050759        2.70191118217971
C            3.89090169036310        2.10609869475116        6.65076493035415
H            2.69795727335367        2.48518461461842        4.81256494440322
C            3.45451027653246        3.55118835172786        6.63195155873159
C           -6.88689568323534       -1.02721243940118        2.09600662972288
H           -4.74247326834793       -1.61185329253024        2.00671436285701
C           -6.69797313718632       -2.29496084148058        2.89470527960867
H            3.77026775490260        1.57828373871726        7.59979330140008
H            4.76246839445660        1.84000017556775        6.04923099035326
H            3.00730918485288        3.94240499566040        7.54920498545857
C            4.22657870061230        4.53113261835280        5.80630836563393
H           -7.49107017444334       -0.25141783066923        2.57484713559005
H           -6.96326425785463       -1.11178629942532        1.00846034919170
H           -7.12661147533420       -2.30934235224824        3.90163242377950
C           -6.65408084526941       -3.61183937677098        2.19494998918520
O            4.30237151859892        5.72381921752092        6.41900920016161
O            4.73869501611830        4.28058103090025        4.73144376495622
O           -7.25956157205948       -4.56738227466056        2.93429491067932
O           -6.15728297424933       -3.81703651016021        1.10579415136575
C            5.03676583744673        6.80206740250226        5.76654585835302
C           -7.32779044845923       -5.91543899971815        2.39030613817507
C            4.05307935943141        7.67095876527132        4.97309208264900
C            5.77742653151802        7.56270669620058        6.86524351156905
H            5.74928962449464        6.32623899647247        5.06907184398743
C           -7.32193670988818       -6.87089581243160        3.58467198965234
C           -8.57368820827140       -6.04255783829838        1.50648963043692
H           -6.42271122908291       -6.06103497598679        1.77044575426149
H            3.55721176320361        7.07127426890620        4.19368037080544
H            3.28845201121499        8.09228340999781        5.63944817310939
H            4.58905757365127        8.49999777582064        4.49053718401537
H            6.45620264325875        6.89587480954636        7.41205992729832
H            6.37458448820658        8.37712003522251        6.43332824904420
H            5.07304600855547        7.99690821596803        7.58624525190705
H           -6.41527610582087       -6.72773266951480        4.18673839701688
H           -8.19973491395068       -6.69990090301260        4.22590688021717
H           -7.35395060617121       -7.91345075320881        3.23956985661666
H           -8.51985653867997       -5.33466765687001        0.66819177075476
H           -8.65083671196517       -7.06029041924055        1.09918873830557
H           -9.48575402226033       -5.83987554740669        2.08832650812036
C           -0.66290099158340       -1.41627291473342       -4.53747318777489
C            0.30562508254583       -1.19069352382818       -5.55288185653633
C           -1.85348810253758       -2.12532401467859       -4.85714097526026
C            0.11967069204265       -1.72101006090608       -6.84496663616329
N            1.43487648428388       -0.40154387513582       -5.21650917382413
C           -2.02770298153926       -2.65974993376872       -6.15144971756435
N           -2.84932159216488       -2.22611135665415       -3.85786010014581
H            0.88129480863906       -1.54126488176812       -7.60910122634642
C           -1.03826108582253       -2.45709825130472       -7.11815190594104
C            2.38019155721862        0.15623154944368       -6.04976634783950
H            1.43732227929677       -0.07655068054486       -4.24809506557285
H           -2.93837438261302       -3.22359414936434       -6.37082037692693
C           -4.07011861413313       -2.86782006438115       -3.92048215268895
H           -2.65205454471066       -1.71568252895629       -2.99284100952493
H           -1.17895509114931       -2.87695529957842       -8.12266013054135
O            2.50345822903565       -0.09393586464628       -7.24293081909632
C            3.26075771447039        1.17880790553486       -5.36347519437981
O           -4.42990262121423       -3.58662852680252       -4.84742300407901
C           -4.96427110370718       -2.59279789442257       -2.73598660713139
C            3.56979037959306        2.43539607321804       -6.13949239255316
H            3.18561965966290        1.28188422335223       -4.27534901845841
C            4.65395299424451        1.40000800584972       -5.95256234277041
C           -5.85695435828442       -3.70019420429285       -2.23788822730826
H           -4.62169741419696       -1.87023264072196       -1.98598295643071
C           -6.46706783127581       -2.58772891313514       -3.05563099940624
H            3.14436862643568        2.51367812374864       -7.14349439194987
H            3.65987791139940        3.36453778342693       -5.57179420627910
H            4.91472611486417        0.78697074162799       -6.81927828370551
C            5.76411295083236        1.71801569810244       -5.00057555030233
H           -5.77358098914704       -4.66549807627825       -2.74413198926824
H           -6.05072687808198       -3.71898918779348       -1.16209749326839
H           -6.72018756675040       -2.82050919953561       -4.09453894150755
C           -7.33054529706334       -1.56270956028428       -2.39815458100438
O            6.94378089397084        1.27601380948439       -5.46928865723575
O            5.62284033089367        2.31434132581883       -3.94969305201326
O           -8.32219514248738       -1.16721581130812       -3.22516619576318
O           -7.18464633595355       -1.13700562036212       -1.26997977952042
C            8.14469403460359        1.52352457284314       -4.68066761818786
C           -9.26512550075885       -0.17129880767288       -2.73674254571859
C            9.07136962341224        0.32683232512443       -4.90196700529057
C            8.75319510822915        2.86353573064363       -5.10396842881122
H            7.82772032746188        1.58134922431056       -3.62175426149869
C           -8.71230404347391        1.23375783660340       -3.00790358826472
C          -10.59738830520039       -0.45232570776188       -3.43074705398001
H           -9.35357796631260       -0.32041933254089       -1.64523985821639
H            8.57238962413329       -0.60344993984425       -4.60012343569534
H            9.35676257958284        0.24582587807227       -5.96191184773672
H            9.99094321037506        0.44486302541350       -4.31284082673780
H            8.04448891870109        3.68157054508739       -4.92225489011783
H            9.66835173478924        3.06656562152167       -4.53099023565636
H            9.01818862556786        2.85001436686011       -6.17247328225896
H           -7.75752409514991        1.37851322607570       -2.47681632154673
H           -8.54931102172513        1.38245741845974       -4.08431778260690
H           -9.42432042432888        1.99405722993348       -2.65797358971133
H          -10.94054768586908       -1.47428338551971       -3.21640923568711
H          -11.36789757318555        0.24825692527519       -3.08194555253946
H          -10.50345304531406       -0.34310469113478       -4.51916988941426
H            4.26242827283129       -6.00419825536679        2.58356251449086
H            0.44944391032455       -7.85787966726612        1.67620031015576
H            0.99760222441351        7.27928574876054       -2.07463666530694
H           -3.30394716412821        7.26259262330862       -1.52727844281196
O            3.42762865736763       -3.50728340153480        1.92627501167797
O           -0.73057246784834       -5.52552327271696        0.93953177327708
O            1.29036214691406        4.67078619875111       -1.33867758033563
O           -3.39218523636809        4.66644934102692       -0.73456885373236
C            4.75971294997540       -3.53491237956901        2.33908064429341
C            5.77654851233985       -3.79699490138716        1.41054735225150
C            5.06902840455645       -3.22047858145159        3.66918668647715
C            7.11398258638237       -3.75077310891556        1.82505472136267
H            5.50980664925820       -4.02930916733748        0.37445319370612
C            6.41038630667194       -3.17566207891457        4.07171212978402
H            4.25238467585713       -3.01006720381733        4.36761263438505
C            7.43446573336923       -3.44231718212152        3.15358259004507
H            7.91256078559775       -3.95447736581370        1.10260499306866
H            6.65803855029723       -2.92979185651258        5.11047167369864
H            8.48459038045914       -3.40766225486091        3.47310846217689
C           -1.69458045423800       -6.51751305737563        1.08771158125365
C           -2.08419961867053       -6.97684998335453        2.35412729615310
C           -2.32971627323523       -6.99051752574186       -0.06884542199263
C           -3.10241175943077       -7.93276875754279        2.45462634987655
H           -1.59073660087229       -6.57943376176036        3.24749744795460
C           -3.35260785363004       -7.94004725496688        0.04615283922982
H           -2.01516180235787       -6.59794090712821       -1.04120434418320
C           -3.73751428942907       -8.41914710698662        1.30470670221097
H           -3.40680596418225       -8.29711334892608        3.44202675670024
H           -3.85129389486872       -8.30996669792092       -0.85625904467407
H           -4.53433131325226       -9.16969715360330        1.39051669505075
C            2.55414894065327        5.22918914501918       -1.21447111047470
C            2.84263193463284        6.28804244565777       -0.33923148423284
C            3.58472823177865        4.61365632239919       -1.94334331995731
C            4.16460093947175        6.73664027512507       -0.21395539047460
H            2.04055212339447        6.74773464013469        0.24674849028837
C            4.90083608341084        5.06519826637569       -1.80401756263763
H            3.34614634679076        3.77719221955352       -2.60787271172541
C            5.19645685067062        6.13304863947243       -0.94437722796856
H            4.39009690459843        7.56487421364938        0.47008692089085
H            5.68838412768240        4.56482755281276       -2.37804498623893
H            6.22791036069745        6.49374531143144       -0.83975149539167
C           -4.67593583790244        5.05530853414612       -1.09941748736823
C           -5.03097899140632        5.27332153807674       -2.43854346035387
C           -5.64093885089066        5.13720960877097       -0.08515325771495
C           -6.35692381286128        5.59424037582193       -2.75427330684411
H           -4.27058177580702        5.18376905570838       -3.22152937457524
C           -6.96485549847224        5.45146166245524       -0.41574517666016
H           -5.33649832883550        4.94405987197958        0.94832288115274
C           -7.32677130963747        5.68709476962766       -1.74797601609876
H           -6.63725733354154        5.76499284706474       -3.79938708882138
H           -7.72008885373118        5.51428259661912        0.37510740270195
H           -8.36494749992700        5.93768469532255       -2.00313466456152
N            1.29939178322217        0.40495167500656        0.21509690964505
C            2.53633664747843        0.60366659514513       -0.13158646624829
C            2.94661049639778        0.05977311588019       -1.38955650722270
C            4.22810737763480        0.19847043576115       -1.85034466716287
C            5.16415508911708        0.91245030072114       -1.11128214759188
C            4.79271541799754        1.45292440994170        0.10931769122452
C            3.52340519107151        1.30736825398629        0.63524908200275
C            3.24513190554632        1.85116264298703        2.00891041802171
C            1.84606416073515        2.45728164732225        2.17396079999997
C            1.79951908995971        3.83145469805482        2.76519008994460
C            2.54105271151966        4.90709798369105        2.21543988379195
C            2.18534127263099        6.11051858807016        2.72369101261776
S            0.97933825286971        5.96785070689556        3.94333263506006
C            0.94382328002624        4.26572881367809        3.73037769356972
H            2.20229776922516       -0.48903536529995       -1.94469397786262
H            4.50722314649318       -0.24407938414932       -2.79541044088622
H            6.16560068584053        1.04966606443806       -1.48415649840357
H            5.52522165772820        2.00114531932458        0.68393889299142
H            3.36715585815384        1.03099506314319        2.72277831232950
H            4.00525718431404        2.59738420843402        2.24854248494345
H            1.40079286196172        2.54702675511434        1.17785029769412
H            1.21181298872686        1.77584043885897        2.73861516691317
H            3.29419882598248        4.76922697770105        1.46418335433925
H            2.53369546078378        7.08327182033004        2.44078988065662
H            0.26290864356435        3.70855566912806        4.33516793306006

 Bond Distances (Angstroems)
 ---------------------------
N1-C4=1.3706         N1-C9=1.3732         N1-Fe47=2.0359       N2-C11=1.3732        N2-C16=1.3713        N2-Fe47=2.0250       
C3-C4=1.4133         C3-C39=1.4103        C3-C106=1.5083       C4-N1=1.3706         C4-C3=1.4133         C4-C5=1.4511         
C5-C4=1.4511         C5-H6=1.0909         C5-C7=1.3662         H6-C5=1.0909         C7-C5=1.3662         C7-H8=1.0908         
C7-C9=1.4505         H8-C7=1.0908         C9-N1=1.3732         C9-C7=1.4505         C9-C10=1.4094        C10-C9=1.4094        
C10-C11=1.4086       C10-C17=1.5060       C11-N2=1.3732        C11-C10=1.4086       C11-C12=1.4510       C12-C11=1.4510       
C12-H13=1.0911       C12-C14=1.3658       H13-C12=1.0911       C14-C12=1.3658       C14-H15=1.0908       C14-C16=1.4509       
H15-C14=1.0908       C16-N2=1.3713        C16-C14=1.4509       C16-C26=1.4112       C17-C10=1.5060       C17-C18=1.4152       
C17-C23=1.4159       C18-C17=1.4152       C18-C19=1.4067       C18-O167=1.3773      C19-C18=1.4067       C19-C20=1.3980       
C19-H163=1.0963      C20-C19=1.3980       C20-H21=1.0980       C20-C22=1.3972       H21-C20=1.0980       C22-C20=1.3972       
C22-C23=1.4079       C22-H164=1.0961      C23-C17=1.4159       C23-C22=1.4079       C23-O168=1.3751      N24-C27=1.3732       
N24-C32=1.3767       N24-Fe47=2.0135      N25-C34=1.3719       N25-C39=1.3740       N25-Fe47=2.0169      C26-C16=1.4112       
C26-C27=1.4123       C26-C49=1.5090       C27-N24=1.3732       C27-C26=1.4123       C27-C28=1.4488       C28-C27=1.4488       
C28-H29=1.0912       C28-C30=1.3674       H29-C28=1.0912       C30-C28=1.3674       C30-H31=1.0903       C30-C32=1.4476       
H31-C30=1.0903       C32-N24=1.3767       C32-C30=1.4476       C32-C33=1.4073       C33-C32=1.4073       C33-C34=1.4089       
C33-C40=1.5045       C34-N25=1.3719       C34-C33=1.4089       C34-C35=1.4493       C35-C34=1.4493       C35-H36=1.0906       
C35-C37=1.3658       H36-C35=1.0906       C37-C35=1.3658       C37-H38=1.0909       C37-C39=1.4506       H38-C37=1.0909       
C39-C3=1.4103        C39-N25=1.3740       C39-C37=1.4506       C40-C33=1.5045       C40-C41=1.4164       C40-C46=1.4148       
C41-C40=1.4164       C41-C42=1.4067       C41-O169=1.3775      C42-C41=1.4067       C42-C43=1.3983       C42-H165=1.0960      
C43-C42=1.3983       C43-H44=1.0980       C43-C45=1.3980       H44-C43=1.0980       C45-C43=1.3980       C45-C46=1.4076       
C45-H166=1.0964      C46-C40=1.4148       C46-C45=1.4076       C46-O170=1.3755      Fe47-N1=2.0359       Fe47-N2=2.0250       
Fe47-N24=2.0135      Fe47-N25=2.0169      Fe47-Cl48=2.3162     Fe47-N215=1.6431     Cl48-Fe47=2.3162     C49-C26=1.5090       
C49-C50=1.4204       C49-C51=1.4230       C50-C49=1.4204       C50-C52=1.4091       C50-N53=1.4189       C51-C49=1.4230       
C51-C54=1.4115       C51-N55=1.4151       C52-C50=1.4091       C52-H56=1.0933       C52-C57=1.3981       N53-C50=1.4189       
N53-C58=1.3776       N53-H59=1.0218       C54-C51=1.4115       C54-C57=1.3974       C54-H60=1.0929       N55-C51=1.4151       
N55-C61=1.3812       N55-H62=1.0244       H56-C52=1.0933       C57-C52=1.3981       C57-C54=1.3974       C57-H63=1.0976       
C58-N53=1.3776       C58-O64=1.2258       C58-C65=1.5139       H59-N53=1.0218       H60-C54=1.0929       C61-N55=1.3812       
C61-O66=1.2272       C61-C67=1.5099       H62-N55=1.0244       H63-C57=1.0976       O64-C58=1.2258       C65-C58=1.5139       
C65-C68=1.5070       C65-H69=1.0946       C65-C70=1.5336       O66-C61=1.2272       C67-C61=1.5099       C67-C71=1.5085       
C67-H72=1.0961       C67-C73=1.5347       C68-C65=1.5070       C68-C70=1.5097       C68-H74=1.0926       C68-H75=1.0919       
H69-C65=1.0946       C70-C65=1.5336       C70-C68=1.5097       C70-H76=1.0929       C70-C77=1.4960       C71-C67=1.5085       
C71-C73=1.5102       C71-H78=1.0937       C71-H79=1.0935       H72-C67=1.0961       C73-C67=1.5347       C73-C71=1.5102       
C73-H80=1.0945       C73-C81=1.4919       H74-C68=1.0926       H75-C68=1.0919       H76-C70=1.0929       C77-C70=1.4960       
C77-O82=1.3430       C77-O83=1.2167       H78-C71=1.0937       H79-C71=1.0935       H80-C73=1.0945       C81-C73=1.4919       
C81-O84=1.3514       C81-O85=1.2146       O82-C77=1.3430       O82-C86=1.4587       O83-C77=1.2167       O84-C81=1.3514       
O84-C87=1.4553       O85-C81=1.2146       C86-O82=1.4587       C86-C88=1.5337       C86-C89=1.5278       C86-H90=1.1048       
C87-O84=1.4553       C87-C91=1.5295       C87-C92=1.5328       C87-H93=1.1066       C88-C86=1.5337       C88-H94=1.1014       
C88-H95=1.0983       C88-H96=1.0988       C89-C86=1.5278       C89-H97=1.0975       C89-H98=1.0984       C89-H99=1.0975       
H90-C86=1.1048       C91-C87=1.5295       C91-H100=1.0977      C91-H101=1.1004      C91-H102=1.0987      C92-C87=1.5328       
C92-H103=1.0985      C92-H104=1.0989      C92-H105=1.1007      H93-C87=1.1066       H94-C88=1.1014       H95-C88=1.0983       
H96-C88=1.0988       H97-C89=1.0975       H98-C89=1.0984       H99-C89=1.0975       H100-C91=1.0977      H101-C91=1.1004      
H102-C91=1.0987      H103-C92=1.0985      H104-C92=1.0989      H105-C92=1.1007      C106-C3=1.5083       C106-C107=1.4213     
C106-C108=1.4221     C107-C106=1.4213     C107-C109=1.4090     C107-N110=1.4181     C108-C106=1.4221     C108-C111=1.4111     
C108-N112=1.4144     C109-C107=1.4090     C109-H113=1.0937     C109-C114=1.3990     N110-C107=1.4181     N110-C115=1.3781     
N110-H116=1.0215     C111-C108=1.4111     C111-C114=1.3981     C111-H117=1.0933     N112-C108=1.4144     N112-C118=1.3806     
N112-H119=1.0236     H113-C109=1.0937     C114-C109=1.3990     C114-C111=1.3981     C114-H120=1.0978     C115-N110=1.3781     
C115-O121=1.2253     C115-C122=1.5140     H116-N110=1.0215     H117-C111=1.0933     C118-N112=1.3806     C118-O123=1.2269     
C118-C124=1.5094     H119-N112=1.0236     H120-C114=1.0978     O121-C115=1.2253     C122-C115=1.5140     C122-C125=1.5089     
C122-H126=1.0956     C122-C127=1.5287     O123-C118=1.2269     C124-C118=1.5094     C124-C128=1.5071     C124-H129=1.0963     
C124-C130=1.5364     C125-C122=1.5089     C125-C127=1.5108     C125-H131=1.0932     C125-H132=1.0926     H126-C122=1.0956     
C127-C122=1.5287     C127-C125=1.5108     C127-H133=1.0932     C127-C134=1.4966     C128-C124=1.5071     C128-C130=1.5095     
C128-H135=1.0932     C128-H136=1.0933     H129-C124=1.0963     C130-C124=1.5364     C130-C128=1.5095     C130-H137=1.0943     
C130-C138=1.4928     H131-C125=1.0932     H132-C125=1.0926     H133-C127=1.0932     C134-C127=1.4966     C134-O139=1.3441     
C134-O140=1.2165     H135-C128=1.0932     H136-C128=1.0933     H137-C130=1.0943     C138-C130=1.4928     C138-O141=1.3505     
C138-O142=1.2146     O139-C134=1.3441     O139-C143=1.4579     O140-C134=1.2165     O141-C138=1.3505     O141-C144=1.4559     
O142-C138=1.2146     C143-O139=1.4579     C143-C145=1.5296     C143-C146=1.5314     C143-H147=1.1068     C144-O141=1.4559     
C144-C148=1.5341     C144-C149=1.5282     C144-H150=1.1052     C145-C143=1.5296     C145-H151=1.0980     C145-H152=1.1007     
C145-H153=1.0985     C146-C143=1.5314     C146-H154=1.0975     C146-H155=1.0987     C146-H156=1.1010     H147-C143=1.1068     
C148-C144=1.5341     C148-H157=1.1021     C148-H158=1.0988     C148-H159=1.0989     C149-C144=1.5282     C149-H160=1.0991     
C149-H161=1.0983     C149-H162=1.0979     H150-C144=1.1052     H151-C145=1.0980     H152-C145=1.1007     H153-C145=1.0985     
H154-C146=1.0975     H155-C146=1.0987     H156-C146=1.1010     H157-C148=1.1021     H158-C148=1.0988     H159-C148=1.0989     
H160-C149=1.0991     H161-C149=1.0983     H162-C149=1.0979     H163-C19=1.0963      H164-C22=1.0961      H165-C42=1.0960      
H166-C45=1.0964      O167-C18=1.3773      O167-C171=1.3949     O168-C23=1.3751      O168-C182=1.3912     O169-C41=1.3775      
O169-C193=1.3872     O170-C46=1.3755      O170-C204=1.3901     C171-O167=1.3949     C171-C172=1.4017     C171-C173=1.4013     
C172-C171=1.4017     C172-C174=1.4010     C172-H175=1.0948     C173-C171=1.4013     C173-C176=1.4012     C173-H177=1.0950     
C174-C172=1.4010     C174-C178=1.4010     C174-H179=1.0960     H175-C172=1.0948     C176-C173=1.4012     C176-C178=1.4010     
C176-H180=1.0958     H177-C173=1.0950     C178-C174=1.4010     C178-C176=1.4010     C178-H181=1.0982     H179-C174=1.0960     
H180-C176=1.0958     H181-C178=1.0982     C182-O168=1.3912     C182-C183=1.4024     C182-C184=1.4017     C183-C182=1.4024     
C183-C185=1.4002     C183-H186=1.0952     C184-C182=1.4017     C184-C187=1.4004     C184-H188=1.0948     C185-C183=1.4002     
C185-C189=1.4008     C185-H190=1.0956     H186-C183=1.0952     C187-C184=1.4004     C187-C189=1.4006     C187-H191=1.0954     
H188-C184=1.0948     C189-C185=1.4008     C189-C187=1.4006     C189-H192=1.0980     H190-C185=1.0956     H191-C187=1.0954     
H192-C189=1.0980     C193-O169=1.3872     C193-C194=1.4037     C193-C195=1.4044     C194-C193=1.4037     C194-C196=1.4016     
C194-H197=1.0945     C195-C193=1.4044     C195-C198=1.3984     C195-H199=1.0946     C196-C194=1.4016     C196-C200=1.4009     
C196-H201=1.0976     H197-C194=1.0945     C198-C195=1.3984     C198-C200=1.4024     C198-H202=1.0955     H199-C195=1.0946     
C200-C196=1.4009     C200-C198=1.4024     C200-H203=1.0977     H201-C196=1.0976     H202-C198=1.0955     H203-C200=1.0977     
C204-O170=1.3901     C204-C205=1.4024     C204-C206=1.4024     C205-C204=1.4024     C205-C207=1.4003     C205-H208=1.0951     
C206-C204=1.4024     C206-C209=1.4003     C206-H210=1.0946     C207-C205=1.4003     C207-C211=1.4007     C207-H212=1.0954     
H208-C205=1.0951     C209-C206=1.4003     C209-C211=1.4005     C209-H213=1.0953     H210-C206=1.0946     C211-C207=1.4007     
C211-C209=1.4005     C211-H214=1.0980     H212-C207=1.0954     H213-C209=1.0953     H214-C211=1.0980     N215-Fe47=1.6431     
N215-C216=1.2999     C216-N215=1.2999     C216-C217=1.4306     C216-C221=1.4344     C217-C216=1.4306     C217-C218=1.3689     
C217-H229=1.0786     C218-C217=1.3689     C218-C219=1.3900     C218-H230=1.0802     C219-C218=1.3900     C219-C220=1.3856     
C219-H231=1.0774     C220-C219=1.3856     C220-C221=1.3816     C220-H232=1.0804     C221-C216=1.4344     C221-C220=1.3816     
C221-C222=1.5034     C222-C221=1.5034     C222-C223=1.5336     C222-H233=1.0942     C222-H234=1.0918     C223-C222=1.5336     
C223-C224=1.4967     C223-H235=1.0948     C223-H236=1.0888     C224-C223=1.4967     C224-C225=1.4174     C224-C228=1.3610     
C225-C224=1.4174     C225-C226=1.3539     C225-H237=1.0727     C226-C225=1.3539     C226-S227=1.7211     C226-H238=1.0713     
S227-C226=1.7211     S227-C228=1.7158     C228-C224=1.3610     C228-S227=1.7158     C228-H239=1.0676     H229-C217=1.0786     
H230-C218=1.0802     H231-C219=1.0774     H232-C220=1.0804     H233-C222=1.0942     H234-C222=1.0918     H235-C223=1.0948     
H236-C223=1.0888     H237-C225=1.0727     H238-C226=1.0713     H239-C228=1.0676     
 C  H  Rav=1.0947 sigma=0.0065  Rmin=1.0676  Rmax=1.1068    95
 C  C  Rav=1.4406 sigma=0.0539  Rmin=1.3539  Rmax=1.5364   112
 N  H  Rav=1.0228 sigma=0.0012  Rmin=1.0215  Rmax=1.0244     4
 N  C  Rav=1.3805 sigma=0.0268  Rmin=1.2999  Rmax=1.4189    17
 O  C  Rav=1.3355 sigma=0.0875  Rmin=1.2146  Rmax=1.4587    24
 S  C  Rav=1.7184 sigma=0.0027  Rmin=1.7158  Rmax=1.7211     2
 Fe N  Rav=1.9469 sigma=0.1521  Rmin=1.6431  Rmax=2.0359     5
 Fe Cl Rav=2.3162 sigma=0.0000  Rmin=2.3162  Rmax=2.3162     1

 selected bond angles (degree)
 --------------------
C9-N1-C4=107.07                Fe47-N1-C4=126.37              Fe47-N1-C9=126.55              C16-N2-C11=107.11              
Fe47-N2-C11=126.71             Fe47-N2-C16=126.16             C39-C3-C4=123.16               C106-C3-C4=117.36              
C106-C3-C39=119.48             C3-C4-N1=126.31                C5-C4-N1=109.70                C5-C4-C3=123.94                
H6-C5-C4=124.62                C7-C5-C4=106.74                C7-C5-H6=128.63                H8-C7-C5=128.39                
C9-C7-C5=106.91                C9-C7-H8=124.69                C7-C9-N1=109.53                C10-C9-N1=126.25               
C10-C9-C7=124.02               C11-C10-C9=122.74              C17-C10-C9=118.74              C17-C10-C11=118.29             

 selected dihedral angles (degree)
 ---------------------------------
C3-C4-N1-C9=182.30            C3-C4-N1-Fe47=  1.12          C5-C4-N1-C9=359.83            C5-C4-N1-Fe47=178.65          
N1-C4-C3-C39=  6.38           N1-C4-C3-C106=186.34          C5-C4-C3-C39=189.18           C5-C4-C3-C106=  9.14          
H6-C5-C4-N1=179.44            H6-C5-C4-C3=357.05            C7-C5-C4-N1=358.68            C7-C5-C4-C3=176.29            
H8-C7-C5-C4=180.66            H8-C7-C5-H6=359.86            C9-C7-C5-C4=  2.16            C9-C7-C5-H6=181.36            
C7-C9-N1-C4=  1.53            C7-C9-N1-Fe47=182.71          C10-C9-N1-C4=186.38           C10-C9-N1-Fe47=  7.57         
N1-C9-C7-C5=357.63            N1-C9-C7-H8=179.06            C10-C9-C7-C5=172.90           C10-C9-C7-H8=354.33           
C11-C10-C9-N1=  5.43          C11-C10-C9-C7=190.96          C17-C10-C9-N1=179.86          C17-C10-C9-C7=  5.38          
           -------------------------------------------------
          |                Final Singlepoint                |
           -------------------------------------------------

          ...................................................
          :                      SETUP                      :
          :.................................................:
          :  # basis functions                 677          :
          :  # atomic orbitals                 674          :
          :  # shells                          382          :
          :  # electrons                       709          :
          :  max. iterations                   250          :
          :  Hamiltonian                  GFN2-xTB          :
          :  restarted?                      false          :
          :  GBSA solvation                   true          :
          :  PC potential                    false          :
          :  electronic temp.          300.0000000     K    :
          :  accuracy                    1.0000000          :
          :  -> integral cutoff          0.2500000E+02      :
          :  -> integral neglect         0.1000000E-07      :
          :  -> SCF convergence          0.1000000E-05 Eh   :
          :  -> wf. convergence          0.1000000E-03 e    :
          :  Broyden damping             0.4000000          :
          :  net charge                          0          :
          :  unpaired electrons                  0          :
          ...................................................

 iter      E             dE          RMSdq      gap      omega  full diag
   1   -398.2808380 -0.398281E+03  0.276E-05    0.08       0.0  T
   2   -398.2808380  0.418936E-10  0.295E-05    0.08     219.6  T
   3   -398.2808380 -0.133639E-09  0.138E-05    0.08     468.2  T

   *** convergence criteria satisfied after 3 iterations ***

         #    Occupation            Energy/Eh            Energy/eV
      -------------------------------------------------------------
         1        2.0000           -1.0138148             -27.5873
       ...           ...                  ...                  ...
       349        2.0000           -0.3801316             -10.3439
       350        2.0000           -0.3792580             -10.3201
       351        2.0000           -0.3783809             -10.2963
       352        2.0000           -0.3751848             -10.2093
       353        2.0000           -0.3742510             -10.1839
       354        2.0000           -0.3615962              -9.8395
       355        0.8166           -0.3316206              -9.0239 (HOMO)
       356        0.1834           -0.3287825              -8.9466 (LUMO)
       357                         -0.3058795              -8.3234
       358                         -0.3035230              -8.2593
       359                         -0.2676011              -7.2818
       360                         -0.2625340              -7.1439
       ...                                ...                  ...
       674                          1.5464051              42.0798
      -------------------------------------------------------------
                  HL-Gap            0.0028381 Eh            0.0772 eV
             Fermi-level           -0.3384167 Eh           -9.2088 eV

 SCC (total)                   0 d,  0 h,  0 min,  0.583 sec
 SCC setup                      ...        0 min,  0.004 sec (  0.763%)
 Dispersion                     ...        0 min,  0.004 sec (  0.714%)
 classical contributions        ...        0 min,  0.001 sec (  0.149%)
 integral evaluation            ...        0 min,  0.027 sec (  4.662%)
 iterations                     ...        0 min,  0.221 sec ( 37.845%)
 molecular gradient             ...        0 min,  0.308 sec ( 52.814%)
 printout                       ...        0 min,  0.018 sec (  3.050%)

         :::::::::::::::::::::::::::::::::::::::::::::::::::::
         ::                     SUMMARY                     ::
         :::::::::::::::::::::::::::::::::::::::::::::::::::::
         :: total energy            -392.979970765458 Eh    ::
         :: total w/o Gsasa/hb      -392.869163404129 Eh    ::
         :: gradient norm              0.000538875773 Eh/a0 ::
         :: HOMO-LUMO gap              0.077227615180 eV    ::
         ::.................................................::
         :: SCC energy              -398.255999371244 Eh    ::
         :: -> isotropic ES            0.495430346915 Eh    ::
         :: -> anisotropic ES          0.002372764717 Eh    ::
         :: -> anisotropic XC          0.160517489125 Eh    ::
         :: -> dispersion             -0.356094019936 Eh    ::
         :: -> Gsolv                  -0.157151128189 Eh    ::
         ::    -> Gelec               -0.046343766860 Eh    ::
         ::    -> Gsasa               -0.109686299940 Eh    ::
         ::    -> Ghb                 -0.006074498966 Eh    ::
         ::    -> Gshift               0.004953437577 Eh    ::
         :: repulsion energy           5.265372704689 Eh    ::
         :: add. restraining           0.010655901097 Eh    ::
         :: total charge              -0.000000000010 e     ::
         :::::::::::::::::::::::::::::::::::::::::::::::::::::

           -------------------------------------------------
          |                Property Printout                |
           -------------------------------------------------

    * Orbital Energies and Occupations

         #    Occupation            Energy/Eh            Energy/eV
      -------------------------------------------------------------
         1        2.0000           -1.0138148             -27.5873
       ...           ...                  ...                  ...
       343        2.0000           -0.3870641             -10.5325
       344        2.0000           -0.3862900             -10.5115
       345        2.0000           -0.3847051             -10.4684
       346        2.0000           -0.3832781             -10.4295
       347        2.0000           -0.3827209             -10.4144
       348        2.0000           -0.3808081             -10.3623
       349        2.0000           -0.3801316             -10.3439
       350        2.0000           -0.3792580             -10.3201
       351        2.0000           -0.3783809             -10.2963
       352        2.0000           -0.3751848             -10.2093
       353        2.0000           -0.3742510             -10.1839
       354        2.0000           -0.3615962              -9.8395
       355        0.8166           -0.3316206              -9.0239 (HOMO)
       356        0.1834           -0.3287825              -8.9466 (LUMO)
       357                         -0.3058795              -8.3234
       358                         -0.3035230              -8.2593
       359                         -0.2676011              -7.2818
       360                         -0.2625340              -7.1439
       361                         -0.2597668              -7.0686
       362                         -0.2584729              -7.0334
       363                         -0.2535161              -6.8985
       364                         -0.2520936              -6.8598
       365                         -0.2425796              -6.6009
       366                         -0.2419930              -6.5850
       ...                                ...                  ...
       674                          1.5464051              42.0798
      -------------------------------------------------------------
                  HL-Gap            0.0028381 Eh            0.0772 eV
             Fermi-level           -0.3384167 Eh           -9.2088 eV

     #   Z          covCN         q      C6AA      α(0)
     1   7 N        2.610    -0.205    25.473     7.496
     2   7 N        2.616    -0.207    25.504     7.500
     3   6 C        2.949    -0.019    28.481     8.753
     4   6 C        3.094     0.072    26.272     8.401
     5   6 C        2.989    -0.050    29.225     8.868
     6   1 H        0.924     0.044     2.400     2.423
     7   6 C        2.990    -0.041    29.007     8.835
     8   1 H        0.924     0.039     2.457     2.451
     9   6 C        3.093     0.080    26.105     8.374
    10   6 C        2.949     0.012    27.753     8.641
    11   6 C        3.091     0.080    26.113     8.376
    12   6 C        2.991    -0.042    29.036     8.839
    13   1 H        0.924     0.036     2.509     2.477
    14   6 C        2.987    -0.051    29.252     8.872
    15   1 H        0.924     0.043     2.415     2.430
    16   6 C        3.093     0.071    26.310     8.407
    17   6 C        2.960    -0.031    28.776     8.799
    18   6 C        2.855     0.142    24.896     8.178
    19   6 C        2.902    -0.073    29.832     8.956
    20   6 C        2.909    -0.035    28.870     8.811
    21   1 H        0.923     0.055     2.259     2.350
    22   6 C        2.902    -0.072    29.807     8.952
    23   6 C        2.853     0.142    24.894     8.178
    24   7 N        2.622    -0.207    25.509     7.501
    25   7 N        2.620    -0.211    25.608     7.516
    26   6 C        2.949    -0.020    28.502     8.756
    27   6 C        3.089     0.072    26.283     8.403
    28   6 C        2.990    -0.047    29.159     8.858
    29   1 H        0.924     0.044     2.402     2.424
    30   6 C        2.989    -0.039    28.959     8.827
    31   1 H        0.924     0.039     2.459     2.452
    32   6 C        3.091     0.079    26.127     8.378
    33   6 C        2.950     0.008    27.831     8.653
    34   6 C        3.096     0.080    26.110     8.375
    35   6 C        2.991    -0.043    29.057     8.842
    36   1 H        0.924     0.036     2.508     2.477
    37   6 C        2.990    -0.052    29.291     8.878
    38   1 H        0.924     0.043     2.414     2.430
    39   6 C        3.093     0.069    26.343     8.412
    40   6 C        2.961    -0.029    28.732     8.792
    41   6 C        2.850     0.140    24.951     8.187
    42   6 C        2.902    -0.070    29.737     8.941
    43   6 C        2.909    -0.035    28.869     8.810
    44   1 H        0.923     0.057     2.232     2.337
    45   6 C        2.902    -0.070    29.741     8.942
    46   6 C        2.851     0.142    24.900     8.178
    47  26 Fe       4.577     0.845     4.987     7.204
    48  17 Cl       0.749    -0.563   117.805    16.602
    49   6 C        2.966    -0.029    28.710     8.789
    50   6 C        2.893     0.071    26.418     8.427
    51   6 C        2.894     0.075    26.313     8.410
    52   6 C        2.903    -0.055    29.371     8.886
    53   7 N        2.688    -0.164    24.558     7.360
    54   6 C        2.904    -0.054    29.338     8.881
    55   7 N        2.688    -0.161    24.477     7.348
    56   1 H        0.924     0.077     2.015     2.220
    57   6 C        2.908    -0.031    28.779     8.796
    58   6 C        2.746     0.277    22.312     7.734
    59   1 H        0.860     0.195     1.132     1.666
    60   1 H        0.924     0.078     1.997     2.210
    61   6 C        2.747     0.278    22.294     7.731
    62   1 H        0.859     0.198     1.117     1.656
    63   1 H        0.924     0.053     2.279     2.361
    64   8 O        0.857    -0.458    22.883     6.414
    65   6 C        3.856    -0.044    21.314     6.566
    66   8 O        0.857    -0.460    22.922     6.419
    67   6 C        3.856    -0.038    21.213     6.551
    68   6 C        3.803    -0.052    21.509     6.603
    69   1 H        0.924     0.065     2.143     2.289
    70   6 C        3.855    -0.041    21.277     6.560
    71   6 C        3.802    -0.049    21.447     6.593
    72   1 H        0.924     0.067     2.122     2.278
    73   6 C        3.855    -0.041    21.275     6.560
    74   1 H        0.924     0.077     2.005     2.214
    75   1 H        0.924     0.072     2.065     2.247
    76   1 H        0.924     0.082     1.960     2.189
    77   6 C        2.702     0.359    20.913     7.485
    78   1 H        0.924     0.073     2.049     2.239
    79   1 H        0.924     0.087     1.909     2.161
    80   1 H        0.924     0.081     1.972     2.196
    81   6 C        2.703     0.358    20.917     7.486
    82   8 O        1.700    -0.288    18.794     5.853
    83   8 O        0.856    -0.460    22.924     6.419
    84   8 O        1.700    -0.295    18.901     5.870
    85   8 O        0.856    -0.454    22.783     6.399
    86   6 C        3.730     0.119    18.732     6.179
    87   6 C        3.730     0.122    18.687     6.171
    88   6 C        3.746    -0.124    22.944     6.833
    89   6 C        3.747    -0.124    22.939     6.831
    90   1 H        0.922     0.050     2.317     2.380
    91   6 C        3.747    -0.122    22.909     6.827
    92   6 C        3.746    -0.119    22.843     6.818
    93   1 H        0.922     0.045     2.386     2.416
    94   1 H        0.923     0.055     2.264     2.353
    95   1 H        0.923     0.058     2.225     2.333
    96   1 H        0.923     0.057     2.239     2.340
    97   1 H        0.924     0.055     2.256     2.349
    98   1 H        0.923     0.062     2.179     2.308
    99   1 H        0.924     0.064     2.153     2.295
   100   1 H        0.924     0.055     2.254     2.348
   101   1 H        0.923     0.065     2.146     2.291
   102   1 H        0.923     0.061     2.182     2.310
   103   1 H        0.923     0.049     2.329     2.387
   104   1 H        0.923     0.060     2.197     2.318
   105   1 H        0.923     0.058     2.219     2.330
   106   6 C        2.967    -0.028    28.702     8.788
   107   6 C        2.893     0.072    26.394     8.423
   108   6 C        2.894     0.076    26.311     8.410
   109   6 C        2.903    -0.055    29.362     8.885
   110   7 N        2.689    -0.162    24.494     7.350
   111   6 C        2.903    -0.054    29.337     8.881
   112   7 N        2.689    -0.161    24.478     7.348
   113   1 H        0.924     0.076     2.016     2.221
   114   6 C        2.908    -0.031    28.777     8.796
   115   6 C        2.746     0.276    22.327     7.737
   116   1 H        0.860     0.194     1.135     1.669
   117   1 H        0.924     0.077     2.006     2.215
   118   6 C        2.746     0.278    22.298     7.732
   119   1 H        0.859     0.198     1.119     1.657
   120   1 H        0.924     0.054     2.273     2.358
   121   8 O        0.857    -0.457    22.856     6.410
   122   6 C        3.857    -0.040    21.254     6.557
   123   8 O        0.857    -0.460    22.911     6.417
   124   6 C        3.856    -0.038    21.213     6.550
   125   6 C        3.803    -0.051    21.478     6.598
   126   1 H        0.924     0.058     2.219     2.330
   127   6 C        3.855    -0.042    21.285     6.562
   128   6 C        3.803    -0.049    21.454     6.594
   129   1 H        0.924     0.065     2.146     2.291
   130   6 C        3.855    -0.041    21.267     6.559
   131   1 H        0.924     0.078     2.000     2.212
   132   1 H        0.924     0.070     2.088     2.260
   133   1 H        0.924     0.082     1.954     2.186
   134   6 C        2.703     0.358    20.927     7.488
   135   1 H        0.924     0.075     2.032     2.229
   136   1 H        0.924     0.086     1.916     2.165
   137   1 H        0.924     0.080     1.981     2.201
   138   6 C        2.703     0.358    20.919     7.486
   139   8 O        1.700    -0.289    18.809     5.855
   140   8 O        0.856    -0.454    22.784     6.400
   141   8 O        1.700    -0.294    18.891     5.868
   142   8 O        0.856    -0.453    22.779     6.399
   143   6 C        3.730     0.121    18.696     6.172
   144   6 C        3.731     0.120    18.706     6.174
   145   6 C        3.747    -0.125    22.962     6.835
   146   6 C        3.746    -0.120    22.863     6.820
   147   1 H        0.922     0.048     2.352     2.398
   148   6 C        3.745    -0.117    22.816     6.814
   149   6 C        3.747    -0.124    22.949     6.833
   150   1 H        0.922     0.048     2.341     2.393
   151   1 H        0.923     0.058     2.229     2.335
   152   1 H        0.923     0.064     2.151     2.294
   153   1 H        0.923     0.063     2.160     2.298
   154   1 H        0.924     0.051     2.312     2.378
   155   1 H        0.923     0.061     2.187     2.313
   156   1 H        0.923     0.059     2.212     2.326
   157   1 H        0.923     0.048     2.348     2.396
   158   1 H        0.923     0.058     2.226     2.333
   159   1 H        0.923     0.059     2.207     2.323
   160   1 H        0.923     0.057     2.230     2.335
   161   1 H        0.923     0.063     2.170     2.304
   162   1 H        0.923     0.064     2.151     2.294
   163   1 H        0.924     0.047     2.363     2.404
   164   1 H        0.924     0.048     2.349     2.397
   165   1 H        0.924     0.053     2.284     2.363
   166   1 H        0.924     0.050     2.320     2.382
   167   8 O        1.706    -0.296    18.920     5.873
   168   8 O        1.706    -0.290    18.815     5.856
   169   8 O        1.707    -0.285    18.735     5.844
   170   8 O        1.706    -0.288    18.777     5.850
   171   6 C        2.853     0.137    25.005     8.196
   172   6 C        2.906    -0.048    29.198     8.860
   173   6 C        2.906    -0.048    29.185     8.858
   174   6 C        2.909    -0.031    28.782     8.797
   175   1 H        0.924     0.050     2.324     2.384
   176   6 C        2.909    -0.031    28.778     8.796
   177   1 H        0.924     0.050     2.317     2.380
   178   6 C        2.905    -0.035    28.874     8.811
   179   1 H        0.924     0.051     2.305     2.374
   180   1 H        0.924     0.052     2.298     2.371
   181   1 H        0.923     0.051     2.310     2.377
   182   6 C        2.851     0.139    24.973     8.191
   183   6 C        2.905    -0.050    29.238     8.866
   184   6 C        2.906    -0.047    29.163     8.855
   185   6 C        2.909    -0.032    28.793     8.799
   186   1 H        0.924     0.043     2.413     2.429
   187   6 C        2.909    -0.030    28.748     8.792
   188   1 H        0.924     0.051     2.304     2.374
   189   6 C        2.905    -0.036    28.907     8.816
   190   1 H        0.924     0.048     2.343     2.394
   191   1 H        0.924     0.051     2.305     2.374
   192   1 H        0.923     0.048     2.340     2.392
   193   6 C        2.846     0.138    24.990     8.193
   194   6 C        2.905    -0.054    29.331     8.880
   195   6 C        2.907    -0.046    29.143     8.852
   196   6 C        2.909    -0.032    28.799     8.800
   197   1 H        0.924     0.045     2.386     2.415
   198   6 C        2.908    -0.028    28.694     8.783
   199   1 H        0.924     0.044     2.392     2.419
   200   6 C        2.905    -0.038    28.956     8.823
   201   1 H        0.924     0.043     2.408     2.427
   202   1 H        0.924     0.053     2.288     2.366
   203   1 H        0.924     0.046     2.371     2.408
   204   6 C        2.850     0.138    24.982     8.192
   205   6 C        2.905    -0.051    29.264     8.870
   206   6 C        2.906    -0.049    29.207     8.862
   207   6 C        2.910    -0.032    28.803     8.800
   208   1 H        0.924     0.041     2.430     2.438
   209   6 C        2.909    -0.030    28.757     8.793
   210   1 H        0.924     0.052     2.296     2.370
   211   6 C        2.905    -0.037    28.924     8.819
   212   1 H        0.924     0.049     2.333     2.389
   213   1 H        0.924     0.051     2.312     2.378
   214   1 H        0.923     0.048     2.339     2.392
   215   7 N        1.744    -0.300    28.550     7.908
   216   6 C        2.900     0.114    25.484     8.277
   217   6 C        2.931    -0.039    28.967     8.827
   218   6 C        2.913    -0.027    28.671     8.780
   219   6 C        2.916    -0.026    28.640     8.776
   220   6 C        2.922    -0.038    28.934     8.821
   221   6 C        2.962     0.010    27.793     8.647
   222   6 C        3.807    -0.058    21.610     6.618
   223   6 C        3.805    -0.050    21.459     6.595
   224   6 C        3.151    -0.005    27.869     8.634
   225   6 C        3.128    -0.049    29.005     8.818
   226   6 C        2.939    -0.027    28.678     8.783
   227  16 S        2.294    -0.034   142.454    20.088
   228   6 C        2.952    -0.042    29.053     8.841
   229   1 H        0.926     0.037     2.495     2.470
   230   1 H        0.926     0.043     2.410     2.428
   231   1 H        0.926     0.048     2.340     2.392
   232   1 H        0.926     0.053     2.289     2.366
   233   1 H        0.924     0.056     2.244     2.342
   234   1 H        0.924     0.066     2.134     2.284
   235   1 H        0.924     0.062     2.176     2.307
   236   1 H        0.925     0.029     2.606     2.524
   237   1 H        0.926     0.045     2.386     2.416
   238   1 H        0.926     0.054     2.276     2.359
   239   1 H        0.927     0.044     2.394     2.419

 Mol. C6AA /au·bohr⁶  :     736269.943408
 Mol. C8AA /au·bohr⁸  :   18305023.352860
 Mol. α(0) /au        :       1348.320027


Wiberg/Mayer (AO) data.
largest (>0.10) Wiberg bond orders for each atom

 ---------------------------------------------------------------------------
     #   Z sym  total        # sym  WBO       # sym  WBO       # sym  WBO
 ---------------------------------------------------------------------------
     1   7 N    3.442 --     9 C    1.249     4 C    1.249    47 Fe   0.576
     2   7 N    3.438 --    16 C    1.249    11 C    1.248    47 Fe   0.582
     3   6 C    3.926 --    39 C    1.310     4 C    1.298   106 C    1.001
     4   6 C    3.929 --     3 C    1.298     1 N    1.249     5 C    1.167
     5   6 C    3.953 --     7 C    1.652     4 C    1.167     6 H    0.969
     6   1 H    0.997 --     5 C    0.969
     7   6 C    3.955 --     5 C    1.652     9 C    1.168     8 H    0.970
     8   1 H    0.998 --     7 C    0.970
     9   6 C    3.925 --    10 C    1.310     1 N    1.249     7 C    1.168
    10   6 C    3.933 --    11 C    1.317     9 C    1.310    17 C    1.004
    11   6 C    3.924 --    10 C    1.317     2 N    1.248    12 C    1.164
    12   6 C    3.954 --    14 C    1.657    11 C    1.164    13 H    0.970
    13   1 H    0.998 --    12 C    0.970
    14   6 C    3.952 --    12 C    1.657    16 C    1.163    15 H    0.970
    15   1 H    0.997 --    14 C    0.970
    16   6 C    3.928 --    26 C    1.306     2 N    1.249    14 C    1.163
    17   6 C    3.973 --    18 C    1.339    23 C    1.338    10 C    1.004
                            20 C    0.101
    18   6 C    3.920 --    19 C    1.365    17 C    1.339   167 O    1.034
    19   6 C    3.977 --    20 C    1.438    18 C    1.365   163 H    0.964
    20   6 C    3.986 --    22 C    1.442    19 C    1.438    21 H    0.968
                            17 C    0.101
    21   1 H    0.996 --    20 C    0.968
    22   6 C    3.979 --    20 C    1.442    23 C    1.362   164 H    0.964
    23   6 C    3.920 --    22 C    1.362    17 C    1.338   168 O    1.036
    24   7 N    3.442 --    27 C    1.240    32 C    1.235    47 Fe   0.603
    25   7 N    3.437 --    34 C    1.253    39 C    1.241    47 Fe   0.579
    26   6 C    3.927 --    16 C    1.306    27 C    1.303    49 C    0.997
    27   6 C    3.928 --    26 C    1.303    24 N    1.240    28 C    1.170
    28   6 C    3.951 --    30 C    1.640    27 C    1.170    29 H    0.967
    29   1 H    0.997 --    28 C    0.967
    30   6 C    3.953 --    28 C    1.640    32 C    1.173    31 H    0.970
    31   1 H    0.998 --    30 C    0.970
    32   6 C    3.924 --    33 C    1.316    24 N    1.235    30 C    1.173
    33   6 C    3.935 --    32 C    1.316    34 C    1.308    40 C    1.005
    34   6 C    3.924 --    33 C    1.308    25 N    1.253    35 C    1.167
    35   6 C    3.954 --    37 C    1.654    34 C    1.167    36 H    0.970
    36   1 H    0.998 --    35 C    0.970
    37   6 C    3.952 --    35 C    1.654    39 C    1.164    38 H    0.969
    38   1 H    0.997 --    37 C    0.969
    39   6 C    3.929 --     3 C    1.310    25 N    1.241    37 C    1.164
    40   6 C    3.972 --    46 C    1.339    41 C    1.339    33 C    1.005
    41   6 C    3.921 --    42 C    1.368    40 C    1.339   169 O    1.032
    42   6 C    3.977 --    43 C    1.439    41 C    1.368   165 H    0.964
    43   6 C    3.985 --    45 C    1.441    42 C    1.439    44 H    0.968
    44   1 H    0.996 --    43 C    0.968
    45   6 C    3.976 --    43 C    1.441    46 C    1.364   166 H    0.964
    46   6 C    3.920 --    45 C    1.364    40 C    1.339   170 O    1.035
    47  26 Fe   5.159 --   215 N    1.543    24 N    0.603    48 Cl   0.590
                             2 N    0.582    25 N    0.579     1 N    0.576
                           217 C    0.108
    48  17 Cl   0.745 --    47 Fe   0.590
    49   6 C    3.971 --    50 C    1.348    51 C    1.338    26 C    0.997
    50   6 C    3.950 --    52 C    1.370    49 C    1.348    53 N    1.063
    51   6 C    3.950 --    54 C    1.365    49 C    1.338    55 N    1.076
    52   6 C    3.978 --    57 C    1.438    50 C    1.370    56 H    0.958
    53   7 N    3.496 --    58 C    1.209    50 C    1.063    59 H    0.910
                            64 O    0.165
    54   6 C    3.969 --    57 C    1.444    51 C    1.365    60 H    0.956
    55   7 N    3.500 --    61 C    1.205    51 C    1.076    62 H    0.919
                            66 O    0.160
    56   1 H    0.992 --    52 C    0.958
    57   6 C    3.987 --    54 C    1.444    52 C    1.438    63 H    0.968
    58   6 C    3.949 --    64 O    1.662    53 N    1.209    65 C    0.992
    59   1 H    0.961 --    53 N    0.910
    60   1 H    0.992 --    54 C    0.956
    61   6 C    3.948 --    66 O    1.658    55 N    1.205    67 C    1.000
    62   1 H    0.960 --    55 N    0.919
    63   1 H    0.996 --    57 C    0.968
    64   8 O    1.984 --    58 C    1.662    53 N    0.165
    65   6 C    3.938 --    58 C    0.992    69 H    0.960    68 C    0.957
                            70 C    0.893
    66   8 O    1.988 --    61 C    1.658    55 N    0.160
    67   6 C    3.939 --    61 C    1.000    72 H    0.964    71 C    0.956
                            73 C    0.886
    68   6 C    3.938 --    75 H    0.975    74 H    0.973    65 C    0.957
                            70 C    0.946
    69   1 H    0.996 --    65 C    0.960
    70   6 C    3.938 --    77 C    1.006    76 H    0.964    68 C    0.946
                            65 C    0.893
    71   6 C    3.936 --    78 H    0.974    79 H    0.967    67 C    0.956
                            73 C    0.943
    72   1 H    0.996 --    67 C    0.964
    73   6 C    3.937 --    81 C    1.013    80 H    0.963    71 C    0.943
                            67 C    0.886
    74   1 H    0.994 --    68 C    0.973
    75   1 H    0.995 --    68 C    0.975
    76   1 H    0.993 --    70 C    0.964
    77   6 C    3.919 --    83 O    1.692    82 O    1.150    70 C    1.006
    78   1 H    0.994 --    71 C    0.974
    79   1 H    0.992 --    71 C    0.967
    80   1 H    0.993 --    73 C    0.963
    81   6 C    3.918 --    85 O    1.699    84 O    1.133    73 C    1.013
    82   8 O    2.299 --    77 C    1.150    86 C    0.899    83 O    0.170
    83   8 O    1.993 --    77 C    1.692    82 O    0.170
    84   8 O    2.285 --    81 C    1.133    87 C    0.904    85 O    0.167
    85   8 O    2.004 --    81 C    1.699    84 O    0.167
    86   6 C    3.910 --    89 C    1.007    88 C    1.002    90 H    0.961
                            82 O    0.899
    87   6 C    3.913 --    91 C    1.007    92 C    1.003    93 H    0.962
                            84 O    0.904
    88   6 C    3.989 --    86 C    1.002    95 H    0.984    96 H    0.982
                            94 H    0.964
    89   6 C    3.989 --    86 C    1.007    97 H    0.984    99 H    0.983
                            98 H    0.981
    90   1 H    0.997 --    86 C    0.961
    91   6 C    3.989 --    87 C    1.007   100 H    0.985   101 H    0.983
                           102 H    0.982
    92   6 C    3.990 --    87 C    1.003   103 H    0.985   105 H    0.985
                           104 H    0.982
    93   1 H    0.998 --    87 C    0.962
    94   1 H    0.997 --    88 C    0.964
    95   1 H    0.997 --    88 C    0.984
    96   1 H    0.996 --    88 C    0.982
    97   1 H    0.997 --    89 C    0.984
    98   1 H    0.995 --    89 C    0.981
    99   1 H    0.996 --    89 C    0.983
   100   1 H    0.997 --    91 C    0.985
   101   1 H    0.996 --    91 C    0.983
   102   1 H    0.995 --    91 C    0.982
   103   1 H    0.998 --    92 C    0.985
   104   1 H    0.996 --    92 C    0.982
   105   1 H    0.997 --    92 C    0.985
   106   6 C    3.971 --   107 C    1.343   108 C    1.339     3 C    1.001
   107   6 C    3.950 --   109 C    1.371   106 C    1.343   110 N    1.065
   108   6 C    3.950 --   111 C    1.365   106 C    1.339   112 N    1.076
   109   6 C    3.970 --   114 C    1.437   107 C    1.371   113 H    0.958
   110   7 N    3.495 --   115 C    1.211   107 C    1.065   116 H    0.918
                           121 O    0.166
   111   6 C    3.969 --   114 C    1.444   108 C    1.365   117 H    0.957
   112   7 N    3.499 --   118 C    1.204   108 C    1.076   119 H    0.919
                           123 O    0.160
   113   1 H    0.992 --   109 C    0.958
   114   6 C    3.986 --   111 C    1.444   109 C    1.437   120 H    0.968
   115   6 C    3.950 --   121 O    1.663   110 N    1.211   122 C    0.990
   116   1 H    0.962 --   110 N    0.918
   117   1 H    0.992 --   111 C    0.957
   118   6 C    3.949 --   123 O    1.659   112 N    1.204   124 C    1.000
   119   1 H    0.960 --   112 N    0.919
   120   1 H    0.996 --   114 C    0.968
   121   8 O    1.985 --   115 C    1.663   110 N    0.166
   122   6 C    3.940 --   115 C    0.990   126 H    0.963   125 C    0.955
                           127 C    0.899
   123   8 O    1.978 --   118 C    1.659   112 N    0.160
   124   6 C    3.939 --   118 C    1.000   129 H    0.965   128 C    0.958
                           130 C    0.882
   125   6 C    3.938 --   132 H    0.975   131 H    0.973   122 C    0.955
                           127 C    0.943
   126   1 H    0.997 --   122 C    0.963
   127   6 C    3.937 --   134 C    1.005   133 H    0.964   125 C    0.943
                           122 C    0.899
   128   6 C    3.936 --   135 H    0.973   136 H    0.967   124 C    0.958
                           130 C    0.945
   129   1 H    0.996 --   124 C    0.965
   130   6 C    3.937 --   138 C    1.012   137 H    0.964   128 C    0.945
                           124 C    0.882
   131   1 H    0.994 --   125 C    0.973
   132   1 H    0.995 --   125 C    0.975
   133   1 H    0.993 --   127 C    0.964
   134   6 C    3.919 --   140 O    1.696   139 O    1.147   127 C    1.005
   135   1 H    0.994 --   128 C    0.973
   136   1 H    0.992 --   128 C    0.967
   137   1 H    0.993 --   130 C    0.964
   138   6 C    3.918 --   142 O    1.699   141 O    1.134   130 C    1.012
   139   8 O    2.297 --   134 C    1.147   143 C    0.900   140 O    0.170
   140   8 O    1.999 --   134 C    1.696   139 O    0.170
   141   8 O    2.286 --   138 C    1.134   144 C    0.903   142 O    0.167
   142   8 O    2.005 --   138 C    1.699   141 O    0.167
   143   6 C    3.911 --   145 C    1.007   146 C    1.004   147 H    0.961
                           139 O    0.900
   144   6 C    3.912 --   149 C    1.007   148 C    1.002   150 H    0.961
                           141 O    0.903
   145   6 C    3.989 --   143 C    1.007   151 H    0.984   152 H    0.983
                           153 H    0.981
   146   6 C    3.990 --   143 C    1.004   154 H    0.985   156 H    0.984
                           155 H    0.981
   147   1 H    0.998 --   143 C    0.961
   148   6 C    3.991 --   144 C    1.002   157 H    0.985   158 H    0.985
                           159 H    0.982
   149   6 C    3.989 --   144 C    1.007   160 H    0.984   162 H    0.983
                           161 H    0.982
   150   1 H    0.998 --   144 C    0.961
   151   1 H    0.997 --   145 C    0.984
   152   1 H    0.996 --   145 C    0.983
   153   1 H    0.995 --   145 C    0.981
   154   1 H    0.997 --   146 C    0.985
   155   1 H    0.996 --   146 C    0.981
   156   1 H    0.996 --   146 C    0.984
   157   1 H    0.998 --   148 C    0.985
   158   1 H    0.997 --   148 C    0.985
   159   1 H    0.996 --   148 C    0.982
   160   1 H    0.997 --   149 C    0.984
   161   1 H    0.995 --   149 C    0.982
   162   1 H    0.996 --   149 C    0.983
   163   1 H    0.997 --    19 C    0.964
   164   1 H    0.996 --    22 C    0.964
   165   1 H    0.996 --    42 C    0.964
   166   1 H    0.996 --    45 C    0.964
   167   8 O    2.244 --    18 C    1.034   171 C    0.973
   168   8 O    2.264 --    23 C    1.036   182 C    0.985
   169   8 O    2.278 --    41 C    1.032   193 C    0.998
   170   8 O    2.268 --    46 C    1.035   204 C    0.989
   171   6 C    3.923 --   173 C    1.396   172 C    1.395   167 O    0.973
                           178 C    0.104
   172   6 C    3.987 --   174 C    1.442   171 C    1.395   175 H    0.968
                           176 C    0.112
   173   6 C    3.986 --   176 C    1.440   171 C    1.396   177 H    0.968
                           174 C    0.112
   174   6 C    3.988 --   172 C    1.442   178 C    1.438   179 H    0.969
                           173 C    0.112
   175   1 H    0.998 --   172 C    0.968
   176   6 C    3.988 --   173 C    1.440   178 C    1.439   180 H    0.969
                           172 C    0.112
   177   1 H    0.997 --   173 C    0.968
   178   6 C    3.989 --   176 C    1.439   174 C    1.438   181 H    0.969
                           171 C    0.104
   179   1 H    0.997 --   174 C    0.969
   180   1 H    0.997 --   176 C    0.969
   181   1 H    0.997 --   178 C    0.969
   182   6 C    3.922 --   184 C    1.390   183 C    1.388   168 O    0.985
                           189 C    0.102
   183   6 C    3.986 --   185 C    1.444   182 C    1.388   186 H    0.968
                           187 C    0.111
   184   6 C    3.985 --   187 C    1.442   182 C    1.390   188 H    0.968
                           185 C    0.111
   185   6 C    3.989 --   183 C    1.444   189 C    1.436   190 H    0.969
                           184 C    0.111
   186   1 H    0.998 --   183 C    0.968
   187   6 C    3.988 --   184 C    1.442   189 C    1.438   191 H    0.969
                           183 C    0.111
   188   1 H    0.997 --   184 C    0.968
   189   6 C    3.987 --   187 C    1.438   185 C    1.436   192 H    0.969
                           182 C    0.102
   190   1 H    0.997 --   185 C    0.969
   191   1 H    0.997 --   187 C    0.969
   192   1 H    0.998 --   189 C    0.969
   193   6 C    3.919 --   194 C    1.380   195 C    1.378   169 O    0.998
   194   6 C    3.985 --   196 C    1.437   193 C    1.380   197 H    0.963
                           198 C    0.109
   195   6 C    3.985 --   198 C    1.449   193 C    1.378   199 H    0.968
                           196 C    0.109
   196   6 C    3.988 --   200 C    1.439   194 C    1.437   201 H    0.969
                           195 C    0.109
   197   1 H    0.998 --   194 C    0.963
   198   6 C    3.987 --   195 C    1.449   200 C    1.431   202 H    0.968
                           194 C    0.109
   199   1 H    0.998 --   195 C    0.968
   200   6 C    3.986 --   196 C    1.439   198 C    1.431   203 H    0.970
   201   1 H    0.998 --   196 C    0.969
   202   1 H    0.997 --   198 C    0.968
   203   1 H    0.998 --   200 C    0.970
   204   6 C    3.921 --   205 C    1.387   206 C    1.386   170 O    0.989
                           211 C    0.102
   205   6 C    3.986 --   207 C    1.443   204 C    1.387   208 H    0.968
                           209 C    0.110
   206   6 C    3.985 --   209 C    1.444   204 C    1.386   210 H    0.968
                           207 C    0.110
   207   6 C    3.988 --   205 C    1.443   211 C    1.436   212 H    0.969
                           206 C    0.110
   208   1 H    0.998 --   205 C    0.968
   209   6 C    3.988 --   206 C    1.444   211 C    1.437   213 H    0.969
                           205 C    0.110
   210   1 H    0.997 --   206 C    0.968
   211   6 C    3.987 --   209 C    1.437   207 C    1.436   214 H    0.969
                           204 C    0.102
   212   1 H    0.997 --   207 C    0.969
   213   1 H    0.997 --   209 C    0.969
   214   1 H    0.998 --   211 C    0.969
   215   7 N    3.262 --    47 Fe   1.543   216 C    1.406
   216   6 C    3.969 --   215 N    1.406   221 C    1.177   217 C    1.167
   217   6 C    3.925 --   218 C    1.519   216 C    1.167   229 H    0.962
                            47 Fe   0.108
   218   6 C    3.989 --   217 C    1.519   219 C    1.375   230 H    0.962
   219   6 C    3.881 --   220 C    1.412   218 C    1.375   231 H    0.969
   220   6 C    3.988 --   221 C    1.463   219 C    1.412   232 H    0.963
   221   6 C    3.925 --   220 C    1.463   216 C    1.177   222 C    1.019
   222   6 C    3.993 --   221 C    1.019   223 C    0.986   234 H    0.965
                           233 H    0.951
   223   6 C    3.989 --   224 C    1.009   222 C    0.986   236 H    0.962
                           235 H    0.933
   224   6 C    3.983 --   228 C    1.594   225 C    1.239   223 C    1.009
   225   6 C    3.988 --   226 C    1.635   224 C    1.239   237 H    0.956
   226   6 C    3.947 --   225 C    1.635   227 S    1.181   238 H    0.961
                           228 C    0.114
   227  16 S    2.624 --   228 C    1.187   226 C    1.181
   228   6 C    3.938 --   224 C    1.594   227 S    1.187   239 H    0.958
                           226 C    0.114
   229   1 H    0.998 --   217 C    0.962
   230   1 H    0.990 --   218 C    0.962
   231   1 H    0.997 --   219 C    0.969
   232   1 H    0.993 --   220 C    0.963
   233   1 H    0.993 --   222 C    0.951
   234   1 H    0.992 --   222 C    0.965
   235   1 H    0.995 --   223 C    0.933
   236   1 H    0.999 --   223 C    0.962
   237   1 H    0.998 --   225 C    0.956
   238   1 H    0.997 --   226 C    0.961
   239   1 H    0.998 --   228 C    0.958
 ---------------------------------------------------------------------------

Topologies differ in total number of bonds
Writing topology from bond orders to xtbtopo.mol

molecular dipole:
                 x           y           z       tot (Debye)
 q only:        4.008       1.354      -0.072
   full:        4.309       1.247      -0.264      11.421
molecular quadrupole (traceless):
                xx          xy          yy          xz          yz          zz
 q only:       51.745       2.563      55.239      22.845     -40.549    -106.984
  q+dip:       48.222      -1.645      55.504      20.705     -47.479    -103.726
   full:       51.001      -3.294      63.480      25.468     -54.459    -114.481

           -------------------------------------------------
          |                Geometry Summary                 |
           -------------------------------------------------

      molecular mass/u    :     1950.4022321
   center of mass at/Å    :       -0.2928656       0.3031737       0.3163366
  moments of inertia/u·Å² :        0.4887791E+05   0.6448021E+05   0.6628428E+05
rotational constants/cm⁻¹ :        0.3448927E-03   0.2614388E-03   0.2543232E-03

 * 232 selected distances

     #   Z          #   Z                                           value/Å
     1   7 N        4   6 C                                       1.3706348
     3   6 C        4   6 C                                       1.4132854
     5   6 C        6   1 H                                       1.0909469
     5   6 C        7   6 C                                       1.3662268
     7   6 C        8   1 H                                       1.0907626
     1   7 N        9   6 C                                       1.3732452
     9   6 C       10   6 C                                       1.4093948
     2   7 N       11   6 C                                       1.3731510
    10   6 C       11   6 C                                       1.4086167
    12   6 C       13   1 H                                       1.0910704
    12   6 C       14   6 C                                       1.3657822
    14   6 C       15   1 H                                       1.0908253
     2   7 N       16   6 C                                       1.3713487
    17   6 C       18   6 C                                       1.4151517
    18   6 C       19   6 C                                       1.4067324
    19   6 C       20   6 C                                       1.3979628
    20   6 C       21   1 H                                       1.0979865
    20   6 C       22   6 C                                       1.3972406
    17   6 C       23   6 C                                       1.4158524
    22   6 C       23   6 C                                       1.4078776
    16   6 C       26   6 C                                       1.4112250
    24   7 N       27   6 C                                       1.3732448
    26   6 C       27   6 C                                       1.4122523
    27   6 C       28   6 C                                       1.4488359
    28   6 C       29   1 H                                       1.0912243
    28   6 C       30   6 C                                       1.3673747
    30   6 C       31   1 H                                       1.0903130
    24   7 N       32   6 C                                       1.3766718
    30   6 C       32   6 C                                       1.4476410
    32   6 C       33   6 C                                       1.4072746
    25   7 N       34   6 C                                       1.3719034
    33   6 C       34   6 C                                       1.4088728
    34   6 C       35   6 C                                       1.4493049
    35   6 C       36   1 H                                       1.0905808
    35   6 C       37   6 C                                       1.3658216
    37   6 C       38   1 H                                       1.0908532
     3   6 C       39   6 C                                       1.4103493
    25   7 N       39   6 C                                       1.3739654
    40   6 C       41   6 C                                       1.4163974
    41   6 C       42   6 C                                       1.4066734
    42   6 C       43   6 C                                       1.3982814
    43   6 C       44   1 H                                       1.0979683
    43   6 C       45   6 C                                       1.3980076
    40   6 C       46   6 C                                       1.4148404
    45   6 C       46   6 C                                       1.4076300
    49   6 C       50   6 C                                       1.4203682
    49   6 C       51   6 C                                       1.4230399
    50   6 C       52   6 C                                       1.4091329
    50   6 C       53   7 N                                       1.4188829
    51   6 C       54   6 C                                       1.4115022
    51   6 C       55   7 N                                       1.4150771
    52   6 C       56   1 H                                       1.0933319
    52   6 C       57   6 C                                       1.3980976
    54   6 C       57   6 C                                       1.3973610
    53   7 N       58   6 C                                       1.3775967
    53   7 N       59   1 H                                       1.0218291
    54   6 C       60   1 H                                       1.0929382
    55   7 N       61   6 C                                       1.3812459
    55   7 N       62   1 H                                       1.0244310
    57   6 C       63   1 H                                       1.0976475
    58   6 C       64   8 O                                       1.2257931
    61   6 C       66   8 O                                       1.2271712
    65   6 C       68   6 C                                       1.5070032
    65   6 C       69   1 H                                       1.0946319
    65   6 C       70   6 C                                       1.5335815
    68   6 C       70   6 C                                       1.5096609
    67   6 C       71   6 C                                       1.5084746
    67   6 C       72   1 H                                       1.0961233
    67   6 C       73   6 C                                       1.5347044
    71   6 C       73   6 C                                       1.5102310
    68   6 C       74   1 H                                       1.0926098
    68   6 C       75   1 H                                       1.0919159
    70   6 C       76   1 H                                       1.0928830
    71   6 C       78   1 H                                       1.0936967
    71   6 C       79   1 H                                       1.0934999
    73   6 C       80   1 H                                       1.0944588
    77   6 C       82   8 O                                       1.3429998
    77   6 C       83   8 O                                       1.2167060
    81   6 C       84   8 O                                       1.3514068
    81   6 C       85   8 O                                       1.2145677
    86   6 C       88   6 C                                       1.5336820
    86   6 C       89   6 C                                       1.5278375
    86   6 C       90   1 H                                       1.1047955
    87   6 C       91   6 C                                       1.5295235
    87   6 C       92   6 C                                       1.5328250
    87   6 C       93   1 H                                       1.1066136
    88   6 C       94   1 H                                       1.1013578
    88   6 C       95   1 H                                       1.0982714
    88   6 C       96   1 H                                       1.0988347
    89   6 C       97   1 H                                       1.0974562
    89   6 C       98   1 H                                       1.0983705
    89   6 C       99   1 H                                       1.0975093
    91   6 C      100   1 H                                       1.0977310
    91   6 C      101   1 H                                       1.1004323
    91   6 C      102   1 H                                       1.0986544
    92   6 C      103   1 H                                       1.0985217
    92   6 C      104   1 H                                       1.0989203
    92   6 C      105   1 H                                       1.1006719
   106   6 C      107   6 C                                       1.4212614
   106   6 C      108   6 C                                       1.4221248
   107   6 C      109   6 C                                       1.4090061
   107   6 C      110   7 N                                       1.4181371
   108   6 C      111   6 C                                       1.4110979
   108   6 C      112   7 N                                       1.4143568
   109   6 C      113   1 H                                       1.0937466
   109   6 C      114   6 C                                       1.3990219
   111   6 C      114   6 C                                       1.3980617
   110   7 N      115   6 C                                       1.3780609
   110   7 N      116   1 H                                       1.0214953 (min)
   111   6 C      117   1 H                                       1.0933281
   112   7 N      118   6 C                                       1.3806003
   112   7 N      119   1 H                                       1.0235771
   114   6 C      120   1 H                                       1.0977758
   115   6 C      121   8 O                                       1.2253245
   118   6 C      123   8 O                                       1.2269270
   122   6 C      125   6 C                                       1.5088798
   122   6 C      126   1 H                                       1.0955771
   122   6 C      127   6 C                                       1.5287075
   125   6 C      127   6 C                                       1.5107549
   124   6 C      128   6 C                                       1.5070874
   124   6 C      129   1 H                                       1.0963407
   124   6 C      130   6 C                                       1.5364233
   128   6 C      130   6 C                                       1.5094771
   125   6 C      131   1 H                                       1.0932209
   125   6 C      132   1 H                                       1.0925665
   127   6 C      133   1 H                                       1.0931670
   128   6 C      135   1 H                                       1.0931814
   128   6 C      136   1 H                                       1.0932644
   130   6 C      137   1 H                                       1.0943428
   134   6 C      139   8 O                                       1.3441259
   134   6 C      140   8 O                                       1.2165182
   138   6 C      141   8 O                                       1.3504567
   138   6 C      142   8 O                                       1.2146148
   143   6 C      145   6 C                                       1.5296319
   143   6 C      146   6 C                                       1.5313678
   143   6 C      147   1 H                                       1.1068486
   144   6 C      148   6 C                                       1.5340549
   144   6 C      149   6 C                                       1.5282483
   144   6 C      150   1 H                                       1.1051874
   145   6 C      151   1 H                                       1.0979599
   145   6 C      152   1 H                                       1.1006791
   145   6 C      153   1 H                                       1.0984611
   146   6 C      154   1 H                                       1.0974814
   146   6 C      155   1 H                                       1.0986524
   146   6 C      156   1 H                                       1.1009574
   148   6 C      157   1 H                                       1.1020947
   148   6 C      158   1 H                                       1.0987930
   148   6 C      159   1 H                                       1.0988511
   149   6 C      160   1 H                                       1.0991346
   149   6 C      161   1 H                                       1.0982546
   149   6 C      162   1 H                                       1.0979151
    19   6 C      163   1 H                                       1.0963109
    22   6 C      164   1 H                                       1.0961323
    42   6 C      165   1 H                                       1.0960470
    45   6 C      166   1 H                                       1.0964499
    18   6 C      167   8 O                                       1.3772608
    23   6 C      168   8 O                                       1.3750835
    41   6 C      169   8 O                                       1.3774802
    46   6 C      170   8 O                                       1.3755152
   167   8 O      171   6 C                                       1.3948551
   171   6 C      172   6 C                                       1.4017190
   171   6 C      173   6 C                                       1.4013305
   172   6 C      174   6 C                                       1.4009579
   172   6 C      175   1 H                                       1.0948116
   173   6 C      176   6 C                                       1.4011697
   173   6 C      177   1 H                                       1.0949790
   174   6 C      178   6 C                                       1.4010143
   176   6 C      178   6 C                                       1.4010017
   174   6 C      179   1 H                                       1.0959728
   176   6 C      180   1 H                                       1.0958127
   178   6 C      181   1 H                                       1.0982075
   168   8 O      182   6 C                                       1.3911552
   182   6 C      183   6 C                                       1.4023561
   182   6 C      184   6 C                                       1.4016973
   183   6 C      185   6 C                                       1.4002275
   183   6 C      186   1 H                                       1.0952424
   184   6 C      187   6 C                                       1.4004067
   184   6 C      188   1 H                                       1.0947799
   185   6 C      189   6 C                                       1.4007979
   187   6 C      189   6 C                                       1.4005884
   185   6 C      190   1 H                                       1.0956106
   187   6 C      191   1 H                                       1.0953883
   189   6 C      192   1 H                                       1.0980011
   169   8 O      193   6 C                                       1.3872269
   193   6 C      194   6 C                                       1.4037227
   193   6 C      195   6 C                                       1.4043608
   194   6 C      196   6 C                                       1.4016193
   194   6 C      197   1 H                                       1.0945418
   195   6 C      198   6 C                                       1.3983712
   195   6 C      199   1 H                                       1.0946200
   196   6 C      200   6 C                                       1.4009161
   198   6 C      200   6 C                                       1.4023829
   196   6 C      201   1 H                                       1.0976038
   198   6 C      202   1 H                                       1.0954955
   200   6 C      203   1 H                                       1.0977000
   170   8 O      204   6 C                                       1.3900870
   204   6 C      205   6 C                                       1.4024422
   204   6 C      206   6 C                                       1.4023804
   205   6 C      207   6 C                                       1.4002872
   205   6 C      208   1 H                                       1.0951213
   206   6 C      209   6 C                                       1.4002861
   206   6 C      210   1 H                                       1.0945611
   207   6 C      211   6 C                                       1.4006644
   209   6 C      211   6 C                                       1.4004804
   207   6 C      212   1 H                                       1.0954480
   209   6 C      213   1 H                                       1.0953410
   211   6 C      214   1 H                                       1.0980488
    47  26 Fe     215   7 N                                       1.6430739
   215   7 N      216   6 C                                       1.2998884
   216   6 C      217   6 C                                       1.4306061
   217   6 C      218   6 C                                       1.3688672
   218   6 C      219   6 C                                       1.3900239
   219   6 C      220   6 C                                       1.3856204
   220   6 C      221   6 C                                       1.3816437
   222   6 C      223   6 C                                       1.5336274
   223   6 C      224   6 C                                       1.4966865
   224   6 C      225   6 C                                       1.4174295
   225   6 C      226   6 C                                       1.3539096
   226   6 C      227  16 S                                       1.7211402 (max)
   224   6 C      228   6 C                                       1.3610278
   227  16 S      228   6 C                                       1.7157595
   217   6 C      229   1 H                                       1.0785963
   218   6 C      230   1 H                                       1.0802340
   219   6 C      231   1 H                                       1.0773843
   220   6 C      232   1 H                                       1.0804172
   222   6 C      233   1 H                                       1.0941537
   222   6 C      234   1 H                                       1.0918154
   223   6 C      235   1 H                                       1.0947863
   223   6 C      236   1 H                                       1.0887936
   225   6 C      237   1 H                                       1.0726715
   226   6 C      238   1 H                                       1.0712762
   228   6 C      239   1 H                                       1.0676414

 * 7 distinct bonds (by element types)

   Z      Z             #   av. dist./Å        max./Å        min./Å
   1 H    6 C          95     1.0946546     1.1068486     1.0676414
   6 C    6 C          93     1.4311587     1.5364233     1.3539096
   1 H    7 N           4     1.0228331     1.0244310     1.0214953
   6 C    7 N          17     1.3804712     1.4188829     1.2998884
   6 C    8 O          20     1.3112638     1.3948551     1.2145677
   6 C   16 S           2     1.7184499     1.7211402     1.7157595
   7 N   26 Fe          1     1.6430739     1.6430739     1.6430739


optimized geometry written to: xtbopt.xyz


           -------------------------------------------------
          | TOTAL ENERGY             -392.979970765458 Eh   |
          | GRADIENT NORM               0.000538875773 Eh/α |
          | HOMO-LUMO GAP               0.077227615180 eV   |
           -------------------------------------------------

------------------------------------------------------------------------
 * finished run on 2026/07/31 at 15:18:36.919     
------------------------------------------------------------------------
 total:
 * wall-time:     0 d,  0 h,  0 min, 48.909 sec
 *  cpu-time:     0 d,  0 h,  1 min, 49.794 sec
 * ratio c/w:     2.245 speedup
 SCF:
 * wall-time:     0 d,  0 h,  0 min,  1.523 sec
 *  cpu-time:     0 d,  0 h,  0 min,  3.370 sec
 * ratio c/w:     2.213 speedup
 ANC optimizer:
 * wall-time:     0 d,  0 h,  0 min, 47.333 sec
 *  cpu-time:     0 d,  0 h,  1 min, 46.336 sec
 * ratio c/w:     2.247 speedup

