28

N      2.353231   -2.390854   -1.460144
C      2.306930   -1.028107   -1.042905
C      3.015778   -0.066217   -1.772647
C      2.977138    1.276925   -1.390933
C      2.229021    1.666256   -0.278371
C      1.519994    0.713358    0.457332
C      1.555528   -0.643153    0.087928
C      0.741610   -1.649508    0.868846
C     -0.606316   -1.942330    0.194467
C     -1.486434   -0.719196    0.149050
C     -2.214726   -0.329578    1.284932
C     -2.994174    0.830865    1.258355
C     -3.046527    1.614448    0.100862
Cl    -4.020303    3.073000    0.071289
C     -2.317068    1.236743   -1.031166
C     -1.538069    0.076188   -1.008111
H      3.594665   -0.359031   -2.639665
H      3.524745    2.016948   -1.960103
H      2.194897    2.708310    0.012154
H      0.934062    1.034621    1.309768
H      1.312575   -2.598253    0.962777
H      0.567726   -1.287079    1.906109
H     -0.437545   -2.337707   -0.831094
H     -1.124486   -2.744583    0.763549
H     -2.173370   -0.921338    2.191013
H     -3.552630    1.122274    2.138756
H     -2.349030    1.843592   -1.927040
H     -0.967223   -0.196596   -1.887162
