28

N     -3.047326   -0.512166   -1.868310
C     -2.621908   -0.258332   -0.531186
C     -3.372207    0.610113    0.270732
C     -2.970012    0.883876    1.580131
C     -1.815166    0.291965    2.094937
C     -1.061013   -0.577597    1.303032
C     -1.458178   -0.867035   -0.014666
C     -0.600616   -1.771964   -0.869497
C      0.340544   -0.973429   -1.782731
C      1.338753   -0.168211   -0.990310
C      2.483931   -0.785156   -0.460796
C      3.386047   -0.049737    0.313945
C      3.148051    1.304287    0.571834
Cl     4.277894    2.223815    1.548776
C      2.005225    1.922868    0.054564
C      1.102225    1.190543   -0.721678
H     -4.266599    1.077121   -0.122381
H     -3.552127    1.558089    2.194982
H     -1.501367    0.510263    3.107518
H     -0.160604   -1.017708    1.713814
H     -1.251249   -2.418192   -1.497196
H     -0.003857   -2.459150   -0.229840
H      0.885063   -1.682583   -2.443461
H     -0.252894   -0.309504   -2.448777
H      2.673570   -1.835646   -0.643500
H      4.266329   -0.534137    0.716883
H      1.813244    2.968811    0.257109
H      0.214247    1.678792   -1.103927
