28

N     -1.974528   -1.945272   -1.732860
C     -2.617268   -0.839251   -1.102598
C     -4.003423   -0.875483   -0.908314
C     -4.654439    0.188605   -0.279648
C     -3.922949    1.292624    0.162490
C     -2.539131    1.337985   -0.027133
C     -1.873696    0.280621   -0.671939
C     -0.374761    0.336695   -0.836367
C      0.323521   -0.337886    0.348226
C      1.818254   -0.284628    0.181395
C      2.490236   -1.303964   -0.513254
C      3.874825   -1.237066   -0.696685
C      4.596872   -0.148171   -0.197068
Cl     6.333425   -0.064896   -0.429978
C      3.931715    0.877112    0.483399
C      2.547186    0.812938    0.668342
H     -4.577103   -1.731401   -1.241345
H     -5.725961    0.155037   -0.130574
H     -4.428101    2.112939    0.655872
H     -1.985392    2.197500    0.330283
H     -0.042420    1.396112   -0.908934
H     -0.075699   -0.159655   -1.785342
H      0.031780    0.170678    1.293766
H     -0.007598   -1.396891    0.427509
H      1.941790   -2.147831   -0.913416
H      4.384301   -2.029623   -1.229827
H      4.485353    1.725092    0.865977
H      2.043209    1.618078    1.188674
