28

N     -2.052758    2.234165    0.750263
C     -2.655924    1.082043    0.165083
C     -3.979749    1.158640   -0.284475
C     -4.588171    0.048607   -0.875214
C     -3.875268   -1.142618   -1.024124
C     -2.553601   -1.228794   -0.578322
C     -1.934360   -0.123790    0.031679
C     -0.496054   -0.229874    0.475538
C      0.447890    0.231173   -0.639058
C      1.881853    0.128831   -0.193895
C      2.495530    1.203293    0.470991
C      3.817462    1.095343    0.913765
C      4.532749   -0.088489    0.705040
Cl     6.190276   -0.222832    1.263033
C      3.922834   -1.167124    0.056024
C      2.601019   -1.062091   -0.387844
H     -4.537184    2.081088   -0.179735
H     -5.611287    0.113474   -1.222395
H     -4.345990   -1.999449   -1.488645
H     -2.011721   -2.157320   -0.710018
H     -0.261938   -1.282896    0.748326
H     -0.331904    0.382789    1.388803
H      0.215946    1.282665   -0.918309
H      0.289581   -0.393616   -1.545906
H      1.949843    2.122062    0.647413
H      4.283069    1.930401    1.421543
H      4.470228   -2.087671   -0.101790
H      2.137630   -1.908008   -0.880473
