28

N     -1.962708   -0.201561   -2.273957
C     -2.618485   -0.023551   -1.020204
C     -3.992607   -0.275644   -0.926831
C     -4.655146   -0.123464    0.293501
C     -3.947008    0.276965    1.428234
C     -2.575357    0.531115    1.344869
C     -1.899372    0.396464    0.119510
C     -0.412091    0.644481    0.060585
C      0.361464   -0.656975    0.292415
C      1.844552   -0.409240    0.229379
C      2.523123   -0.480950   -0.998440
C      3.895032   -0.218112   -1.061605
C      4.597194    0.127604    0.097752
Cl     6.317749    0.459028    0.016235
C      3.924602    0.214419    1.321171
C      2.552714   -0.047849    1.387401
H     -4.547748   -0.593983   -1.800383
H     -5.717205   -0.321011    0.360680
H     -4.460661    0.387351    2.374540
H     -2.039200    0.831773    2.236654
H     -0.136012    1.079067   -0.924946
H     -0.123004    1.390849    0.833530
H      0.073674   -1.408292   -0.475774
H      0.092277   -1.080594    1.285329
H      1.989508   -0.738247   -1.905131
H      4.409955   -0.279987   -2.011855
H      4.462489    0.488162    2.219889
H      2.042268    0.032183    2.339256
