28

N     -2.641549   -1.144366    2.179862
C     -2.442953   -0.241675    1.094034
C     -3.099203    0.995023    1.105558
C     -2.912128    1.901338    0.059218
C     -2.067352    1.577044   -1.003909
C     -1.409731    0.344537   -1.025278
C     -1.594265   -0.579847    0.018419
C     -0.834811   -1.886714   -0.000901
C      0.438111   -1.821642    0.855177
C      1.425410   -0.819034    0.314116
C      2.251865   -1.155038   -0.770554
C      3.134306   -0.210330   -1.303190
C      3.192970    1.078211   -0.762125
Cl     4.296462    2.263768   -1.435366
C      2.366700    1.422066    0.312724
C      1.484490    0.479188    0.848395
H     -3.752442    1.256375    1.928688
H     -3.419703    2.857163    0.074307
H     -1.918419    2.283099   -1.810598
H     -0.747654    0.114594   -1.851084
H     -0.567647   -2.165055   -1.044287
H     -1.486186   -2.702006    0.381133
H      0.910560   -2.827875    0.871160
H      0.173606   -1.577427    1.907307
H      2.207610   -2.145677   -1.205927
H      3.767888   -0.479288   -2.138735
H      2.403639    2.420079    0.730438
H      0.840427    0.763490    1.671415
