28

N     -2.397551   -2.135426    1.535806
C     -2.363982   -0.964411    0.722842
C     -3.250793    0.083453    0.998106
C     -3.229829    1.245659    0.223467
C     -2.321750    1.367395   -0.829921
C     -1.434271    0.326281   -1.113574
C     -1.449149   -0.851916   -0.345803
C     -0.447240   -1.945109   -0.639321
C      0.774881   -1.865056    0.286664
C      1.553747   -0.591578    0.076069
C      1.348172    0.514301    0.918145
C      2.035693    1.710149    0.691162
C      2.929685    1.812853   -0.379581
Cl     3.788492    3.315332   -0.665066
C      3.133865    0.717969   -1.225792
C      2.446521   -0.478879   -1.002213
H     -3.955079   -0.000910    1.816295
H     -3.915689    2.053886    0.442165
H     -2.302415    2.271234   -1.425020
H     -0.727457    0.442767   -1.925990
H     -0.114756   -1.892498   -1.699600
H     -0.931214   -2.937619   -0.514285
H      1.435742   -2.735600    0.083240
H      0.451583   -1.951770    1.347107
H      0.648348    0.453469    1.742496
H      1.869236    2.556930    1.344714
H      3.820592    0.794607   -2.059119
H      2.604621   -1.315515   -1.671481
