28

N      1.735104   -0.091434    2.613746
C      2.503087   -0.034449    1.413504
C      3.861144    0.298287    1.487335
C      4.631407    0.375765    0.324573
C      4.047440    0.125706   -0.918760
C      2.692807   -0.207341   -1.002526
C      1.909881   -0.303579    0.161242
C      0.441900   -0.632527    0.043701
C     -0.391761    0.648529   -0.055409
C     -1.855932    0.319419   -0.168476
C     -2.637587    0.160601    0.987781
C     -3.990238   -0.177803    0.882782
C     -4.569732   -0.369688   -0.375799
Cl    -6.266213   -0.796219   -0.505497
C     -3.793415   -0.226770   -1.530606
C     -2.440494    0.111558   -1.428711
H      4.319989    0.501230    2.446966
H      5.680459    0.634809    0.386961
H      4.644138    0.193295   -1.819261
H      2.253219   -0.388989   -1.975617
H      0.266786   -1.260081   -0.858291
H      0.113240   -1.231696    0.920818
H     -0.068633    1.237711   -0.942115
H     -0.217857    1.281655    0.842547
H     -2.198980    0.296993    1.968626
H     -4.585410   -0.293911    1.779576
H     -4.235877   -0.380863   -2.506533
H     -1.848473    0.209792   -2.330292
