28

N     -2.033226   -2.666564   -1.339642
C     -2.109863   -1.266413   -1.080762
C     -2.760466   -0.436456   -2.001689
C     -2.838957    0.939903   -1.776510
C     -2.266763    1.494479   -0.630173
C     -1.617222    0.674099    0.295608
C     -1.536659   -0.713989    0.084502
C     -0.786761   -1.575821    1.074424
C      0.652126   -1.853764    0.616399
C      1.469655   -0.589291    0.542342
C      1.637225    0.077480   -0.683080
C      2.354728    1.275862   -0.740782
C      2.906401    1.819814    0.423706
Cl     3.803029    3.325505    0.349926
C      2.737499    1.164741    1.647994
C      2.019073   -0.033176    1.709095
H     -3.202813   -0.857866   -2.895730
H     -3.340689    1.577439   -2.492941
H     -2.322799    2.561957   -0.460480
H     -1.167331    1.122599    1.172887
H     -0.771514   -1.092637    2.076325
H     -1.318195   -2.543155    1.203978
H      0.641977   -2.368031   -0.369506
H      1.127769   -2.554928    1.336192
H      1.203481   -0.324845   -1.590278
H      2.476968    1.782699   -1.689493
H      3.157894    1.584897    2.552780
H      1.885432   -0.524537    2.664908
