28

N     -2.961664   -1.919142   -0.692967
C     -2.557321   -0.560789   -0.535812
C     -3.081006    0.411369   -1.396557
C     -2.691883    1.746989   -1.270336
C     -1.776457    2.118187   -0.283796
C     -1.249940    1.155556    0.581142
C     -1.638117   -0.191535    0.469321
C     -1.018704   -1.223699    1.383659
C      0.155851   -1.950762    0.713408
C      1.292528   -1.010147    0.403674
C      2.190930   -0.629884    1.413977
C      3.217078    0.279081    1.138878
C      3.349441    0.820487   -0.144045
Cl     4.633833    1.965058   -0.485785
C      2.453069    0.452525   -1.152698
C      1.427015   -0.457245   -0.881057
H     -3.787903    0.131173   -2.167502
H     -3.097654    2.494181   -1.940050
H     -1.471053    3.152434   -0.191581
H     -0.530799    1.458704    1.332214
H     -1.787041   -1.971281    1.676439
H     -0.671953   -0.747982    2.327567
H      0.518414   -2.750038    1.395810
H     -0.192692   -2.457220   -0.213199
H      2.092069   -1.032970    2.414287
H      3.905082    0.565221    1.924166
H      2.547326    0.874042   -2.145330
H      0.731550   -0.722314   -1.667870
