28

N     -1.806847   -0.575801   -3.072941
C     -1.990627    0.050306   -1.805058
C     -2.682593    1.265566   -1.737653
C     -2.865845    1.904435   -0.509038
C     -2.357653    1.332738    0.658848
C     -1.667538    0.119274    0.601917
C     -1.481627   -0.537820   -0.627516
C     -0.689625   -1.824591   -0.672224
C      0.774184   -1.582241   -1.067148
C      1.498261   -0.744689   -0.043943
C      1.983246   -1.332481    1.135771
C      2.613127   -0.547877    2.106606
C      2.756880    0.829581    1.910450
Cl     3.542177    1.813166    3.132073
C      2.268716    1.422753    0.741647
C      1.639852    0.640623   -0.231524
H     -3.075850    1.718182   -2.639350
H     -3.399174    2.845118   -0.462782
H     -2.494861    1.832340    1.609119
H     -1.268423   -0.303516    1.515772
H     -1.151221   -2.521092   -1.404860
H     -0.728812   -2.338989    0.313354
H      1.286092   -2.564343   -1.164056
H      0.820424   -1.099079   -2.067647
H      1.867777   -2.395949    1.304814
H      2.984383   -1.010478    3.012183
H      2.371551    2.489440    0.588413
H      1.254026    1.115423   -1.125229
