31

C     -5.372220   -0.616746   -1.043822
C     -3.909267   -0.579032   -0.714099
C     -2.977293   -1.185696   -1.567399
C     -1.618285   -1.182390   -1.243639
C     -1.170848   -0.592947   -0.049773
C      0.305761   -0.573643    0.261069
C      0.950325    0.713155   -0.262931
C      2.422061    0.733497    0.050881
C      2.879255    1.260508    1.270437
C      4.244083    1.248821    1.574890
C      5.159074    0.703151    0.670194
C      4.710325    0.164346   -0.538841
C      3.346359    0.173981   -0.847269
C     -2.108760    0.014912    0.810396
N     -1.690355    0.642156    2.020902
C     -3.469307    0.008425    0.480950
H     -5.890218    0.274555   -0.629909
H     -5.824731   -1.532689   -0.609871
H     -5.526470   -0.622599   -2.143941
H     -3.301932   -1.658206   -2.486333
H     -0.913119   -1.642590   -1.924934
H      0.466604   -0.658667    1.357994
H      0.801576   -1.453726   -0.205530
H      0.456269    1.596797    0.198050
H      0.798709    0.786730   -1.362657
H      2.179398    1.677652    1.984030
H      4.592028    1.659669    2.513831
H      6.214932    0.693695    0.907945
H      5.419102   -0.264050   -1.235680
H      3.010454   -0.255134   -1.783220
H     -4.183511    0.466064    1.155278
