31

C      5.442775    0.030932    0.699577
C      3.951041   -0.094612    0.602931
C      3.125368    0.577269    1.514840
C      1.737399    0.432906    1.448249
C      1.152747   -0.404061    0.483557
C     -0.350361   -0.517350    0.411452
C     -0.922071    0.510028   -0.570144
C     -2.420693    0.393824   -0.644486
C     -3.233173    1.123511    0.239533
C     -4.624284    0.989141    0.190761
C     -5.212271    0.119787   -0.732248
C     -4.409873   -0.619955   -1.605394
C     -3.018373   -0.488599   -1.560014
C      1.983498   -1.082517   -0.432200
N      1.425837   -1.924308   -1.439287
C      3.373663   -0.934242   -0.360640
H      5.727611    1.027761    1.098689
H      5.836170   -0.755969    1.376377
H      5.911275   -0.084175   -0.301083
H      3.555686    1.216856    2.275664
H      1.116929    0.973785    2.152287
H     -0.641745   -1.543706    0.098351
H     -0.790481   -0.351975    1.419936
H     -0.483010    0.351350   -1.579830
H     -0.639561    1.535828   -0.244998
H     -2.789448    1.793410    0.965701
H     -5.246342    1.556424    0.870987
H     -6.289030    0.015964   -0.767776
H     -4.865986   -1.297934   -2.315166
H     -2.407224   -1.074458   -2.235508
H      4.003931   -1.470646   -1.060120
