31

C      3.919415    1.818220    0.271924
C      2.885923    0.745365    0.096212
C      1.935654    0.842254   -0.929398
C      0.948338   -0.135555   -1.070028
C      0.888203   -1.222286   -0.181447
C     -0.221176   -2.239381   -0.323018
C     -1.392124   -1.945063    0.625619
C     -2.057747   -0.631526    0.302521
C     -2.981898   -0.547449   -0.752101
C     -3.564937    0.680170   -1.081190
C     -3.224455    1.831667   -0.366028
C     -2.299044    1.757906    0.678605
C     -1.714940    0.532233    1.012096
C      1.828532   -1.305933    0.865911
N      1.783112   -2.379328    1.803606
C      2.817071   -0.324097    1.000772
H      3.519366    2.610125    0.938942
H      4.186222    2.269782   -0.707354
H      4.845740    1.400128    0.720442
H      1.956307    1.677314   -1.618804
H      0.219600   -0.037245   -1.865340
H     -0.590372   -2.267761   -1.372023
H      0.174230   -3.254836   -0.105155
H     -2.138407   -2.764413    0.537925
H     -1.035614   -1.950780    1.678903
H     -3.245237   -1.430575   -1.320960
H     -4.277435    0.739628   -1.893737
H     -3.674621    2.781549   -0.623869
H     -2.030815    2.651476    1.227227
H     -0.988925    0.491728    1.814763
H      3.530031   -0.393317    1.813851
