31

C     -3.769183   -2.124265   -0.087100
C     -2.801359   -0.992252   -0.265597
C     -1.705576   -1.130220   -1.128441
C     -0.781613   -0.091899   -1.265778
C     -0.932060    1.098835   -0.535235
C      0.109601    2.186984   -0.662206
C      1.145808    2.122320    0.469054
C      1.945036    0.844821    0.423735
C      1.586228   -0.246873    1.232938
C      2.300227   -1.446320    1.154189
C      3.372642   -1.566110    0.266124
C      3.730868   -0.487443   -0.547192
C      3.018430    0.713470   -0.472884
C     -2.020290    1.227363    0.352126
N     -2.191539    2.409755    1.130672
C     -2.944317    0.184226    0.484191
H     -4.779349   -1.739357    0.168746
H     -3.415816   -2.786231    0.730824
H     -3.855132   -2.717777   -1.022213
H     -1.563788   -2.043698   -1.692788
H      0.061750   -0.222526   -1.932802
H      0.626626    2.116810   -1.644694
H     -0.386004    3.181435   -0.642176
H      1.835655    2.988775    0.372455
H      0.638202    2.227877    1.452788
H      0.748631   -0.172169    1.915481
H      2.019220   -2.284536    1.778551
H      3.923419   -2.495818    0.205349
H      4.557962   -0.583344   -1.238669
H      3.298357    1.538380   -1.116332
H     -3.772638    0.289788    1.174800
