31

C      5.482410   -0.125832   -0.032364
C      3.993156   -0.191452   -0.200258
C      3.346843    0.658556   -1.108280
C      1.964482    0.574103   -1.291796
C      1.208255   -0.377455   -0.587793
C     -0.287831   -0.426478   -0.779351
C     -0.993065    0.456253    0.254728
C     -2.485166    0.403793    0.065568
C     -3.121857    1.305676   -0.803505
C     -4.504108    1.234116   -1.003210
C     -5.257371    0.257498   -0.345745
C     -4.629020   -0.652041    0.509448
C     -3.247018   -0.584025    0.712005
C      1.858783   -1.234815    0.323693
N      1.121953   -2.199293    1.072482
C      3.244227   -1.145813    0.503386
H      5.774092   -0.423722    0.997319
H      5.966149   -0.811823   -0.758619
H      5.851937    0.906987   -0.207942
H      3.912469    1.390331   -1.671904
H      1.482730    1.251348   -1.986388
H     -0.549117   -0.079199   -1.803665
H     -0.650064   -1.474210   -0.693402
H     -0.732894    0.115421    1.281160
H     -0.637558    1.505813    0.155552
H     -2.548142    2.061101   -1.326151
H     -4.990818    1.933658   -1.670464
H     -6.326898    0.202652   -0.502451
H     -5.212379   -1.412172    1.012802
H     -2.770676   -1.300579    1.369785
H      3.736497   -1.818397    1.195874
