31

C      5.482410   -0.125832   -0.032364
C      3.993157   -0.191452   -0.200258
C      3.346843    0.658556   -1.108280
C      1.964482    0.574104   -1.291796
C      1.208255   -0.377455   -0.587793
C     -0.287831   -0.426478   -0.779351
C     -0.993065    0.456253    0.254729
C     -2.485166    0.403793    0.065568
C     -3.121856    1.305676   -0.803506
C     -4.504109    1.234117   -1.003210
C     -5.257371    0.257498   -0.345744
C     -4.629020   -0.652042    0.509448
C     -3.247018   -0.584025    0.712005
C      1.858783   -1.234815    0.323693
N      1.121953   -2.199293    1.072482
C      3.244227   -1.145812    0.503386
H      5.774092   -0.423722    0.997318
H      5.966148   -0.811822   -0.758617
H      5.851937    0.906986   -0.207942
H      3.912468    1.390331   -1.671904
H      1.482730    1.251348   -1.986388
H     -0.549117   -0.079199   -1.803666
H     -0.650064   -1.474211   -0.693402
H     -0.732893    0.115420    1.281160
H     -0.637559    1.505813    0.155552
H     -2.548141    2.061102   -1.326152
H     -4.990818    1.933659   -1.670464
H     -6.326898    0.202651   -0.502451
H     -5.212379   -1.412172    1.012802
H     -2.770676   -1.300580    1.369786
H      3.736497   -1.818397    1.195874
