31

C      5.472332    0.175126   -0.301038
C      3.987125    0.239602   -0.100109
C      3.205839    1.102811   -0.880623
C      1.827465    1.190210   -0.670430
C      1.210470    0.433421    0.339297
C     -0.284649    0.521072    0.524521
C     -0.994258   -0.557159   -0.299956
C     -2.484940   -0.471657   -0.111663
C     -3.108168   -1.171553    0.935151
C     -4.488975   -1.065121    1.129132
C     -5.254201   -0.253206    0.287310
C     -4.639251    0.457071   -0.747481
C     -3.258710    0.353516   -0.944985
C      1.996846   -0.432971    1.126722
N      1.403363   -1.233131    2.147183
C      3.377608   -0.516332    0.911753
H      5.965191    0.931410    0.344837
H      5.734023    0.378280   -1.361385
H      5.859675   -0.832662   -0.039519
H      3.662969    1.705876   -1.655504
H      1.239939    1.851459   -1.295543
H     -0.543880    0.407833    1.599844
H     -0.645898    1.525712    0.211005
H     -0.634533   -1.563971    0.007202
H     -0.742804   -0.431167   -1.376383
H     -2.524969   -1.796573    1.600174
H     -4.965275   -1.609397    1.934349
H     -6.322600   -0.170900    0.439629
H     -5.231863    1.090779   -1.394549
H     -2.792889    0.916364   -1.744478
H      3.975019   -1.174745    1.531296
