31

C      3.983315    1.511598    1.033975
C      2.878382    0.611889    0.565163
C      1.971150    1.055683   -0.406587
C      0.962640    0.207244   -0.868920
C      0.854045   -1.105369   -0.379642
C     -0.277254   -1.987059   -0.857176
C     -1.457652   -1.984515    0.124688
C     -2.084139   -0.618348    0.242845
C     -2.987221   -0.167455   -0.734135
C     -3.533228    1.117036   -0.649018
C     -3.176364    1.961570    0.405847
C     -2.271530    1.523672    1.376725
C     -1.724479    0.239555    1.296404
C      1.773430   -1.555280    0.590124
N      1.690271   -2.877938    1.116590
C      2.783360   -0.701207    1.048360
H      4.871547    1.375465    0.382415
H      4.263155    1.274722    2.082610
H      3.665599    2.575420    0.996092
H      2.040742    2.061150   -0.803093
H      0.259590    0.577512   -1.605023
H      0.088554   -3.029154   -0.980297
H     -0.627826   -1.659913   -1.860967
H     -1.120645   -2.344529    1.121382
H     -2.222388   -2.707828   -0.233036
H     -3.262767   -0.808443   -1.562429
H     -4.229655    1.459405   -1.403468
H     -3.597826    2.956470    0.468691
H     -1.990473    2.180991    2.189337
H     -1.013899   -0.082093    2.047824
H      3.491566   -1.060254    1.785737
