31

C     -5.439983    0.231809   -0.772901
C     -3.979993    0.102795   -0.453282
C     -3.280436   -1.060049   -0.804215
C     -1.929479   -1.196416   -0.475505
C     -1.261173   -0.182366    0.230210
C      0.206445   -0.339573    0.544459
C      1.064346    0.280786   -0.562361
C      2.527713    0.127131   -0.246378
C      3.194314    1.101821    0.515008
C      4.545981    0.941618    0.835812
C      5.237621   -0.195088    0.408055
C      4.577623   -1.175701   -0.337769
C      3.225998   -1.019487   -0.660772
C     -1.965633    0.986478    0.586016
N     -1.315920    2.046844    1.284099
C     -3.319281    1.117574    0.254176
H     -5.688949   -0.324351   -1.701767
H     -6.039101   -0.178676    0.066498
H     -5.714594    1.297084   -0.927307
H     -3.779684   -1.860418   -1.336436
H     -1.403590   -2.096243   -0.770389
H      0.441920    0.139363    1.519916
H      0.457229   -1.418728    0.647535
H      0.835127   -0.211089   -1.533605
H      0.815540    1.359437   -0.672014
H      2.667163    1.982605    0.860490
H      5.056361    1.697115    1.419086
H      6.283405   -0.318177    0.658326
H      5.112510   -2.058751   -0.662718
H      2.723651   -1.791021   -1.231173
H     -3.855132    2.013672    0.544200
