31

C      5.476415    0.177067    0.266624
C      3.996517    0.052218    0.055237
C      3.306415    1.015716   -0.693207
C      1.934572    0.881931   -0.920985
C      1.234034   -0.229519   -0.424106
C     -0.253499   -0.334088   -0.655796
C     -1.025967    0.294047    0.508089
C     -2.509327    0.185869    0.278228
C     -3.212463   -0.950675    0.711760
C     -4.584806   -1.064796    0.468372
C     -5.261461   -0.051777   -0.216736
C     -4.566046    1.075324   -0.663383
C     -3.193653    1.193466   -0.422133
C      1.928781   -1.200612    0.326471
N      1.247943   -2.331918    0.865384
C      3.303446   -1.061460    0.551410
H      6.011692   -0.329556   -0.563342
H      5.779989    1.245303    0.294985
H      5.775434   -0.289820    1.229260
H      3.829493    1.873632   -1.097518
H      1.417540    1.646240   -1.488182
H     -0.547827   -1.399708   -0.774825
H     -0.525465    0.182109   -1.603251
H     -0.755530   -0.216273    1.458802
H     -0.738346    1.363530    0.614290
H     -2.697851   -1.746919    1.235400
H     -5.123054   -1.940302    0.807856
H     -6.323369   -0.142270   -0.405453
H     -5.089794    1.856022   -1.199733
H     -2.664508    2.067375   -0.781667
H      3.830694   -1.820156    1.117653
