31

C     -5.430715   -0.606750   -0.356749
C     -3.961957   -0.486228   -0.076401
C     -3.115750   -1.588891   -0.257524
C     -1.753841   -1.488416    0.037169
C     -1.219291   -0.290795    0.540085
C      0.260790   -0.197709    0.819485
C      1.008488    0.335163   -0.406438
C      2.483901    0.431447   -0.125755
C      3.325644   -0.666208   -0.372087
C      4.690838   -0.585987   -0.079799
C      5.222354    0.584623    0.468487
C      4.388756    1.675721    0.729372
C      3.023010    1.599762    0.438593
C     -2.071100    0.817903    0.725213
N     -1.561411    2.057027    1.213689
C     -3.435001    0.711397    0.428402
H     -5.615925   -1.339284   -1.171109
H     -5.850617    0.371610   -0.673856
H     -5.954933   -0.945502    0.561116
H     -3.509307   -2.526250   -0.631116
H     -1.114691   -2.347639   -0.125388
H      0.443916    0.465471    1.692983
H      0.658174   -1.201413    1.089224
H      0.613029    1.337528   -0.682651
H      0.833386   -0.339120   -1.273895
H      2.924482   -1.582233   -0.787954
H      5.336144   -1.432688   -0.275126
H      6.278946    0.644580    0.695354
H      4.800266    2.579306    1.160259
H      2.386000    2.448728    0.654232
H     -4.083584    1.564846    0.587158
