33

N     -3.093227   -1.701636    2.146747
C     -2.873046   -1.076214    0.884353
C     -3.298744   -1.723556   -0.281824
C     -3.082532   -1.137896   -1.531426
C     -2.439682    0.097986   -1.622437
C     -2.013943    0.753002   -0.464192
C     -2.229721    0.177006    0.800660
C     -1.708248    0.875463    2.035965
C     -0.349934    0.313691    2.480316
C      0.715022    0.541740    1.438546
C      1.362570    1.790451    1.347294
C      2.305641    2.025926    0.338183
C      2.584432    1.014658   -0.582406
S      3.734418    1.173617   -1.927483
C      3.675297   -0.645441   -2.144590
C      2.378748   -1.190244   -1.531857
C      1.967506   -0.214344   -0.492500
C      1.020582   -0.466634    0.504364
H     -3.793812   -2.684650   -0.220472
H     -3.410407   -1.644214   -2.430085
H     -2.266618    0.547076   -2.591868
H     -1.503564    1.704114   -0.554016
H     -1.616024    1.968954    1.853466
H     -2.437334    0.758770    2.866456
H     -0.048912    0.810874    3.427995
H     -0.445193   -0.771096    2.705479
H      1.127734    2.580777    2.049360
H      2.798533    2.986630    0.264896
H      3.735778   -0.902134   -3.223181
H      4.549948   -1.088074   -1.621291
H      2.546935   -2.195654   -1.089088
H      1.585068   -1.251103   -2.307370
H      0.522729   -1.427845    0.546613
