33

N     -2.198877   -1.681715    3.065717
C     -2.311670   -1.465585    1.660783
C     -2.645919   -2.541198    0.829175
C     -2.749216   -2.358175   -0.551798
C     -2.519041   -1.099140   -1.109283
C     -2.187892   -0.019090   -0.287294
C     -2.085451   -0.188243    1.105214
C     -1.668307    0.980473    1.968840
C     -0.164908    0.953590    2.280482
C      0.665730    1.091151    1.030467
C      0.896498    2.362986    0.468233
C      1.612822    2.487292   -0.729500
C      2.081633    1.336469   -1.364868
S      2.981270    1.333989   -2.897062
C      3.446248   -0.410161   -2.578722
C      2.445039   -1.033957   -1.598033
C      1.873861    0.089864   -0.815382
C      1.157609   -0.054716    0.376311
H     -2.821323   -3.522136    1.252909
H     -3.004392   -3.193819   -1.190571
H     -2.592551   -0.960612   -2.180189
H     -1.998018    0.947356   -0.737958
H     -2.236277    0.960300    2.923776
H     -1.927406    1.941636    1.472285
H      0.072764    1.790060    2.973108
H      0.093256    0.013443    2.815285
H      0.512183    3.252476    0.951733
H      1.785008    3.463455   -1.163924
H      3.465505   -0.978972   -3.532133
H      4.463779   -0.424288   -2.132391
H      2.952441   -1.764934   -0.932152
H      1.628034   -1.540451   -2.155726
H      0.977565   -1.042657    0.782668
