33

N     -3.181075   -1.452355   -1.913244
C     -3.650125   -0.937168   -0.668976
C     -5.023998   -0.737165   -0.487450
C     -5.507191   -0.219227    0.716540
C     -4.619468    0.106052    1.743950
C     -3.246537   -0.090241    1.572213
C     -2.748402   -0.624956    0.371161
C     -1.259608   -0.797418    0.196071
C     -0.644331    0.448494   -0.447992
C      0.839613    0.273754   -0.624559
C      1.350905   -0.310772   -1.801276
C      2.729862   -0.509134   -1.950965
C      3.587731   -0.135157   -0.915585
S      5.353035   -0.333615   -0.956283
C      5.475217    0.794891    0.482730
C      4.135558    0.814261    1.230009
C      3.098337    0.446131    0.234321
C      1.724507    0.643602    0.405999
H     -5.718565   -0.979625   -1.282059
H     -6.570024   -0.065149    0.851273
H     -4.995065    0.514041    2.673461
H     -2.570772    0.176186    2.375644
H     -0.781860   -0.978736    1.184501
H     -1.049622   -1.691205   -0.431158
H     -1.120213    0.636219   -1.435736
H     -0.845322    1.337677    0.189757
H      0.681901   -0.615130   -2.596659
H      3.122035   -0.958559   -2.854035
H      5.708151    1.814729    0.107914
H      6.293932    0.465307    1.156524
H      3.939044    1.822212    1.655036
H      4.141574    0.059223    2.045316
H      1.350775    1.082833    1.323001
