33

N     -2.953861   -2.389613   -1.606095
C     -2.767156   -1.030611   -1.216828
C     -3.093309   -0.010954   -2.119136
C     -2.906765    1.327766   -1.766597
C     -2.393236    1.654823   -0.510307
C     -2.067629    0.644442    0.397955
C     -2.255137   -0.707352    0.057838
C     -1.840836   -1.785327    1.033582
C     -0.443569   -2.337693    0.716425
C      0.618565   -1.276926    0.850833
C      1.135473   -0.947145    2.120075
C      2.074818    0.083656    2.255049
C      2.480482    0.787826    1.120390
S      3.642164    2.132135    1.137800
C      3.777337    1.990481   -0.684635
C      2.528774    1.289934   -1.235645
C      1.992011    0.463057   -0.126625
C      1.050895   -0.558995   -0.280779
H     -3.487597   -0.256075   -3.097405
H     -3.157157    2.112058   -2.469189
H     -2.242678    2.692338   -0.241371
H     -1.656355    0.915465    1.362615
H     -1.857664   -1.393492    2.074600
H     -2.575100   -2.618876    1.002698
H     -0.220196   -3.171699    1.416738
H     -0.431760   -2.769671   -0.308169
H      0.802031   -1.480325    3.001663
H      2.467312    0.340421    3.230387
H      3.891910    2.997939   -1.137194
H      4.679307    1.386371   -0.921878
H      1.765948    2.042759   -1.529591
H      2.788655    0.658679   -2.112663
H      0.654321   -0.785394   -1.263144
