33

N     -3.120651    0.676845   -2.575281
C     -2.772687    0.848172   -1.203118
C     -2.946525    2.102613   -0.606117
C     -2.599846    2.299638    0.732637
C     -2.077850    1.243947    1.482264
C     -1.903826   -0.012278    0.896259
C     -2.252877   -0.225685   -0.449448
C     -1.998292   -1.576165   -1.079807
C     -0.674677   -1.604050   -1.858152
C      0.508613   -1.373899   -0.953584
C      1.035573   -2.435592   -0.190603
C      2.095135   -2.210015    0.698026
C      2.619466   -0.922284    0.819326
S      3.943368   -0.478453    1.918097
C      3.474956    1.280889    1.707684
C      2.703840    1.447356    0.392067
C      2.089301    0.128148    0.101866
C      1.042094   -0.079755   -0.800333
H     -3.346248    2.928095   -1.181751
H     -2.732627    3.272391    1.188230
H     -1.802978    1.400156    2.517385
H     -1.483262   -0.816079    1.488030
H     -2.830505   -1.827944   -1.771845
H     -1.988197   -2.371384   -0.301960
H     -0.696465   -0.842098   -2.667775
H     -0.570894   -2.593641   -2.353962
H      0.619818   -3.431566   -0.279172
H      2.500188   -3.025438    1.283070
H      4.382863    1.920072    1.712340
H      2.825434    1.573928    2.560423
H      3.402314    1.712670   -0.430407
H      1.925939    2.235049    0.491842
H      0.629507    0.756358   -1.351947
