33

N     -3.456380   -0.396732    2.163757
C     -2.992695    0.141000    0.927188
C     -3.310874    1.463532    0.595641
C     -2.856543    2.017904   -0.603327
C     -2.082003    1.253468   -1.477759
C     -1.762117   -0.068155   -1.157182
C     -2.216744   -0.640252    0.044619
C     -1.806803   -2.051612    0.399547
C     -0.592555   -2.075610    1.339537
C      0.627000   -1.473916    0.689891
C      1.408925   -2.240208   -0.198033
C      2.506357   -1.664117   -0.851472
C      2.813209   -0.323488   -0.613901
S      4.155473    0.549331   -1.384301
C      3.373007    2.125107   -0.870828
C      2.443659    1.865771    0.321747
C      2.035124    0.442275    0.227183
C      0.945260   -0.118284    0.899343
H     -3.907078    2.064944    1.270472
H     -3.102111    3.042007   -0.853033
H     -1.724695    1.686789   -2.402961
H     -1.147419   -0.641978   -1.839852
H     -2.655372   -2.574380    0.891006
H     -1.574778   -2.631109   -0.521250
H     -0.376934   -3.129487    1.620143
H     -0.833895   -1.537288    2.282138
H      1.162180   -3.277299   -0.388342
H      3.107116   -2.252837   -1.532468
H      4.153211    2.868752   -0.604093
H      2.781651    2.516623   -1.726357
H      1.558598    2.536996    0.280873
H      2.990929    2.025085    1.275601
H      0.337297    0.497165    1.551414
