33

N     -3.101201   -2.493361    0.594063
C     -3.633844   -1.184421    0.402770
C     -4.973054   -0.938131    0.728863
C     -5.514264    0.339211    0.565108
C     -4.718648    1.378488    0.078974
C     -3.380988    1.142331   -0.249440
C     -2.828028   -0.142033   -0.103739
C     -1.372683   -0.365826   -0.433575
C     -0.501500   -0.171713    0.811030
C      0.948949   -0.397811    0.481066
C      1.504553   -1.690509    0.570464
C      2.845167   -1.909438    0.226803
C      3.617698   -0.835938   -0.218849
S      5.324012   -0.960744   -0.698698
C      5.440608    0.866670   -0.620098
C      4.038720    1.473105   -0.763043
C      3.086337    0.433211   -0.300086
C      1.747948    0.669711    0.029545
H     -5.594848   -1.736793    1.113735
H     -6.549688    0.524706    0.820050
H     -5.137747    2.369256   -0.040404
H     -2.775063    1.961727   -0.616306
H     -1.226571   -1.389432   -0.842533
H     -1.051567    0.346032   -1.226203
H     -0.640898    0.857924    1.208755
H     -0.819779   -0.879444    1.607997
H      0.898701   -2.525085    0.901014
H      3.271228   -2.901995    0.294786
H      5.869685    1.147102    0.365835
H      6.111693    1.240139   -1.422022
H      3.830761    1.708365   -1.828994
H      3.947578    2.396625   -0.151461
H      1.336735    1.668072   -0.058033
