33

N     -3.283733   -0.237678    2.519684
C     -2.957668    0.221082    1.209532
C     -3.322808    1.518268    0.829771
C     -3.002853    1.995793   -0.443356
C     -2.316199    1.179516   -1.343989
C     -1.950230   -0.117371   -0.975230
C     -2.270505   -0.612565    0.301637
C     -1.813043   -1.997474    0.699769
C     -0.506957   -1.958643    1.506415
C      0.633669   -1.402418    0.693392
C      1.325153   -2.227634   -0.216441
C      2.342276   -1.696664   -1.020598
C      2.651490   -0.339456   -0.919401
S      3.895634    0.479465   -1.888136
C      3.794069    1.907771   -0.743920
C      2.441877    1.885871   -0.019771
C      1.991260    0.472115   -0.022418
C      0.970588   -0.038240    0.784937
H     -3.851311    2.159653    1.523936
H     -3.284307    3.000626   -0.730653
H     -2.062835    1.553511   -2.327537
H     -1.404845   -0.731853   -1.681017
H     -2.600713   -2.489664    1.309871
H     -1.673801   -2.634091   -0.201822
H     -0.255997   -2.991411    1.832463
H     -0.651881   -1.358497    2.431272
H      1.067795   -3.275438   -0.308820
H      2.869200   -2.329203   -1.723102
H      3.920410    2.856315   -1.307134
H      4.616235    1.819539   -0.001599
H      1.701854    2.504060   -0.572275
H      2.547331    2.267749    1.018607
H      0.440846    0.616964    1.465855
