33

N     -3.122949    1.754657   -1.697500
C     -3.644865    0.775021   -0.802209
C     -5.008375    0.798036   -0.484734
C     -5.540990   -0.141165    0.401580
C     -4.712834   -1.105577    0.979066
C     -3.350730   -1.136677    0.668158
C     -2.804830   -0.206772   -0.233982
C     -1.325419   -0.238947   -0.529299
C     -0.564526    0.685613    0.425637
C      0.910074    0.654121    0.128380
C      1.463833    1.544595   -0.814043
C      2.830121    1.490846   -1.120065
C      3.631287    0.536006   -0.492191
S      5.372955    0.340628   -0.785037
C      5.471432   -0.698069    0.721823
C      4.083150   -1.268855    1.038622
C      3.101126   -0.332168    0.437802
C      1.738147   -0.300047    0.749452
H     -5.656099    1.547445   -0.922287
H     -6.595414   -0.118149    0.644824
H     -5.125919   -1.827970    1.671184
H     -2.720471   -1.885410    1.132177
H     -1.139108    0.067157   -1.581890
H     -0.942085   -1.278210   -0.423955
H     -0.743418    0.367546    1.476635
H     -0.945264    1.726037    0.326159
H      0.837095    2.273968   -1.312088
H      3.254825    2.174010   -1.844105
H      5.813430   -0.059417    1.564422
H      6.206010   -1.517171    0.572209
H      3.965181   -2.269595    0.570170
H      3.934763   -1.350171    2.137075
H      1.329867   -1.001316    1.467101
