33

N     -3.219160   -0.469516   -2.527863
C     -3.686196   -0.346835   -1.186053
C     -5.008477   -0.698501   -0.888760
C     -5.485452   -0.601892    0.420624
C     -4.642076   -0.157754    1.440862
C     -3.320845    0.195721    1.153870
C     -2.832642    0.117614   -0.162239
C     -1.393270    0.473180   -0.442753
C     -0.503246   -0.770007   -0.353177
C      0.931117   -0.414257   -0.635747
C      1.421087   -0.435765   -1.957572
C      2.746012   -0.067842   -2.226803
C      3.568388    0.334048   -1.173241
S      5.262194    0.837370   -1.360398
C      5.472051    0.672636    0.452896
C      4.101637    0.771498    1.135303
C      3.101499    0.348791    0.123478
C      1.779574   -0.005939    0.410805
H     -5.666865   -1.051201   -1.672814
H     -6.508017   -0.876360    0.645427
H     -5.011291   -0.090439    2.456079
H     -2.677101    0.529267    1.958535
H     -1.302649    0.932241   -1.451422
H     -1.042899    1.234140    0.289568
H     -0.586939   -1.218061    0.661717
H     -0.850546   -1.535472   -1.081728
H      0.776362   -0.732366   -2.775614
H      3.121673   -0.083704   -3.241666
H      6.154645    1.462848    0.830451
H      5.922869   -0.320976    0.663398
H      3.897186    1.822694    1.432006
H      4.062501    0.115461    2.031581
H      1.418875    0.029377    1.431658
