28

N      2.445229   -2.628872    0.073152
C      2.299754   -1.294232   -0.407361
C      2.846024   -0.952830   -1.650440
C      2.707229    0.344929   -2.148208
C      2.020863    1.308364   -1.406761
C      1.473987    0.977703   -0.164340
C      1.611982   -0.323315    0.351522
C      0.970373   -0.671940    1.675086
C     -0.393478   -1.351985    1.488457
C     -1.392802   -0.431626    0.834941
C     -2.062040    0.540714    1.596373
C     -2.954973    1.424169    0.982239
C     -3.179964    1.348491   -0.395050
C     -2.511033    0.389761   -1.161528
F     -2.723001    0.323339   -2.498971
C     -1.618616   -0.496910   -0.550694
H      3.375836   -1.695317   -2.234035
H      3.129103    0.602958   -3.110967
H      1.908665    2.311704   -1.796838
H      0.933255    1.733786    0.391639
H      1.638689   -1.352504    2.245291
H      0.848882    0.240328    2.300003
H     -0.273355   -2.281986    0.890758
H     -0.778338   -1.661474    2.484489
H     -1.887578    0.616809    2.662506
H     -3.469229    2.170737    1.573516
H     -3.869643    2.035754   -0.867893
H     -1.095821   -1.226554   -1.156885
