28

N     -2.868611   -1.960089   -0.908078
C     -2.553037   -0.655367   -0.427007
C     -3.383055   -0.061979    0.531729
C     -3.089080    1.210601    1.027040
C     -1.963390    1.896728    0.567585
C     -1.130239    1.313631   -0.390473
C     -1.418134    0.035774   -0.902333
C     -0.476377   -0.596018   -1.901811
C      0.511960   -1.558426   -1.227764
C      1.430011   -0.839133   -0.272467
C      2.549436   -0.142450   -0.756849
C      3.375368    0.562450    0.124022
C      3.085910    0.583285    1.491155
C      1.968593   -0.099796    1.980157
F      1.683484   -0.071186    3.305294
C      1.141151   -0.807569    1.102598
H     -4.255538   -0.589243    0.896881
H     -3.732505    1.663724    1.770105
H     -1.733495    2.879994    0.957170
H     -0.253823    1.854364   -0.726130
H      0.086370    0.188304   -2.454685
H     -1.061673   -1.154118   -2.663979
H      1.119955   -2.055931   -2.014410
H     -0.044854   -2.363106   -0.699538
H      2.777811   -0.141604   -1.815485
H      4.237518    1.096558   -0.253940
H      3.725637    1.132304    2.170047
H      0.270608   -1.321701    1.491165
