28

N     -2.093377   -2.261230    0.501964
C     -2.670762   -0.991249    0.206326
C     -4.031924   -0.918180   -0.113647
C     -4.617773    0.311859   -0.422045
C     -3.845343    1.474936   -0.416914
C     -2.486043    1.412079   -0.098604
C     -1.887375    0.182763    0.228464
C     -0.411035    0.134366    0.536820
C      0.396525   -0.147204   -0.733805
C      1.868470   -0.199089   -0.424526
C      2.468983   -1.409116   -0.038494
C      3.829831   -1.449321    0.280492
C      4.597137   -0.282417    0.226062
C      4.003882    0.928331   -0.143552
F      4.747421    2.061205   -0.187758
C      2.642842    0.972619   -0.463383
H     -4.636375   -1.816548   -0.127406
H     -5.670089    0.362721   -0.670140
H     -4.299406    2.426090   -0.663194
H     -1.899090    2.322314   -0.108476
H     -0.205265   -0.649464    1.298148
H     -0.085374    1.103201    0.976571
H      0.072601   -1.113460   -1.179719
H      0.197821    0.646919   -1.487250
H      1.883384   -2.318537    0.016779
H      4.288909   -2.384710    0.573367
H      5.650013   -0.316606    0.474844
H      2.191413    1.917727   -0.739281
