28

N     -1.733494    1.635131   -2.006895
C     -2.488502    0.981726   -0.988734
C     -3.871555    0.836425   -1.151625
C     -4.631123    0.186632   -0.175846
C     -4.011828   -0.325631    0.965855
C     -2.632033   -0.185287    1.137427
C     -1.858197    0.479846    0.170281
C     -0.365452    0.590619    0.361186
C      0.352326   -0.588068   -0.303204
C      1.841245   -0.474620   -0.115542
C      2.619861    0.237849   -1.042876
C      3.998433    0.370509   -0.849956
C      4.606780   -0.197492    0.272840
C      3.836734   -0.895983    1.207514
F      4.426749   -1.439256    2.300648
C      2.457389   -1.030862    1.018045
H     -4.358519    1.224059   -2.037752
H     -5.699731    0.075648   -0.307251
H     -4.600918   -0.835174    1.717425
H     -2.165975   -0.596754    2.024344
H      0.004191    1.548631   -0.065343
H     -0.124112    0.607773    1.447252
H     -0.010900   -1.543395    0.136350
H      0.111824   -0.612069   -1.389021
H      2.159162    0.690791   -1.912145
H      4.594750    0.916812   -1.569288
H      5.673931   -0.091913    0.419984
H      1.868963   -1.565946    1.753283
