28

N     -1.981793    1.874605   -1.529870
C     -2.619653    0.911228   -0.694005
C     -3.984699    0.653142   -0.868715
C     -4.629227   -0.296957   -0.072966
C     -3.911913   -0.997670    0.898572
C     -2.549214   -0.746840    1.080518
C     -1.891799    0.217558    0.296721
C     -0.412928    0.448083    0.488558
C      0.399008   -0.443539   -0.455737
C      1.873658   -0.210093   -0.266323
C      2.532392    0.790766   -0.999912
C      3.895584    1.028844   -0.799159
C      4.607217    0.277777    0.140449
C      3.955801   -0.710426    0.884482
F      4.645345   -1.432543    1.801696
C      2.592222   -0.951574    0.686531
H     -4.546630    1.186689   -1.625139
H     -5.684288   -0.493782   -0.213017
H     -4.411397   -1.738647    1.509299
H     -2.005461   -1.305918    1.832119
H     -0.166082    1.516838    0.306398
H     -0.130128    0.227708    1.541904
H      0.117789   -0.229720   -1.510541
H      0.158784   -1.512147   -0.260387
H      1.990247    1.386128   -1.724241
H      4.399642    1.798209   -1.369670
H      5.662063    0.465389    0.294438
H      2.095459   -1.713109    1.275110
