28

N      1.886333   -1.065582    2.293024
C      2.573120   -0.519738    1.168745
C      3.931548   -0.201748    1.287236
C      4.622994    0.348321    0.205271
C      3.959363    0.587943   -0.999551
C      2.603696    0.273666   -1.127483
C      1.899765   -0.294434   -0.051221
C      0.428749   -0.595136   -0.201869
C     -0.415519    0.596562    0.259642
C     -1.882462    0.294204    0.112596
C     -2.585812   -0.327628    1.157788
C     -3.940953   -0.637916    1.007491
C     -4.599804   -0.339277   -0.188384
C     -3.903428    0.266688   -1.238310
F     -4.541583    0.548164   -2.400952
C     -2.547736    0.578645   -1.091798
H      4.451817   -0.377304    2.220572
H      5.672678    0.593712    0.302509
H      4.494985    1.020929   -1.834507
H      2.101656    0.474662   -2.065937
H      0.197375   -0.824095   -1.265881
H      0.161453   -1.499660    0.386978
H     -0.185715    0.832092    1.322247
H     -0.154232    1.495537   -0.341493
H     -2.084536   -0.572863    2.086018
H     -4.479614   -1.113221    1.817064
H     -5.648521   -0.581923   -0.302073
H     -2.015618    1.039397   -1.915020
