28

N     -2.025178    2.091830   -1.173190
C     -2.622621    1.102127   -0.338219
C     -4.012001    0.931382   -0.369064
C     -4.619779   -0.041652    0.427889
C     -3.841770   -0.852516    1.256517
C     -2.454345   -0.689429    1.294294
C     -1.831552    0.296234    0.508677
C     -0.329063    0.432160    0.541176
C      0.314024   -0.425855   -0.552520
C      1.812233   -0.286617   -0.521710
C      2.444285    0.731403   -1.255161
C      3.833538    0.880318   -1.199691
C      4.599174    0.022088   -0.405570
C      3.976343   -0.984529    0.338260
F      4.719330   -1.811032    1.114837
C      2.586835   -1.136696    0.285392
H     -4.621903    1.550927   -1.014664
H     -5.694052   -0.170593    0.399270
H     -4.313737   -1.610786    1.867903
H     -1.864596   -1.333050    1.935453
H      0.057027    0.116354    1.535801
H     -0.038824    1.497122    0.407123
H     -0.071061   -0.116541   -1.549239
H      0.031845   -1.492040   -0.406174
H      1.861468    1.408961   -1.866935
H      4.316358    1.663509   -1.769759
H      5.674242    0.140797   -0.363747
H      2.113778   -1.913876    0.873054
