28

N     -2.848835   -1.929902    1.003874
C     -2.542609   -0.777956    0.221211
C     -3.396081    0.330602    0.275064
C     -3.111907    1.475196   -0.473509
C     -1.972652    1.518511   -1.279281
C     -1.116040    0.416506   -1.341096
C     -1.393714   -0.744524   -0.597652
C     -0.427571   -1.906269   -0.641695
C      0.540063   -1.891418    0.550297
C      1.434478   -0.677997    0.529759
C      2.568151   -0.649086   -0.299129
C      3.372404    0.493418   -0.352444
C      3.047001    1.615909    0.413977
C      1.915350    1.598661    1.234457
F      1.595424    2.691435    1.970382
C      1.109493    0.457173    1.292003
H     -4.279304    0.307029    0.901108
H     -3.773527    2.330466   -0.426235
H     -1.750510    2.408561   -1.853654
H     -0.229628    0.472012   -1.961061
H      0.151661   -1.893857   -1.591353
H     -0.994013   -2.862330   -0.635637
H     -0.032641   -1.935574    1.502472
H      1.167292   -2.808594    0.513521
H      2.824403   -1.508402   -0.906400
H      4.245651    0.510261   -0.991652
H      3.670032    2.499824    0.368245
H      0.227629    0.460346    1.920864
