28

N      1.701512    2.398976    1.122576
C      2.475395    1.289179    0.671923
C      3.845965    1.460945    0.442758
C      4.622858    0.393447   -0.013541
C      4.033247   -0.850304   -0.247777
C      2.666118   -1.031502   -0.021733
C      1.875779    0.030391    0.451920
C      0.395691   -0.179568    0.657494
C     -0.383072    0.194833   -0.607131
C     -1.859384   -0.011265   -0.399782
C     -2.651487    1.021691    0.128781
C     -4.016799    0.818054    0.351790
C     -4.597928   -0.418770    0.058634
C     -3.813671   -1.456183   -0.454391
F     -4.376894   -2.658186   -0.730395
C     -2.447522   -1.256362   -0.678872
H      4.309579    2.424351    0.614596
H      5.681643    0.531852   -0.190532
H      4.635399   -1.674323   -0.608228
H      2.222688   -2.000107   -0.217473
H      0.197537   -1.244009    0.913973
H      0.039078    0.429748    1.516514
H     -0.185957    1.257543   -0.870208
H     -0.032275   -0.426827   -1.460520
H     -2.211445    1.981731    0.369024
H     -4.623782    1.618205    0.755290
H     -5.654813   -0.573647    0.233622
H     -1.847459   -2.069896   -1.067747
