28

N      2.696943   -0.564760   -2.302834
C      2.491569   -0.214935   -0.935808
C      3.326881    0.739144   -0.342341
C      3.138945    1.107141    0.992002
C      2.114513    0.524323    1.740274
C      1.277105   -0.430136    1.157373
C      1.459322   -0.814518   -0.183093
C      0.511205   -1.812671   -0.807425
C     -0.603825   -1.121364   -1.605036
C     -1.492072   -0.287239   -0.717316
C     -2.507912   -0.895363    0.038567
C     -3.302246   -0.128474    0.896411
C     -3.083558    1.247105    1.011439
C     -2.068664    1.858554    0.269657
F     -1.851322    3.191446    0.389054
C     -1.273296    1.095292   -0.590884
H      4.120874    1.199482   -0.917001
H      3.785780    1.847173    1.445236
H      1.966210    0.815334    2.772146
H      0.479046   -0.862506    1.748407
H      0.060886   -2.462526   -0.024856
H      1.075297   -2.488412   -1.485748
H     -1.217721   -1.898870   -2.109609
H     -0.160197   -0.494668   -2.409413
H     -2.679725   -1.962222   -0.033262
H     -4.084614   -0.601507    1.475697
H     -3.698323    1.837474    1.678593
H     -0.481102    1.577702   -1.150232
