28

N     -2.081406   -1.988015   -1.314624
C     -2.665769   -0.877134   -0.637801
C     -4.024334   -0.920359   -0.301774
C     -4.616727    0.148502    0.374929
C     -3.853423    1.264384    0.723635
C     -2.496783    1.316793    0.392351
C     -1.891756    0.254507   -0.301974
C     -0.418104    0.318812   -0.620121
C      0.403737   -0.332514    0.496246
C      1.873014   -0.271272    0.176181
C      2.479191   -1.297012   -0.568272
C      3.837196   -1.222814   -0.893224
C      4.595893   -0.121683   -0.486681
C      3.996809    0.909881    0.242327
F      4.731907    1.981548    0.628808
C      2.638591    0.839299    0.569351
H     -4.621643   -1.785375   -0.561748
H     -5.666985    0.109509    0.633665
H     -4.312470    2.088488    1.254340
H     -1.916837    2.185628    0.678582
H     -0.213555   -0.189866   -1.587467
H     -0.104192    1.379350   -0.741759
H      0.091606   -1.392482    0.624525
H      0.206092    0.188455    1.459221
H      1.900176   -2.151078   -0.897424
H      4.300708   -2.017506   -1.463400
H      5.646573   -0.066593   -0.740938
H      2.182492    1.648547    1.126332
