28

N      2.458876   -0.034031   -2.616895
C      2.386859    0.056119   -1.195627
C      3.257629    0.920631   -0.521391
C      3.199217    1.035208    0.869535
C      2.269543    0.287106    1.594171
C      1.397777   -0.579762    0.930406
C      1.450230   -0.709573   -0.468951
C      0.465073   -1.616363   -1.170536
C     -0.740383   -0.838062   -1.716892
C     -1.551032   -0.212992   -0.610127
C     -2.470833   -0.986972    0.116528
C     -3.189685   -0.418879    1.172702
C     -2.990212    0.921289    1.515385
C     -2.069980    1.695967    0.803228
F     -1.870474    2.993339    1.142519
C     -1.350457    1.131966   -0.255025
H      3.978535    1.507975   -1.076271
H      3.872836    1.706997    1.385673
H      2.221279    0.381915    2.671261
H      0.673898   -1.142719    1.506810
H      0.971338   -2.136261   -2.012171
H      0.111319   -2.413623   -0.480067
H     -0.395015   -0.059929   -2.432298
H     -1.385691   -1.536160   -2.293275
H     -2.625951   -2.029578   -0.132025
H     -3.898281   -1.019052    1.728683
H     -3.546159    1.357276    2.335388
H     -0.630254    1.738169   -0.790737
