28

N     -1.922719    2.480674    0.080181
C     -2.591287    1.221466    0.047917
C     -3.953583    1.163660    0.366180
C     -4.627635   -0.059814    0.356789
C     -3.942703   -1.232839    0.033828
C     -2.583011   -1.185170   -0.285443
C     -1.896260    0.041569   -0.294531
C     -0.420889    0.064480   -0.610379
C      0.407368   -0.052181    0.672705
C      1.878611   -0.025374    0.356964
C      2.565693    1.198011    0.285904
C      3.925267    1.223924   -0.039926
C      4.604899    0.032058   -0.306274
C      3.924972   -1.188257   -0.251407
F      4.583382   -2.343019   -0.518297
C      2.564911   -1.218308    0.074191
H     -4.490412    2.067713    0.625257
H     -5.680414   -0.099274    0.605000
H     -4.464954   -2.180877    0.034121
H     -2.064461   -2.105570   -0.524419
H     -0.159443    1.003021   -1.146232
H     -0.168008   -0.776850   -1.293236
H      0.156045    0.784941    1.360803
H      0.152192   -0.999074    1.198131
H      2.048365    2.129361    0.480811
H      4.451291    2.168557   -0.089394
H      5.657011    0.055592   -0.559488
H      2.045773   -2.168418    0.104595
