25

N     -1.560804   -1.589348    2.626644
C     -1.712652   -0.486938    1.735026
C     -2.352212    0.673629    2.187046
C     -2.504570    1.770742    1.335955
C     -2.017587    1.714367    0.028764
C     -1.379529    0.559923   -0.431941
C     -1.225240   -0.554161    0.412300
C     -0.493357   -1.776544   -0.093015
C      0.977107   -1.785649    0.345836
C      1.741008   -0.639109   -0.245130
C      2.165215   -0.537317   -1.563572
C      2.792681    0.681647   -1.846403
C      2.855264    1.542702   -0.757983
S      2.126710    0.788060    0.556737
H     -2.728967    0.727229    3.200832
H     -2.997626    2.666427    1.691081
H     -2.131107    2.567554   -0.627461
H     -0.997102    0.537712   -1.445047
H     -0.990416   -2.693380    0.290729
H     -0.550653   -1.832813   -1.202620
H      1.044132   -1.748359    1.454391
H      1.446322   -2.737030    0.015210
H      2.017367   -1.314761   -2.301607
H      3.184889    0.932951   -2.822738
H      3.291128    2.532467   -0.760594
