25

N      2.179086   -1.075145    2.234323
C      2.036505   -0.210794    1.109197
C      2.685071    1.030002    1.114999
C      2.552971    1.898774    0.029183
C      1.771110    1.532640   -1.067951
C      1.121565    0.295745   -1.083711
C      1.251177   -0.591107    0.000004
C      0.503424   -1.904849   -0.018351
C     -0.812626   -1.825230    0.766560
C     -1.776533   -0.865356    0.136719
C     -1.944444    0.467620    0.489796
C     -2.856112    1.142879   -0.329917
C     -3.397926    0.349266   -1.333132
S     -2.738334   -1.192609   -1.202918
H      3.289871    1.323549    1.963896
H      3.054452    2.857874    0.039731
H      1.664890    2.209542   -1.905785
H      0.509050    0.032923   -1.937458
H      0.293711   -2.218383   -1.064970
H      1.139838   -2.701530    0.423471
H     -0.613290   -1.525092    1.818070
H     -1.278594   -2.833376    0.790863
H     -1.414017    0.942438    1.304922
H     -3.107475    2.187073   -0.200853
H     -4.113370    0.673145   -2.076688
