25

N      2.053722   -2.319568   -1.171804
C      1.936267   -0.916707   -0.944802
C      2.464143   -0.026067   -1.887327
C      2.353036    1.352707   -1.692798
C      1.712853    1.848909   -0.555692
C      1.184584    0.967992    0.391395
C      1.295071   -0.422347    0.211121
C      0.676751   -1.357017    1.225743
C     -0.707777   -1.847890    0.782410
C     -1.694005   -0.722152    0.697313
C     -2.016142   -0.008292   -0.449995
C     -2.906801    1.044529   -0.210547
C     -3.278184    1.168462    1.122322
S     -2.493834   -0.030043    2.004234
H      2.958381   -0.402621   -2.774183
H      2.760678    2.036940   -2.425684
H      1.622281    2.917494   -0.409517
H      0.680309    1.370005    1.261583
H      1.340561   -2.235574    1.375483
H      0.594307   -0.856604    2.215936
H     -1.078893   -2.591524    1.519541
H     -0.634823   -2.361364   -0.200706
H     -1.609265   -0.231126   -1.427763
H     -3.264362    1.705848   -0.988364
H     -3.948855    1.916009    1.523584
