25

N     -2.402817   -2.009160    1.329500
C     -2.189728   -0.680601    0.857411
C     -2.875498    0.378062    1.465050
C     -2.676527    1.689561    1.027318
C     -1.790260    1.950309   -0.019402
C     -1.102708    0.900248   -0.633205
C     -1.298556   -0.425458   -0.206736
C     -0.511729   -1.541148   -0.855854
C      0.729167   -1.918929   -0.035853
C      1.708841   -0.787025    0.043949
C      2.548644   -0.364077   -0.978034
C      3.302354    0.765459   -0.637958
C      3.051744    1.238135    0.644135
S      1.889270    0.251697    1.354319
H     -3.561417    0.184977    2.280411
H     -3.207338    2.504630    1.502052
H     -1.632712    2.967720   -0.353318
H     -0.409897    1.121718   -1.435757
H     -0.203516   -1.251710   -1.884883
H     -1.158628   -2.437991   -0.965886
H      1.226286   -2.789858   -0.514345
H      0.429394   -2.227474    0.988702
H      2.608242   -0.849554   -1.943299
H      4.007816    1.231443   -1.312787
H      3.519571    2.099028    1.101978
