25

N      1.178608   -1.702692    2.570630
C      1.395230   -0.531272    1.786926
C      1.795775    0.650508    2.421915
C      2.004746    1.813933    1.677617
C      1.813547    1.802892    0.294727
C      1.415734    0.627920   -0.348113
C      1.208025   -0.552048    0.388281
C      0.734254   -1.799953   -0.321409
C     -0.785554   -1.979455   -0.210133
C     -1.526321   -0.878196   -0.907031
C     -2.016563    0.276499   -0.310354
C     -2.590195    1.167098   -1.225135
C     -2.543501    0.722462   -2.540407
S     -1.783470   -0.777909   -2.565523
H      1.942077    0.668796    3.494685
H      2.311976    2.725521    2.173687
H      1.969996    2.706795   -0.279665
H      1.260083    0.640281   -1.419913
H      1.027826   -1.772471   -1.394140
H      1.236019   -2.689928    0.115743
H     -1.068363   -2.948250   -0.674391
H     -1.088538   -2.021270    0.858485
H     -1.949057    0.476951    0.751012
H     -3.020223    2.116813   -0.936513
H     -2.922108    1.256974   -3.400981
