25

N      1.735355   -2.719321    0.796963
C      1.812911   -1.295689    0.772442
C      2.492450   -0.631199    1.800510
C      2.573868    0.763277    1.804449
C      1.975695    1.501341    0.781456
C      1.297004    0.847088   -0.249754
C      1.212881   -0.556581   -0.269367
C      0.435278   -1.241415   -1.370149
C     -0.990548   -1.596310   -0.928006
C     -1.802200   -0.369984   -0.637280
C     -1.982321    0.208437    0.612786
C     -2.720144    1.396970    0.567503
C     -3.111927    1.761527   -0.714462
S     -2.535602    0.606453   -1.792907
H      2.955463   -1.195899    2.600078
H      3.098283    1.272215    2.602848
H      2.034518    2.582046    0.789288
H      0.828227    1.435715   -1.028792
H      0.961346   -2.171929   -1.673995
H      0.394052   -0.596966   -2.276063
H     -0.960811   -2.251232   -0.030405
H     -1.487475   -2.167871   -1.740693
H     -1.580822   -0.206725    1.528030
H     -2.954511    1.982029    1.446687
H     -3.680972    2.644023   -0.973351
