25

N      1.072637   -1.193990    2.940720
C      1.335360   -0.199276    1.953368
C      1.744380    1.076127    2.361160
C      1.998274    2.070704    1.413762
C      1.843774    1.796352    0.053644
C      1.437825    0.526072   -0.363075
C      1.185040   -0.486278    0.579789
C      0.703363   -1.839769    0.109220
C     -0.822400   -1.969877    0.206875
C     -1.520328   -1.011800   -0.710817
C     -2.001097    0.244034   -0.362361
C     -2.530814    0.950704   -1.448205
C     -2.458872    0.260132   -2.651433
S     -1.731138   -1.229011   -2.364646
H      1.862440    1.298524    3.414336
H      2.311887    3.055744    1.734406
H      2.035034    2.569911   -0.678798
H      1.311070    0.334081   -1.421473
H      1.173918   -2.636762    0.724286
H      1.025882   -2.024348   -0.939399
H     -1.154527   -1.800003    1.253932
H     -1.113702   -3.005303   -0.070832
H     -1.957470    0.644232    0.642215
H     -2.947689    1.945058   -1.360681
H     -2.802849    0.624739   -3.609754
