25

N      1.459987   -2.468573    0.936443
C      2.148041   -1.274246    0.570707
C      3.503545   -1.140892    0.895237
C      4.196127    0.025399    0.561472
C      3.536533    1.066686   -0.094315
C      2.183806    0.942776   -0.422569
C      1.478841   -0.231703   -0.105912
C      0.010832   -0.329918   -0.440980
C     -0.843221    0.148876    0.735764
C     -2.298780    0.046804    0.403865
C     -3.052095    1.008968   -0.256082
C     -4.371450    0.605850   -0.494177
C     -4.654475   -0.675022   -0.036557
S     -3.261082   -1.307578    0.662027
H      4.020636   -1.940667    1.410597
H      5.243528    0.124069    0.815882
H      4.072982    1.972522   -0.345713
H      1.684856    1.763699   -0.922837
H     -0.213579    0.288379   -1.338526
H     -0.253078   -1.378875   -0.698904
H     -0.594546    1.205422    0.977417
H     -0.631437   -0.470308    1.634209
H     -2.659852    1.969649   -0.563270
H     -5.099661    1.229316   -0.995448
H     -5.606458   -1.180634   -0.124724
