25

N     -2.043435   -2.159602    1.433914
C     -1.986181   -0.853184    0.865284
C     -2.706679    0.185513    1.467143
C     -2.658973    1.476176    0.935050
C     -1.890080    1.736026   -0.200883
C     -1.169132    0.705596   -0.809580
C     -1.213359   -0.599697   -0.288050
C     -0.389945   -1.689526   -0.935850
C      0.941975   -1.910374   -0.206719
C      1.827975   -0.704269   -0.293273
C      1.926983    0.302008    0.659241
C      2.772089    1.347254    0.268994
C      3.329827    1.172419   -0.991237
S      2.767046   -0.281684   -1.622313
H     -3.302046   -0.006568    2.351012
H     -3.215888    2.276129    1.405569
H     -1.849372    2.737927   -0.608292
H     -0.568023    0.927383   -1.682858
H     -0.193431   -1.445948   -2.003439
H     -0.964519   -2.640731   -0.934444
H      0.756753   -2.167394    0.858704
H      1.467424   -2.772283   -0.670501
H      1.393924    0.289473    1.601010
H      2.964804    2.214485    0.886213
H      4.002262    1.860872   -1.484693
