25

N     -2.292984   -2.173456    1.013846
C     -2.111737   -0.824164    0.589694
C     -2.857850    0.190031    1.202042
C     -2.691240    1.520728    0.811280
C     -1.777276    1.845217   -0.192930
C     -1.029539    0.839862   -0.811162
C     -1.191983   -0.504568   -0.431871
C     -0.340246   -1.570737   -1.082420
C      0.880725   -1.929744   -0.225237
C      1.819627   -0.769655   -0.084418
C      1.841223    0.135748    0.968893
C      2.770578    1.166713    0.788749
C      3.472541    1.081958   -0.407031
S      2.932831   -0.274277   -1.242933
H     -3.565709   -0.052563    1.984769
H     -3.268727    2.301259    1.289556
H     -1.645007    2.877467   -0.490267
H     -0.316082    1.110679   -1.579779
H     -0.949290   -2.485965   -1.244743
H     -0.002988   -1.238457   -2.089166
H      0.554370   -2.275735    0.779390
H      1.423614   -2.770860   -0.706771
H      1.195472    0.062915    1.834305
H      2.920902    1.960488    1.508131
H      4.228777    1.777117   -0.745401
