25

N     -1.458960    2.065154    1.585557
C     -2.147509    1.055443    0.850725
C     -3.503060    0.824135    1.114307
C     -4.196122   -0.169496    0.418848
C     -3.536963   -0.940532   -0.540537
C     -2.184202   -0.716918   -0.810733
C     -1.478755    0.290031   -0.128789
C     -0.010737    0.491573   -0.413863
C      0.843243   -0.344801    0.542471
C      2.298808   -0.140623    0.261632
C      3.051695   -0.835478   -0.675978
C      4.371155   -0.377155   -0.770070
C      4.654691    0.684649    0.079829
S      3.261619    1.055474    0.946737
H     -4.019812    1.412533    1.862220
H     -5.243554   -0.345289    0.627392
H     -4.073784   -1.714826   -1.073279
H     -1.685600   -1.330216   -1.551272
H      0.213363    0.199400   -1.463936
H      0.253548    1.567237   -0.315976
H      0.631775   -0.052093    1.593685
H      0.594193   -1.422345    0.426721
H      2.659069   -1.643527   -1.279322
H      5.099072   -0.803474   -1.447318
H      5.606829    1.191142    0.160948
