25

N      1.398834   -1.439514    2.788055
C      1.493556   -0.306553    1.927376
C      1.819038    0.940678    2.473931
C      1.908168    2.067565    1.653326
C      1.671484    1.954294    0.282118
C      1.347892    0.713554   -0.272782
C      1.261077   -0.430189    0.540888
C      0.865417   -1.753657   -0.073335
C     -0.630327   -2.044157    0.107719
C     -1.480672   -1.050465   -0.624855
C     -2.041693    0.097690   -0.080172
C     -2.716010    0.881105   -1.023888
C     -2.678494    0.359315   -2.310803
S     -1.801400   -1.075546   -2.275093
H      1.999870    1.038058    3.537131
H      2.157728    3.029898    2.081232
H      1.735001    2.829585   -0.351348
H      1.155331    0.645993   -1.336497
H      1.451815   -2.572252    0.396736
H      1.119100   -1.771078   -1.156402
H     -0.892372   -2.041980    1.187914
H     -0.849863   -3.059493   -0.285950
H     -1.954429    0.369439    0.963750
H     -3.211036    1.810575   -0.776464
H     -3.128015    0.807134   -3.186601
