25

N      1.976210   -2.094892    1.773869
C      1.893492   -0.758327    1.283873
C      2.415942    0.285693    2.056735
C      2.338272    1.604631    1.603323
C      1.737093    1.887480    0.375461
C      1.214559    0.852152   -0.403714
C      1.291747   -0.480820    0.037849
C      0.679789   -1.580256   -0.800084
C     -0.725238   -1.957090   -0.311908
C     -1.689803   -0.820254   -0.468091
C     -2.025699    0.102028    0.514890
C     -2.888139    1.104592    0.056518
C     -3.223441    0.980810   -1.285897
S     -2.442222   -0.374540   -1.904055
H      2.879962    0.075431    3.012272
H      2.741521    2.408322    2.205767
H      1.672299    2.910626    0.028449
H      0.740595    1.090714   -1.347952
H      1.328831   -2.481530   -0.763013
H      0.632472   -1.274270   -1.868648
H     -0.687507   -2.277090    0.751891
H     -1.093108   -2.820474   -0.906314
H     -1.648081    0.061204    1.528285
H     -3.251273    1.906187    0.685617
H     -3.868273    1.649673   -1.839474
