31

N      3.865629   -1.230128   -1.710452
C      3.349293   -0.348179   -0.716029
C      3.904641    0.930098   -0.582293
C      3.408902    1.816536    0.376747
C      2.354838    1.430615    1.206848
C      1.795659    0.156338    1.082432
C      2.289322   -0.748242    0.125334
C      1.637527   -2.104095   -0.024187
C      0.608903   -2.122437   -1.163048
C     -0.527347   -1.180858   -0.899738
C     -1.557050   -1.394203    0.016989
C     -2.423395   -0.300002    0.104148
C     -3.546072   -0.200752    0.930190
C     -4.306196    0.981007    0.899360
C     -3.938464    2.044510    0.051713
C     -2.807441    1.935973   -0.772427
C     -2.071333    0.754601   -0.726132
S     -0.682395    0.360687   -1.582559
H      4.719344    1.239058   -1.225235
H      3.839923    2.804563    0.474134
H      1.967584    2.120975    1.945010
H      0.969960   -0.121929    1.725835
H      1.144214   -2.404391    0.926661
H      2.415051   -2.871671   -0.227051
H      0.204874   -3.152115   -1.268353
H      1.100235   -1.856688   -2.123628
H     -1.662879   -2.297817    0.603813
H     -3.828517   -1.016310    1.583982
H     -5.179171    1.075004    1.532075
H     -4.530015    2.950636    0.036873
H     -2.515623    2.749217   -1.424148
