31

N     -2.881410    2.123350    1.434534
C     -3.519529    1.062495    0.726718
C     -4.895821    1.137324    0.480326
C     -5.541537    0.118401   -0.224059
C     -4.814373   -0.978613   -0.690104
C     -3.440405   -1.062289   -0.448908
C     -2.781022   -0.051125    0.271779
C     -1.291290   -0.146805    0.491767
C     -0.534363    0.567395   -0.630815
C      0.942429    0.475465   -0.408431
C      1.756676   -0.580367   -0.819092
C      3.082624   -0.418503   -0.404917
C      4.139261   -1.297060   -0.658816
C      5.415203   -0.982430   -0.160501
C      5.620649    0.196680    0.582659
C      4.552215    1.071531    0.834407
C      3.297593    0.739586    0.328770
S      1.855973    1.586264    0.484087
H     -5.465757    1.988403    0.831678
H     -6.605374    0.181742   -0.413134
H     -5.315092   -1.763632   -1.241964
H     -2.889514   -1.915411   -0.825530
H     -0.982766   -1.215391    0.526375
H     -1.020548    0.298023    1.474274
H     -0.830431    1.638157   -0.665836
H     -0.788346    0.106292   -1.610313
H      1.399679   -1.430788   -1.386164
H      3.982563   -2.204537   -1.228292
H      6.245225   -1.651079   -0.348191
H      6.607040    0.428758    0.962658
H      4.700446    1.978165    1.406523
