31

N      3.060678   -2.724175   -1.198713
C      2.841790   -1.326783   -1.017916
C      3.248502   -0.436793   -2.019298
C      3.034596    0.935634   -1.871127
C      2.412654    1.426113   -0.721512
C      2.005679    0.546082    0.284360
C      2.219877   -0.837501    0.150538
C      1.724239   -1.775853    1.227451
C      0.362485   -2.387288    0.871296
C     -0.704890   -1.339585    0.772364
C     -1.105439   -0.705892   -0.404630
C     -2.047832    0.299813   -0.170590
C     -2.637365    1.118414   -1.137384
C     -3.563471    2.092051   -0.725627
C     -3.886410    2.238783    0.637825
C     -3.285645    1.413941    1.601695
C     -2.372891    0.454903    1.169381
S     -1.499479   -0.641379    2.093692
H      3.727477   -0.809309   -2.916171
H      3.348136    1.619071   -2.649626
H      2.241647    2.489147   -0.611239
H      1.512362    0.942408    1.163409
H      2.460462   -2.594834    1.376197
H      1.648753   -1.243680    2.201498
H      0.433488   -2.945830   -0.087076
H      0.076656   -3.114870    1.660568
H     -0.713998   -0.951436   -1.383845
H     -2.387672    1.008785   -2.185242
H     -4.030462    2.734364   -1.460879
H     -4.599655    2.992864    0.944189
H     -3.524274    1.522834    2.651674
