31

N      3.181817   -1.981938    1.976765
C      2.870950   -0.725941    1.377485
C      3.151056    0.453104    2.078669
C      2.845078    1.695467    1.518156
C      2.257080    1.766302    0.253941
C      1.976243    0.595374   -0.454525
C      2.284184   -0.661826    0.095668
C      1.923579   -1.917097   -0.666016
C      0.592334   -2.513252   -0.189090
C     -0.553731   -1.581825   -0.445480
C     -1.068591   -0.665757    0.472704
C     -2.067575    0.138080   -0.084252
C     -2.771941    1.151007    0.571642
C     -3.741907    1.873109   -0.144541
C     -3.994191    1.580078   -1.499277
C     -3.278343    0.563084   -2.150134
C     -2.323978   -0.140238   -1.419179
S     -1.318916   -1.379581   -1.941596
H      3.602825    0.406928    3.061694
H      3.060830    2.603804    2.065725
H      2.014516    2.729454   -0.176105
H      1.507388    0.668208   -1.428195
H      1.866194   -1.706333   -1.756868
H      2.725946   -2.675015   -0.536994
H      0.648132   -2.754137    0.894584
H      0.408076   -3.464315   -0.732742
H     -0.718210   -0.574507    1.493137
H     -2.576784    1.379333    1.611908
H     -4.297612    2.660591    0.347705
H     -4.742152    2.143425   -2.041873
H     -3.462299    0.334413   -3.191828
