31

N     -2.750964    0.501885    2.752144
C     -3.440501    0.076097    1.578756
C     -4.835540    0.185302    1.529479
C     -5.532932   -0.210677    0.385732
C     -4.839437   -0.713605   -0.716780
C     -3.447096   -0.826596   -0.676942
C     -2.734357   -0.445836    0.473560
C     -1.228793   -0.546148    0.481563
C     -0.599162    0.768614    0.014468
C      0.893709    0.668659    0.027354
C      1.678564    0.169299   -1.012391
C      3.036759    0.134345   -0.680790
C      4.075796   -0.307774   -1.504041
C      5.390369   -0.280905   -1.007540
C      5.651426    0.181827    0.297266
C      4.600496    0.621554    1.117316
C      3.306659    0.587462    0.602765
S      1.875227    1.037902    1.356004
H     -5.380351    0.581441    2.377340
H     -6.611203   -0.122855    0.352181
H     -5.380869   -1.013188   -1.604825
H     -2.923736   -1.209928   -1.544288
H     -0.867771   -0.797610    1.502800
H     -0.902084   -1.372835   -0.187852
H     -0.913441    1.598143    0.684190
H     -0.943073    1.006921   -1.015812
H      1.279417   -0.160642   -1.963208
H      3.876540   -0.665349   -2.506442
H      6.207418   -0.618938   -1.631577
H      6.667325    0.197240    0.670008
H      4.791607    0.976197    2.121796
