31

N     -2.921891    2.440479   -0.756532
C     -3.536879    1.178087   -0.508019
C     -4.920756    1.121738   -0.302592
C     -5.544837   -0.100582   -0.042269
C     -4.788529   -1.272620    0.018805
C     -3.406768   -1.226465   -0.185092
C     -2.768334   -0.005051   -0.462919
C     -1.271012    0.025206   -0.647198
C     -0.569984    0.299436    0.685679
C      0.914339    0.333548    0.500076
C      1.757302   -0.777793    0.527635
C      3.086163   -0.441370    0.250465
C      4.168511   -1.324169    0.205789
C      5.443763   -0.816152   -0.095855
C      5.623131    0.557898   -0.350028
C      4.529086    1.436160   -0.305129
C      3.275600    0.909908   -0.002200
S      1.807399    1.717024    0.108326
H     -5.513556    2.027140   -0.340695
H     -6.614709   -0.138510    0.117243
H     -5.272805   -2.217784    0.227762
H     -2.833555   -2.143495   -0.124952
H     -0.921486   -0.948425   -1.057246
H     -0.992810    0.805131   -1.389368
H     -0.907078    1.275326    1.097290
H     -0.830835   -0.494027    1.419790
H      1.418548   -1.785599    0.732110
H      4.031945   -2.380735    0.399153
H      6.293463   -1.485336   -0.134074
H      6.609281    0.938342   -0.582404
H      4.657294    2.492689   -0.501565
