31

N     -2.751978    2.662040   -0.560588
C     -3.449252    1.429540   -0.392195
C     -4.835807    1.450768   -0.198546
C     -5.539690    0.258069   -0.015992
C     -4.860948   -0.962049   -0.021321
C     -3.477174   -0.993386   -0.214080
C     -2.758857    0.198527   -0.414068
C     -1.260983    0.142699   -0.587566
C     -0.556637    0.290861    0.763421
C      0.928530    0.240174    0.588684
C      1.698325   -0.922866    0.554386
C      3.048569   -0.656935    0.305390
C      4.072562   -1.603453    0.214026
C      5.380523   -1.161677   -0.049438
C      5.649876    0.210618   -0.219858
C      4.613920    1.153360   -0.128599
C      3.326504    0.691941    0.135197
S      1.912000    1.584029    0.285573
H     -5.368757    2.393324   -0.185428
H     -6.611278    0.280052    0.134757
H     -5.407004   -1.884656    0.127468
H     -2.964735   -1.947573   -0.206043
H     -0.970837   -0.825293   -1.053469
H     -0.926087    0.945901   -1.279815
H     -0.874828   -0.526628    1.446804
H     -0.834432    1.260084    1.231241
H      1.293825   -1.917105    0.696183
H      3.866817   -2.658635    0.342989
H      6.185971   -1.880789   -0.122867
H      6.660513    0.539831   -0.423475
H      4.811349    2.209225   -0.260686
