31

N      3.283545   -2.759847    0.372698
C      3.780703   -1.454488    0.083127
C      5.164617   -1.257530    0.011186
C      5.682236    0.006991   -0.269505
C      4.819556    1.082165   -0.479760
C      3.435818    0.898374   -0.410605
C      2.892795   -0.375416   -0.128002
C      1.395919   -0.631799   -0.040060
C      0.494952    0.589492   -0.290686
C     -0.973008    0.272424   -0.193710
C     -1.987374    1.213567   -0.377457
C     -3.265193    0.662334   -0.234473
C     -4.477248    1.346832   -0.359158
C     -5.676954    0.635975   -0.183349
C     -5.653864   -0.741151    0.112995
C     -4.431169   -1.419461    0.236138
C     -3.256142   -0.693352    0.057518
S     -1.671919   -1.238305    0.144907
H      5.841123   -2.087407    0.173527
H      6.753247    0.153717   -0.323945
H      5.223873    2.062483   -0.697215
H      2.806948    1.760180   -0.580285
H      1.174633   -1.030100    0.974475
H      1.137999   -1.417261   -0.784005
H      0.692203    0.989891   -1.308517
H      0.724945    1.376713    0.459362
H     -1.803735    2.255941   -0.605749
H     -4.496630    2.405193   -0.586906
H     -6.624743    1.150091   -0.276297
H     -6.583434   -1.279044    0.246399
H     -4.403698   -2.477201    0.463531
