31

N      3.073237   -2.246491    0.480553
C      3.608334   -0.977795    0.109494
C      4.981981   -0.747912    0.253497
C      5.528235    0.491410   -0.088554
C      4.703838    1.509287   -0.571982
C      3.331681    1.289245   -0.719393
C      2.771415    0.041730   -0.393146
C      1.282583   -0.162250   -0.529593
C      0.570967    0.170428    0.784232
C     -0.904630   -0.036821    0.648283
C     -1.811351    0.906632    0.164362
C     -3.112241    0.399232    0.086200
C     -4.243055    1.092499   -0.353628
C     -5.479920    0.425361   -0.374330
C     -5.573497   -0.918094    0.039386
C     -4.431283   -1.606519    0.477236
C     -3.217230   -0.924002    0.490794
S     -1.707105   -1.496159    0.950597
H      5.627170   -1.529493    0.634911
H      6.590510    0.664481    0.026010
H      5.127771    2.471256   -0.829695
H      2.704902    2.092521   -1.086858
H      1.065880   -1.212798   -0.822657
H      0.885598    0.486765   -1.341651
H      0.955645   -0.480599    1.598851
H      0.769723    1.228145    1.064004
H     -1.536296    1.913079   -0.124857
H     -4.172417    2.124499   -0.673555
H     -6.366213    0.947063   -0.711329
H     -6.530703   -1.422618    0.018403
H     -4.493528   -2.639378    0.794414
