31

N     -3.348650    2.619699   -0.094536
C     -2.943441    1.327859   -0.542043
C     -3.162506    0.968028   -1.877257
C     -2.763927   -0.287195   -2.342889
C     -2.143850   -1.189570   -1.476737
C     -1.923368   -0.840567   -0.142030
C     -2.324615    0.417798    0.341303
C     -2.028784    0.794111    1.775450
C     -0.750223    1.634468    1.894434
C      0.459348    0.865525    1.455772
C      1.011363    0.893965    0.174446
C      2.072795   -0.005021    0.034778
C      2.826109   -0.217850   -1.122619
C      3.856917   -1.172686   -1.092524
C      4.120602   -1.901751    0.083808
C      3.355457   -1.683210    1.240148
C      2.341076   -0.730342    1.186807
S      1.270028   -0.281976    2.399597
H     -3.638657    1.663726   -2.556855
H     -2.932816   -0.559218   -3.376782
H     -1.829612   -2.159199   -1.840764
H     -1.428656   -1.547516    0.512681
H     -2.881320    1.371933    2.192802
H     -1.932927   -0.118491    2.404450
H     -0.615584    1.937581    2.954634
H     -0.846284    2.563458    1.291740
H      0.644404    1.524912   -0.625322
H      2.622410    0.339535   -2.028267
H      4.451046   -1.350078   -1.979531
H      4.915685   -2.635866    0.095565
H      3.547980   -2.242063    2.146722
