31

N      2.698313   -1.802776    2.158476
C      3.422051   -1.001257    1.227145
C      4.796532   -0.810737    1.414204
C      5.525039   -0.017595    0.524534
C      4.882892    0.593262   -0.554310
C      3.511439    0.408818   -0.749406
C      2.769376   -0.399178    0.129864
C      1.283773   -0.557362   -0.081816
C      0.511549    0.501867    0.708704
C     -0.961448    0.340503    0.501193
C     -1.694539    0.894782   -0.548462
C     -3.038527    0.509313   -0.517076
C     -4.029011    0.896005   -1.423836
C     -5.335223    0.408074   -1.247564
C     -5.635979   -0.456426   -0.176594
C     -4.633433   -0.840951    0.727470
C     -3.347173   -0.343081    0.533560
S     -1.968033   -0.641018    1.443764
H      5.300765   -1.274709    2.252710
H      6.587077    0.127701    0.674438
H      5.447627    1.213316   -1.238507
H      3.027002    0.897451   -1.585883
H      1.044393   -0.460772   -1.164233
H      0.959322   -1.574296    0.229750
H      0.820306    1.518211    0.379680
H      0.738323    0.405803    1.792566
H     -1.268503    1.542208   -1.304484
H     -3.799022    1.558938   -2.248455
H     -6.114980    0.697738   -1.939899
H     -6.644914   -0.827161   -0.050773
H     -4.854996   -1.506672    1.551486
