      -----------------------------------------------------------      
     |                   =====================                   |     
     |                           x T B                           |     
     |                   =====================                   |     
     |                         S. Grimme                         |     
     |          Mulliken Center for Theoretical Chemistry        |     
     |                    University of Bonn                     |     
      -----------------------------------------------------------      

   * xtb version 6.7.1 (edcfbbe) compiled by 'runner@sat12-gn217-0cbadaec-b866-44ae-a866-732403219ae3-6E01A8DFFD18.local' on 2026-06-10

   xtb is free software: you can redistribute it and/or modify it under
   the terms of the GNU Lesser General Public License as published by
   the Free Software Foundation, either version 3 of the License, or
   (at your option) any later version.
   
   xtb is distributed in the hope that it will be useful,
   but WITHOUT ANY WARRANTY; without even the implied warranty of
   MERCHANTABILITY or FITNESS FOR A PARTICULAR PURPOSE.  See the
   GNU Lesser General Public License for more details.
   
   Cite this work as:
   * C. Bannwarth, E. Caldeweyher, S. Ehlert, A. Hansen, P. Pracht,
     J. Seibert, S. Spicher, S. Grimme, WIREs Comput. Mol. Sci., 2020, 11,
     e01493. DOI: 10.1002/wcms.1493
   
   for GFN2-xTB:
   * C. Bannwarth, S. Ehlert and S. Grimme., J. Chem. Theory Comput., 2019,
     15, 1652-1671. DOI: 10.1021/acs.jctc.8b01176
   for GFN1-xTB:
   * S. Grimme, C. Bannwarth, P. Shushkov, J. Chem. Theory Comput., 2017,
     13, 1989-2009. DOI: 10.1021/acs.jctc.7b00118
   for GFN0-xTB:
   * P. Pracht, E. Caldeweyher, S. Ehlert, S. Grimme, ChemRxiv, 2019, preprint.
     DOI: 10.26434/chemrxiv.8326202.v1
   for GFN-FF:
   * S. Spicher and S. Grimme, Angew. Chem. Int. Ed., 2020, 59, 15665-15673.
     DOI: 10.1002/anie.202004239
   
   for ALPB and GBSA implicit solvation:
   * S. Ehlert, M. Stahn, S. Spicher, S. Grimme, J. Chem. Theory Comput.,
     2021, 17, 4250-4261. DOI: 10.1021/acs.jctc.1c00471
   
   for ddCOSMO and CPCM-X implicit solvation:
   * M. Stahn, S. Ehlert, S. Grimme, J. Phys. Chem. A,
     2023, XX, XXXX-XXXX. DOI: 10.1021/acs.jpca.3c04382
   
   for DFT-D4:
   * E. Caldeweyher, C. Bannwarth and S. Grimme, J. Chem. Phys., 2017,
     147, 034112. DOI: 10.1063/1.4993215
   * E. Caldeweyher, S. Ehlert, A. Hansen, H. Neugebauer, S. Spicher,
     C. Bannwarth and S. Grimme, J. Chem. Phys., 2019, 150, 154122.
     DOI: 10.1063/1.5090222
   * E. Caldeweyher, J.-M. Mewes, S. Ehlert and S. Grimme, Phys. Chem. Chem. Phys.
     2020, 22, 8499-8512. DOI: 10.1039/D0CP00502A
   
   for sTDA-xTB:
   * S. Grimme and C. Bannwarth, J. Chem. Phys., 2016, 145, 054103.
     DOI: 10.1063/1.4959605
   
   in the mass-spec context:
   * V. Asgeirsson, C. Bauer and S. Grimme, Chem. Sci., 2017, 8, 4879.
     DOI: 10.1039/c7sc00601b
   * J. Koopman and S. Grimme, ACS Omega 2019, 4, 12, 15120-15133.
     DOI: 10.1021/acsomega.9b02011
   
   for metadynamics refer to:
   * S. Grimme, J. Chem. Theory Comput., 2019, 155, 2847-2862
     DOI: 10.1021/acs.jctc.9b00143
   
   for SPH calculations refer to:
   * S. Spicher and S. Grimme, J. Chem. Theory Comput., 2021, 17, 1701-1714
     DOI: 10.1021/acs.jctc.0c01306
   
   for ONIOM refer to:
   * C. Plett, A. Katbashev, S. Ehlert, S. Grimme, M. Bursch,
     Phys. Chem. Chem. Phys., 2023, 25, 17860-17868. DOI: 10.1039/D3CP02178E
   
   for DIPRO refer to:
   * J. Kohn, N. Gildemeister, S. Grimme, D. Fazzi, A. Hansen,
     J. Chem. Phys., 2023, just accepted.
   
   for PTB refer to:
   * S. Grimme, M. Mueller, A. Hansen, J. Chem. Phys., 2023, 158, 124111.
     DOI: 10.1063/5.0137838
   
   with help from (in alphabetical order)
   P. Atkinson, C. Bannwarth, F. Bohle, G. Brandenburg, E. Caldeweyher
   M. Checinski, S. Dohm, S. Ehlert, S. Ehrlich, I. Gerasimov, C. Hölzer
   A. Katbashev, J. Kohn, J. Koopman, C. Lavigne, S. Lehtola, F. März, M. Müller,
   F. Musil, H. Neugebauer, J. Pisarek, C. Plett, P. Pracht, F. Pultar,
   J. Seibert, P. Shushkov, S. Spicher, M. Stahn, M. Steiner, T. Strunk,
   J. Stückrath, T. Rose, and J. Unsleber
   
 * started run on 2026/07/31 at 15:22:34.089     
   ID    Z sym.   atoms
    1    7 N      1, 2, 24, 25, 53, 55, 110, 112, 215
    2    6 C      3-5, 7, 9-12, 14, 16-20, 22, 23, 26-28, 30, 32-35, 37,
                  39-43, 45, 46, 49-52, 54, 57, 58, 61, 65, 67, 68, 70, 71,
                  73, 77, 81, 86-89, 91, 92, 106-109, 111, 114, 115, 118,
                  122, 124, 125, 127, 128, 130, 134, 138, 143-146, 148, 149,
                  171-174, 176, 178, 182-185, 187, 189, 193-196, 198, 200,
                  204-207, 209, 211, 216-231
    3    1 H      6, 8, 13, 15, 21, 29, 31, 36, 38, 44, 56, 59, 60, 62, 63,
                  69, 72, 74-76, 78-80, 90, 93-105, 113, 116, 117, 119, 120,
                  126, 129, 131-133, 135-137, 147, 150-166, 175, 177,
                  179-181, 186, 188, 190-192, 197, 199, 201-203, 208, 210,
                  212-214, 233-245
    4   26 Fe     47
    5   17 Cl     48
    6    8 O      64, 66, 82-85, 121, 123, 139-142, 167-170, 232

           -------------------------------------------------
          |                Calculation Setup                |
           -------------------------------------------------

          program call               : /Users/haywoodau3/Documents/genaisubstrate/.chem-env/bin/xtb /Users/haywoodau3/Documents/genaisubstrate/data/jacs_2025/stage3/pilot/reference-optimizations/1p/start-0001/input-assembly.xyz --gfn 2 --alpb ether --opt --input /Users/haywoodau3/Documents/genaisubstrate/data/jacs_2025/stage3/pilot/reference-optimizations/1p/start-0001/xcontrol
          coordinate file            : /Users/haywoodau3/Documents/genaisubstrate/data/jacs_2025/stage3/pilot/reference-optimizations/1p/start-0001/input-assembly.xyz
          omp threads                :                     4


           -------------------------------------------------
          |                 G F N 2 - x T B                 |
           -------------------------------------------------

        Reference                      10.1021/acs.jctc.8b01176
      * Hamiltonian:
        H0-scaling (s, p, d)           1.850000    2.230000    2.230000
        zeta-weighting                 0.500000
      * Dispersion:
        s8                             2.700000
        a1                             0.520000
        a2                             5.000000
        s9                             5.000000
      * Repulsion:
        kExp                           1.500000    1.000000
        rExp                           1.000000
      * Coulomb:
        alpha                          2.000000
        third order                    shell-resolved
        anisotropic                    true
        a3                             3.000000
        a5                             4.000000
        cn-shift                       1.200000
        cn-exp                         4.000000
        max-rad                        5.000000

      * Solvation model:               ALPB
        Solvent                        ether
        Parameter file                 internal GFN2-xTB/ALPB
        Dielectric constant                4.3300E+00
        Reference state                gsolv [1 M gas/solution]
        Free energy shift                  4.9534E-03 Eh       3.1083E+00 kcal/mol
        Temperature                        2.9815E+02 K
        Density                            7.1300E-01 kg/L
        Solvent mass                       7.4120E+01 g/mol
        Interaction kernel             P16
        Born radius scaling (c1)           1.5847E+00
        Born radii integrator          GBOBC
        Born offset                        0.0000E+00 a0       0.0000E+00 AA
        H-bond correction              true
        Ion screening                  false
        Surface tension                    1.0000E-05 Eh       1.5569E+01 dyn/cm
        Grid points                               230 per atom

          ...................................................
          :                      SETUP                      :
          :.................................................:
          :  # basis functions                 689          :
          :  # atomic orbitals                 687          :
          :  # shells                          391          :
          :  # electrons                       727          :
          :  max. iterations                   250          :
          :  Hamiltonian                  GFN2-xTB          :
          :  restarted?                      false          :
          :  GBSA solvation                   true          :
          :  PC potential                    false          :
          :  electronic temp.          300.0000000     K    :
          :  accuracy                    1.0000000          :
          :  -> integral cutoff          0.2500000E+02      :
          :  -> integral neglect         0.1000000E-07      :
          :  -> SCF convergence          0.1000000E-05 Eh   :
          :  -> wf. convergence          0.1000000E-03 e    :
          :  Broyden damping             0.4000000          :
          :  net charge                          0          :
          :  unpaired electrons                  0          :
          ...................................................

 iter      E             dE          RMSdq      gap      omega  full diag
   1   -407.3394543 -0.407339E+03  0.464E+00    0.03       0.0  T
   2   -406.5329526  0.806502E+00  0.327E+00    0.62       1.0  T
   3   -398.2010190  0.833193E+01  0.498E+00    0.26       1.0  T
   4   -406.8650641 -0.866405E+01  0.212E+00    0.27       1.0  T
   5   -407.6671024 -0.802038E+00  0.150E+00    0.09       1.0  T
   6   -408.0399400 -0.372838E+00  0.897E-01    0.03       1.0  T
   7   -408.1328843 -0.929443E-01  0.473E-01    0.04       1.0  T
   8   -407.6688086  0.464076E+00  0.940E-01    0.25       1.0  T
   9   -408.0929828 -0.424174E+00  0.539E-01    0.02       1.0  T
  10   -408.1127187 -0.197359E-01  0.390E-01    0.02       1.0  T
  11   -408.1144252 -0.170646E-02  0.336E-01    0.03       1.0  T
  12   -408.1223963 -0.797112E-02  0.282E-01    0.02       1.0  T
  13   -408.1287008 -0.630453E-02  0.247E-01    0.02       1.0  T
  14   -408.1313695 -0.266872E-02  0.229E-01    0.02       1.0  T
  15   -408.1356294 -0.425988E-02  0.203E-01    0.02       1.0  T
  16   -408.1531286 -0.174992E-01  0.767E-02    0.02       1.0  T
  17   -408.1480437  0.508494E-02  0.122E-01    0.02       1.0  T
  18   -407.9134386  0.234605E+00  0.665E-01    0.05       1.0  T
  19   -408.0201222 -0.106684E+00  0.497E-01    0.01       1.0  T
  20   -408.1491555 -0.129033E+00  0.108E-01    0.02       1.0  T
  21   -408.1461564  0.299912E-02  0.131E-01    0.02       1.0  T
  22   -408.1527337 -0.657726E-02  0.704E-02    0.02       1.0  T
  23   -408.1537826 -0.104888E-02  0.552E-02    0.02       1.0  T
  24   -408.1544645 -0.681974E-03  0.421E-02    0.02       1.0  T
  25   -408.1550877 -0.623126E-03  0.244E-02    0.02       1.0  T
  26   -408.1553418 -0.254085E-03  0.105E-02    0.02       1.0  T
  27   -408.1553658 -0.240272E-04  0.792E-03    0.02       1.0  T
  28   -408.1553982 -0.324027E-04  0.121E-03    0.02       5.3  T
  29   -408.1553987 -0.539546E-06  0.658E-04    0.02       9.7  T
  30   -408.1553986  0.998424E-07  0.786E-04    0.02       8.1  T

   *** convergence criteria satisfied after 30 iterations ***

         #    Occupation            Energy/Eh            Energy/eV
      -------------------------------------------------------------
         1        2.0000           -1.0028456             -27.2888
       ...           ...                  ...                  ...
       358        2.0000           -0.3659435              -9.9578
       359        2.0000           -0.3579393              -9.7400
       360        2.0000           -0.3527277              -9.5982
       361        2.0000           -0.3511721              -9.5559
       362        1.9999           -0.3295554              -8.9677
       363        1.6687           -0.3219556              -8.7609
       364        0.8024           -0.3196435              -8.6979 (HOMO)
       365        0.5291           -0.3189287              -8.6785 (LUMO)
       366                         -0.2973816              -8.0922
       367                         -0.2950059              -8.0275
       368                         -0.2669357              -7.2637
       369                         -0.2608365              -7.0977
       ...                                ...                  ...
       687                          1.9434693              52.8845
      -------------------------------------------------------------
                  HL-Gap            0.0007148 Eh            0.0195 eV
             Fermi-level           -0.3201216 Eh           -8.7110 eV

 SCC (total)                   0 d,  0 h,  0 min,  2.556 sec
 SCC setup                      ...        0 min,  0.004 sec (  0.166%)
 Dispersion                     ...        0 min,  0.005 sec (  0.181%)
 classical contributions        ...        0 min,  0.001 sec (  0.030%)
 integral evaluation            ...        0 min,  0.024 sec (  0.942%)
 iterations                     ...        0 min,  2.172 sec ( 84.975%)
 molecular gradient             ...        0 min,  0.329 sec ( 12.886%)
 printout                       ...        0 min,  0.021 sec (  0.819%)

         :::::::::::::::::::::::::::::::::::::::::::::::::::::
         ::                     SUMMARY                     ::
         :::::::::::::::::::::::::::::::::::::::::::::::::::::
         :: total energy            -402.716234103105 Eh    ::
         :: total w/o Gsasa/hb      -402.604735315541 Eh    ::
         :: gradient norm              0.835757925547 Eh/a0 ::
         :: HOMO-LUMO gap              0.019450096923 eV    ::
         ::.................................................::
         :: SCC energy              -408.132078027228 Eh    ::
         :: -> isotropic ES            0.529340822283 Eh    ::
         :: -> anisotropic ES          0.006570517449 Eh    ::
         :: -> anisotropic XC          0.166537845726 Eh    ::
         :: -> dispersion             -0.361023622934 Eh    ::
         :: -> Gsolv                  -0.166968813466 Eh    ::
         ::    -> Gelec               -0.055470025903 Eh    ::
         ::    -> Gsasa               -0.110025850925 Eh    ::
         ::    -> Ghb                 -0.006426374216 Eh    ::
         ::    -> Gshift               0.004953437577 Eh    ::
         :: repulsion energy           5.415843924123 Eh    ::
         :: add. restraining           0.000000000000 Eh    ::
         :: total charge               0.000000000001 e     ::
         :::::::::::::::::::::::::::::::::::::::::::::::::::::

      ----------------------------------------------------------- 
     |                   =====================                   |
     |                        A N C O P T                        |
     |                   =====================                   |
     |               Approximate Normal Coordinate               |
     |                Rational Function Optimizer                |
      ----------------------------------------------------------- 
      ----------------------------------------------------------- 
     |                   =====================                   |
     |                        A N C O P T                        |
     |                   =====================                   |
     |               Approximate Normal Coordinate               |
     |                Rational Function Optimizer                |
      ----------------------------------------------------------- 

          ...................................................
          :                      SETUP                      :
          :.................................................:
          :   optimization level            normal          :
          :   max. optcycles                   735          :
          :   ANC micro-cycles                  20          :
          :   degrees of freedom               729          :
          :.................................................:
          :   RF solver                   davidson          :
          :   write xtbopt.log                true          :
          :   linear?                        false          :
          :   energy convergence         0.5000000E-05 Eh   :
          :   grad. convergence          0.1000000E-02 Eh/α :
          :   maxmium RF displ.          1.0000000          :
          :   Hlow (freq-cutoff)         0.1000000E-01      :
          :   Hmax (freq-cutoff)         5.0000000          :
          :   S6 in model hess.         20.0000000          :
          ...................................................

generating ANC from exact Hessian ...
Using Lindh-Hessian (1995)
 Shifting diagonal of input Hessian by    9.5817520661020446E-003
 Lowest  eigenvalues of input Hessian
    0.000000    0.000000    0.000000    0.000000    0.000000    0.000000
    0.010000    0.010888    0.012076    0.013384    0.014906    0.016468
    0.017545    0.019260    0.022393    0.023744    0.026112    0.029078
 Highest eigenvalues
    3.103427    3.174387    3.204181    3.209353    3.293278    3.297193


........................................................................
.............................. CYCLE    1 ..............................
........................................................................

 iter      E             dE          RMSdq      gap      omega  full diag
   1   -408.1553988 -0.408155E+03  0.262E-04    0.02       0.0  T
   2   -408.1553974  0.143592E-05  0.173E-03    0.02       3.7  T
   3   -408.1553978 -0.358835E-06  0.144E-03    0.02       4.5  T
   4   -408.1553989 -0.108160E-05  0.616E-05    0.02     103.8  T
   5   -408.1553989  0.213049E-09  0.416E-05    0.02     153.5  T
   6   -408.1553989 -0.548425E-09  0.257E-05    0.02     248.5  T
     SCC iter.                  ...        0 min,  0.418 sec
     gradient                   ...        0 min,  0.319 sec
 * total energy  :  -402.7162343 Eh     change       -0.2304086E-06 Eh
   gradient norm :     0.8356844 Eh/α   predicted     0.0000000E+00 (-100.00%)
   displ. norm   :     0.5291558 α      lambda       -0.3524321E+00
   maximum displ.:     0.1299124 α      in ANC's #724, #717, #14, ...

........................................................................
.............................. CYCLE    2 ..............................
........................................................................

 iter      E             dE          RMSdq      gap      omega  full diag
   1   -408.4108539 -0.408411E+03  0.316E-01    0.03       0.0  T
   2   -407.7666045  0.644249E+00  0.117E+00    0.21       1.0  T
   3   -408.4088969 -0.642292E+00  0.294E-01    0.02       1.0  T
   4   -408.4115108 -0.261398E-02  0.262E-01    0.02       1.0  T
   5   -408.4168435 -0.533270E-02  0.190E-01    0.02       1.0  T
   6   -408.4198400 -0.299644E-02  0.133E-01    0.02       1.0  T
   7   -408.4216482 -0.180819E-02  0.112E-01    0.02       1.0  T
   8   -408.4228704 -0.122220E-02  0.943E-02    0.02       1.0  T
   9   -408.4131357  0.973469E-02  0.162E-01    0.02       1.0  T
  10   -408.4247428 -0.116071E-01  0.631E-02    0.02       1.0  T
  11   -408.4257847 -0.104186E-02  0.391E-02    0.02       1.0  T
  12   -408.4262949 -0.510222E-03  0.216E-02    0.02       1.0  T
  13   -408.4265072 -0.212371E-03  0.281E-03    0.02       2.3  T
  14   -408.4264958  0.114104E-04  0.540E-03    0.02       1.2  T
  15   -408.4264941  0.175079E-05  0.573E-03    0.02       1.1  T
  16   -408.4264906  0.352660E-05  0.621E-03    0.02       1.0  T
  17   -408.4265058 -0.152416E-04  0.273E-03    0.02       2.3  T
  18   -408.4265074 -0.155756E-05  0.201E-03    0.02       3.2  T
  19   -408.4265086 -0.122447E-05  0.131E-03    0.02       4.9  T
  20   -408.4265090 -0.448417E-06  0.879E-04    0.02       7.3  T
  21   -408.4265092 -0.180485E-06  0.627E-04    0.02      10.2  T
     SCC iter.                  ...        0 min,  1.509 sec
     gradient                   ...        0 min,  0.320 sec
 * total energy  :  -402.9598023 Eh     change       -0.2435680E+00 Eh
   gradient norm :     0.3429636 Eh/α   predicted    -0.2256023E+00 (  -7.38%)
   displ. norm   :     0.5987855 α      lambda       -0.1533147E+00
   maximum displ.:     0.2158488 α      in ANC's #14, #44, #29, ...

........................................................................
.............................. CYCLE    3 ..............................
........................................................................

 iter      E             dE          RMSdq      gap      omega  full diag
   1   -408.5922016 -0.408592E+03  0.248E-01    0.05       0.0  T
   2   -408.5862298  0.597175E-02  0.352E-01    0.05       1.0  T
   3   -408.5987994 -0.125696E-01  0.104E-01    0.02       1.0  T
   4   -408.5984468  0.352598E-03  0.905E-02    0.03       1.0  T
   5   -408.5976492  0.797576E-03  0.107E-01    0.01       1.0  T
   6   -408.5992223 -0.157310E-02  0.154E-02    0.02       1.0  T
   7   -408.5992360 -0.136533E-04  0.907E-03    0.02       1.0  T
   8   -408.5992430 -0.707201E-05  0.637E-03    0.02       1.0  T
   9   -408.5992496 -0.650194E-05  0.204E-03    0.02       3.1  T
  10   -408.5992500 -0.415152E-06  0.151E-03    0.02       4.2  T
  11   -408.5992501 -0.160149E-06  0.100E-03    0.02       6.4  T
  12   -408.5992502 -0.104510E-06  0.707E-04    0.02       9.0  T
  13   -408.5992503 -0.376081E-07  0.466E-04    0.02      13.7  T
     SCC iter.                  ...        0 min,  0.978 sec
     gradient                   ...        0 min,  0.327 sec
 * total energy  :  -403.0840754 Eh     change       -0.1242731E+00 Eh
   gradient norm :     0.2126026 Eh/α   predicted    -0.1041424E+00 ( -16.20%)
   displ. norm   :     0.6838129 α      lambda       -0.1105254E+00
   maximum displ.:     0.2810892 α      in ANC's #14, #44, #18, ...

........................................................................
.............................. CYCLE    4 ..............................
........................................................................

 iter      E             dE          RMSdq      gap      omega  full diag
   1   -408.6881500 -0.408688E+03  0.220E-01    0.07       0.0  T
   2   -408.6840112  0.413888E-02  0.278E-01    0.01       1.0  T
   3   -408.6916672 -0.765601E-02  0.105E-01    0.04       1.0  T
   4   -408.6916247  0.424373E-04  0.899E-02    0.05       1.0  T
   5   -408.6915856  0.391535E-04  0.787E-02    0.02       1.0  T
   6   -408.6924180 -0.832460E-03  0.115E-02    0.04       1.0  T
   7   -408.6924291 -0.110762E-04  0.602E-03    0.03       1.1  T
   8   -408.6924326 -0.349105E-05  0.289E-03    0.04       2.2  T
   9   -408.6924336 -0.988989E-06  0.136E-03    0.04       4.7  T
  10   -408.6924340 -0.387275E-06  0.532E-04    0.04      12.0  T
  11   -408.6924340 -0.326809E-07  0.258E-04    0.04      24.7  T
     SCC iter.                  ...        0 min,  0.811 sec
     gradient                   ...        0 min,  0.322 sec
 * total energy  :  -403.1692522 Eh     change       -0.8517683E-01 Eh
   gradient norm :     0.1218637 Eh/α   predicted    -0.8110380E-01 (  -4.78%)
   displ. norm   :     0.7155325 α      lambda       -0.6455810E-01
   maximum displ.:     0.3788876 α      in ANC's #14, #18, #24, ...

........................................................................
.............................. CYCLE    5 ..............................
........................................................................

 iter      E             dE          RMSdq      gap      omega  full diag
   1   -408.7219431 -0.408722E+03  0.137E-01    0.07       0.0  T
   2   -408.7211523  0.790802E-03  0.138E-01    0.02       1.0  T
   3   -408.7224684 -0.131615E-02  0.824E-02    0.07       1.0  T
   4   -408.7224830 -0.145613E-04  0.604E-02    0.04       1.0  T
   5   -408.7228503 -0.367292E-03  0.357E-02    0.05       1.0  T
   6   -408.7229951 -0.144863E-03  0.723E-03    0.05       1.0  T
   7   -408.7230003 -0.519806E-05  0.296E-03    0.05       2.2  T
   8   -408.7230010 -0.691158E-06  0.136E-03    0.05       4.7  T
   9   -408.7230013 -0.285453E-06  0.748E-04    0.05       8.5  T
  10   -408.7230014 -0.113262E-06  0.311E-04    0.05      20.5  T
     SCC iter.                  ...        0 min,  0.726 sec
     gradient                   ...        0 min,  0.320 sec
 * total energy  :  -403.2231167 Eh     change       -0.5386449E-01 Eh
   gradient norm :     0.0909806 Eh/α   predicted    -0.4880587E-01 (  -9.39%)
   displ. norm   :     0.7559344 α      lambda       -0.4798301E-01
   maximum displ.:     0.4314962 α      in ANC's #14, #18, #9, ...

........................................................................
.............................. CYCLE    6 ..............................
........................................................................

 iter      E             dE          RMSdq      gap      omega  full diag
   1   -408.7463743 -0.408746E+03  0.113E-01    0.08       0.0  T
   2   -408.7450542  0.132015E-02  0.129E-01    0.03       1.0  T
   3   -408.7464207 -0.136652E-02  0.789E-02    0.08       1.0  T
   4   -408.7467983 -0.377570E-03  0.452E-02    0.06       1.0  T
   5   -408.7469997 -0.201456E-03  0.216E-02    0.06       1.0  T
   6   -408.7470451 -0.453586E-04  0.517E-03    0.06       1.2  T
   7   -408.7470473 -0.224969E-05  0.232E-03    0.06       2.8  T
   8   -408.7470477 -0.394193E-06  0.994E-04    0.06       6.4  T
   9   -408.7470479 -0.145978E-06  0.589E-04    0.06      10.9  T
     SCC iter.                  ...        0 min,  0.650 sec
     gradient                   ...        0 min,  0.323 sec
 * total energy  :  -403.2634238 Eh     change       -0.4030713E-01 Eh
   gradient norm :     0.0695870 Eh/α   predicted    -0.3770115E-01 (  -6.47%)
   displ. norm   :     0.7750496 α      lambda       -0.3498381E-01
   maximum displ.:     0.4735040 α      in ANC's #14, #18, #8, ...

........................................................................
.............................. CYCLE    7 ..............................
........................................................................

 iter      E             dE          RMSdq      gap      omega  full diag
   1   -408.7683781 -0.408768E+03  0.931E-02    0.08       0.0  T
   2   -408.7674205  0.957653E-03  0.107E-01    0.04       1.0  T
   3   -408.7684481 -0.102767E-02  0.622E-02    0.08       1.0  T
   4   -408.7687148 -0.266630E-03  0.259E-02    0.07       1.0  T
   5   -408.7687748 -0.600648E-04  0.155E-02    0.06       1.0  T
   6   -408.7687977 -0.228894E-04  0.380E-03    0.07       1.7  T
   7   -408.7687988 -0.109022E-05  0.168E-03    0.07       3.8  T
   8   -408.7687990 -0.204532E-06  0.675E-04    0.07       9.5  T
   9   -408.7687991 -0.406366E-07  0.430E-04    0.07      14.9  T
     SCC iter.                  ...        0 min,  0.651 sec
     gradient                   ...        0 min,  0.320 sec
 * total energy  :  -403.2931723 Eh     change       -0.2974845E-01 Eh
   gradient norm :     0.0569408 Eh/α   predicted    -0.2799934E-01 (  -5.88%)
   displ. norm   :     0.7865630 α      lambda       -0.2631624E-01
   maximum displ.:     0.4899657 α      in ANC's #14, #18, #8, ...

........................................................................
.............................. CYCLE    8 ..............................
........................................................................

 iter      E             dE          RMSdq      gap      omega  full diag
   1   -408.7890983 -0.408789E+03  0.793E-02    0.07       0.0  T
   2   -408.7887878  0.310503E-03  0.742E-02    0.06       1.0  T
   3   -408.7889800 -0.192216E-03  0.597E-02    0.08       1.0  T
   4   -408.7892783 -0.298305E-03  0.193E-02    0.07       1.0  T
   5   -408.7893137 -0.353877E-04  0.104E-02    0.07       1.0  T
   6   -408.7893240 -0.103056E-04  0.358E-03    0.07       1.8  T
   7   -408.7893250 -0.100028E-05  0.129E-03    0.07       5.0  T
   8   -408.7893251 -0.119305E-06  0.581E-04    0.07      11.0  T
   9   -408.7893252 -0.263660E-07  0.280E-04    0.07      22.8  T
     SCC iter.                  ...        0 min,  0.646 sec
     gradient                   ...        0 min,  0.321 sec
 * total energy  :  -403.3158135 Eh     change       -0.2264125E-01 Eh
   gradient norm :     0.0511014 Eh/α   predicted    -0.2129882E-01 (  -5.93%)
   displ. norm   :     0.7926805 α      lambda       -0.2063064E-01
   maximum displ.:     0.4842304 α      in ANC's #14, #18, #8, ...

........................................................................
.............................. CYCLE    9 ..............................
........................................................................

 iter      E             dE          RMSdq      gap      omega  full diag
   1   -408.8073253 -0.408807E+03  0.722E-02    0.07       0.0  T
   2   -408.8073455 -0.201721E-04  0.491E-02    0.06       1.0  T
   3   -408.8071299  0.215572E-03  0.550E-02    0.07       1.0  T
   4   -408.8073738 -0.243846E-03  0.260E-02    0.07       1.0  T
   5   -408.8074596 -0.857719E-04  0.353E-03    0.07       1.8  T
   6   -408.8074606 -0.103055E-05  0.204E-03    0.07       3.1  T
   7   -408.8074609 -0.283810E-06  0.133E-03    0.07       4.8  T
   8   -408.8074610 -0.130554E-06  0.638E-04    0.07      10.0  T
   9   -408.8074610 -0.277435E-07  0.236E-04    0.07      27.0  T
     SCC iter.                  ...        0 min,  0.650 sec
     gradient                   ...        0 min,  0.319 sec
 * total energy  :  -403.3337458 Eh     change       -0.1793231E-01 Eh
   gradient norm :     0.0467226 Eh/α   predicted    -0.1679688E-01 (  -6.33%)
   displ. norm   :     0.7960760 α      lambda       -0.1681829E-01
   maximum displ.:     0.4585185 α      in ANC's #14, #18, #8, ...

........................................................................
.............................. CYCLE   10 ..............................
........................................................................

 iter      E             dE          RMSdq      gap      omega  full diag
   1   -408.8237012 -0.408824E+03  0.691E-02    0.07       0.0  T
   2   -408.8237670 -0.657296E-04  0.423E-02    0.07       1.0  T
   3   -408.8237474  0.195944E-04  0.295E-02    0.06       1.0  T
   4   -408.8237344  0.129912E-04  0.259E-02    0.07       1.0  T
   5   -408.8238105 -0.761449E-04  0.546E-03    0.07       1.2  T
   6   -408.8238130 -0.244274E-05  0.353E-03    0.07       1.8  T
   7   -408.8238142 -0.125231E-05  0.118E-03    0.07       5.4  T
   8   -408.8238143 -0.121394E-06  0.507E-04    0.07      12.6  T
   9   -408.8238144 -0.118969E-07  0.245E-04    0.07      26.1  T
     SCC iter.                  ...        0 min,  0.642 sec
     gradient                   ...        0 min,  0.319 sec
 * total energy  :  -403.3484175 Eh     change       -0.1467167E-01 Eh
   gradient norm :     0.0417853 Eh/α   predicted    -0.1373834E-01 (  -6.36%)
   displ. norm   :     0.7933882 α      lambda       -0.1396653E-01
   maximum displ.:     0.4279823 α      in ANC's #14, #18, #8, ...

........................................................................
.............................. CYCLE   11 ..............................
........................................................................

 iter      E             dE          RMSdq      gap      omega  full diag
   1   -408.8378025 -0.408838E+03  0.656E-02    0.06       0.0  T
   2   -408.8378128 -0.103162E-04  0.442E-02    0.07       1.0  T
   3   -408.8376556  0.157208E-03  0.480E-02    0.06       1.0  T
   4   -408.8378296 -0.173930E-03  0.263E-02    0.07       1.0  T
   5   -408.8379018 -0.722246E-04  0.587E-03    0.07       1.1  T
   6   -408.8379051 -0.330083E-05  0.247E-03    0.07       2.6  T
   7   -408.8379055 -0.446443E-06  0.101E-03    0.07       6.3  T
   8   -408.8379056 -0.101395E-06  0.425E-04    0.07      15.0  T
   9   -408.8379056 -0.621219E-08  0.227E-04    0.07      28.1  T
     SCC iter.                  ...        0 min,  0.707 sec
     gradient                   ...        0 min,  0.321 sec
 * total energy  :  -403.3606504 Eh     change       -0.1223293E-01 Eh
   gradient norm :     0.0374558 Eh/α   predicted    -0.1137899E-01 (  -6.98%)
   displ. norm   :     0.7912245 α      lambda       -0.1185798E-01
   maximum displ.:     0.3943274 α      in ANC's #14, #18, #8, ...

........................................................................
.............................. CYCLE   12 ..............................
........................................................................

 iter      E             dE          RMSdq      gap      omega  full diag
   1   -408.8507465 -0.408851E+03  0.619E-02    0.06       0.0  T
   2   -408.8507306  0.159494E-04  0.428E-02    0.07       1.0  T
   3   -408.8505204  0.210202E-03  0.513E-02    0.06       1.0  T
   4   -408.8507823 -0.261866E-03  0.207E-02    0.07       1.0  T
   5   -408.8508217 -0.394574E-04  0.388E-03    0.07       1.6  T
   6   -408.8508228 -0.111681E-05  0.241E-03    0.06       2.7  T
   7   -408.8508233 -0.491005E-06  0.811E-04    0.07       7.9  T
   8   -408.8508234 -0.618609E-07  0.350E-04    0.07      18.3  T
     SCC iter.                  ...        0 min,  0.570 sec
     gradient                   ...        0 min,  0.319 sec
 * total energy  :  -403.3710373 Eh     change       -0.1038683E-01 Eh
   gradient norm :     0.0342317 Eh/α   predicted    -0.9640801E-02 (  -7.18%)
   displ. norm   :     0.7888430 α      lambda       -0.1019755E-01
   maximum displ.:     0.3683739 α      in ANC's #14, #18, #8, ...

........................................................................
.............................. CYCLE   13 ..............................
........................................................................

 iter      E             dE          RMSdq      gap      omega  full diag
   1   -408.8619199 -0.408862E+03  0.578E-02    0.07       0.0  T
   2   -408.8619256 -0.567530E-05  0.369E-02    0.07       1.0  T
   3   -408.8617054  0.220210E-03  0.457E-02    0.06       1.0  T
   4   -408.8619249 -0.219555E-03  0.196E-02    0.07       1.0  T
   5   -408.8619657 -0.407363E-04  0.160E-03    0.07       4.0  T
   6   -408.8619658 -0.953193E-07  0.995E-04    0.07       6.4  T
   7   -408.8619659 -0.124235E-06  0.551E-04    0.07      11.6  T
     SCC iter.                  ...        0 min,  0.499 sec
     gradient                   ...        0 min,  0.319 sec
 * total energy  :  -403.3800253 Eh     change       -0.8988012E-02 Eh
   gradient norm :     0.0328848 Eh/α   predicted    -0.8271719E-02 (  -7.97%)
   displ. norm   :     0.7911150 α      lambda       -0.9114358E-02
   maximum displ.:     0.3466202 α      in ANC's #14, #18, #7, ...

........................................................................
.............................. CYCLE   14 ..............................
........................................................................

 iter      E             dE          RMSdq      gap      omega  full diag
   1   -408.8719132 -0.408872E+03  0.589E-02    0.07       0.0  T
   2   -408.8719291 -0.158527E-04  0.348E-02    0.07       1.0  T
   3   -408.8718855  0.435402E-04  0.226E-02    0.07       1.0  T
   4   -408.8719134 -0.278383E-04  0.141E-02    0.07       1.0  T
   5   -408.8719366 -0.231864E-04  0.346E-03    0.07       1.8  T
   6   -408.8719379 -0.133493E-05  0.169E-03    0.07       3.8  T
   7   -408.8719382 -0.271487E-06  0.512E-04    0.07      12.5  T
   8   -408.8719382 -0.195794E-07  0.266E-04    0.07      24.1  T
     SCC iter.                  ...        0 min,  0.571 sec
     gradient                   ...        0 min,  0.319 sec
 * total energy  :  -403.3881109 Eh     change       -0.8085650E-02 Eh
   gradient norm :     0.0306468 Eh/α   predicted    -0.7409354E-02 (  -8.36%)
   displ. norm   :     0.7950143 α      lambda       -0.8350413E-02
   maximum displ.:     0.3235745 α      in ANC's #14, #18, #7, ...

........................................................................
.............................. CYCLE   15 ..............................
........................................................................

 iter      E             dE          RMSdq      gap      omega  full diag
   1   -408.8807926 -0.408881E+03  0.613E-02    0.07       0.0  T
   2   -408.8807903  0.224834E-05  0.376E-02    0.06       1.0  T
   3   -408.8805609  0.229398E-03  0.468E-02    0.08       1.0  T
   4   -408.8807860 -0.225082E-03  0.140E-02    0.07       1.0  T
   5   -408.8808139 -0.278900E-04  0.459E-03    0.07       1.4  T
   6   -408.8808163 -0.238702E-05  0.106E-03    0.07       6.0  T
   7   -408.8808164 -0.550059E-07  0.529E-04    0.07      12.1  T
   8   -408.8808164 -0.215370E-07  0.278E-04    0.07      23.0  T
     SCC iter.                  ...        0 min,  0.568 sec
     gradient                   ...        0 min,  0.321 sec
 * total energy  :  -403.3954796 Eh     change       -0.7368718E-02 Eh
   gradient norm :     0.0243072 Eh/α   predicted    -0.6814165E-02 (  -7.53%)
   displ. norm   :     0.7929724 α      lambda       -0.7315313E-02
   maximum displ.:     0.3290499 α      in ANC's #18, #14, #7, ...

........................................................................
.............................. CYCLE   16 ..............................
........................................................................

 iter      E             dE          RMSdq      gap      omega  full diag
   1   -408.8862807 -0.408886E+03  0.690E-02    0.07       0.0  T
   2   -408.8862517  0.289738E-04  0.442E-02    0.06       1.0  T
   3   -408.8858483  0.403385E-03  0.622E-02    0.09       1.0  T
   4   -408.8862755 -0.427188E-03  0.148E-02    0.07       1.0  T
   5   -408.8863058 -0.302806E-04  0.397E-03    0.07       1.6  T
   6   -408.8863075 -0.165226E-05  0.100E-03    0.07       6.4  T
   7   -408.8863075 -0.358594E-07  0.514E-04    0.07      12.4  T
   8   -408.8863075 -0.175667E-07  0.293E-04    0.07      21.8  T
     SCC iter.                  ...        0 min,  0.572 sec
     gradient                   ...        0 min,  0.320 sec
 * total energy  :  -403.4017332 Eh     change       -0.6253615E-02 Eh
   gradient norm :     0.0181339 Eh/α   predicted    -0.5957649E-02 (  -4.73%)
   displ. norm   :     0.7776894 α      lambda       -0.5516374E-02
   maximum displ.:     0.3266295 α      in ANC's #18, #7, #14, ...

........................................................................
.............................. CYCLE   17 ..............................
........................................................................

 iter      E             dE          RMSdq      gap      omega  full diag
   1   -408.8892176 -0.408889E+03  0.626E-02    0.07       0.0  T
   2   -408.8891992  0.184430E-04  0.398E-02    0.07       1.0  T
   3   -408.8888785  0.320684E-03  0.547E-02    0.09       1.0  T
   4   -408.8892118 -0.333302E-03  0.126E-02    0.07       1.0  T
   5   -408.8892366 -0.247402E-04  0.293E-03    0.07       2.2  T
   6   -408.8892375 -0.894980E-06  0.884E-04    0.07       7.2  T
   7   -408.8892375 -0.363830E-07  0.468E-04    0.07      13.6  T
     SCC iter.                  ...        0 min,  0.503 sec
     gradient                   ...        0 min,  0.320 sec
 * total energy  :  -403.4062947 Eh     change       -0.4561475E-02 Eh
   gradient norm :     0.0204560 Eh/α   predicted    -0.4426348E-02 (  -2.96%)
   displ. norm   :     0.7368180 α      lambda       -0.3965481E-02
   maximum displ.:     0.3282768 α      in ANC's #7, #18, #14, ...

........................................................................
.............................. CYCLE   18 ..............................
........................................................................

 iter      E             dE          RMSdq      gap      omega  full diag
   1   -408.8898288 -0.408890E+03  0.535E-02    0.07       0.0  T
   2   -408.8898246  0.417346E-05  0.334E-02    0.07       1.0  T
   3   -408.8896677  0.156899E-03  0.395E-02    0.08       1.0  T
   4   -408.8898155 -0.147763E-03  0.142E-02    0.07       1.0  T
   5   -408.8898441 -0.286659E-04  0.386E-03    0.07       1.7  T
   6   -408.8898457 -0.160039E-05  0.889E-04    0.07       7.2  T
   7   -408.8898458 -0.507194E-07  0.422E-04    0.07      15.1  T
   8   -408.8898458 -0.125229E-07  0.191E-04    0.07      33.4  T
     SCC iter.                  ...        0 min,  0.572 sec
     gradient                   ...        0 min,  0.319 sec
 * total energy  :  -403.4095934 Eh     change       -0.3298686E-02 Eh
   gradient norm :     0.0218825 Eh/α   predicted    -0.3059178E-02 (  -7.26%)
   displ. norm   :     0.7195750 α      lambda       -0.3307814E-02
   maximum displ.:     0.3239383 α      in ANC's #7, #18, #14, ...

........................................................................
.............................. CYCLE   19 ..............................
........................................................................

 iter      E             dE          RMSdq      gap      omega  full diag
   1   -408.8899127 -0.408890E+03  0.475E-02    0.07       0.0  T
   2   -408.8899237 -0.110012E-04  0.286E-02    0.07       1.0  T
   3   -408.8899038  0.199497E-04  0.185E-02    0.08       1.0  T
   4   -408.8899281 -0.243794E-04  0.884E-03    0.07       1.0  T
   5   -408.8899365 -0.833178E-05  0.170E-03    0.07       3.8  T
   6   -408.8899367 -0.265529E-06  0.962E-04    0.07       6.6  T
   7   -408.8899368 -0.718073E-07  0.627E-04    0.07      10.2  T
     SCC iter.                  ...        0 min,  0.496 sec
     gradient                   ...        0 min,  0.319 sec
 * total energy  :  -403.4123082 Eh     change       -0.2714801E-02 Eh
   gradient norm :     0.0191248 Eh/α   predicted    -0.2510288E-02 (  -7.53%)
   displ. norm   :     0.7261072 α      lambda       -0.3113961E-02
   maximum displ.:     0.3824687 α      in ANC's #7, #18, #14, ...

........................................................................
.............................. CYCLE   20 ..............................
........................................................................

 iter      E             dE          RMSdq      gap      omega  full diag
   1   -408.8969404 -0.408897E+03  0.475E-02    0.08       0.0  T
   2   -408.8969548 -0.144866E-04  0.282E-02    0.07       1.0  T
   3   -408.8969452  0.962625E-05  0.171E-02    0.08       1.0  T
   4   -408.8969595 -0.142803E-04  0.778E-03    0.07       1.0  T
   5   -408.8969663 -0.677401E-05  0.238E-03    0.07       2.7  T
   6   -408.8969669 -0.588752E-06  0.122E-03    0.07       5.2  T
   7   -408.8969670 -0.139067E-06  0.668E-04    0.07       9.6  T
   8   -408.8969670 -0.321197E-07  0.227E-04    0.07      28.1  T
     SCC iter.                  ...        0 min,  0.571 sec
     gradient                   ...        0 min,  0.320 sec
 * total energy  :  -403.4145896 Eh     change       -0.2281423E-02 Eh
   gradient norm :     0.0188471 Eh/α   predicted    -0.2377870E-02 (   4.23%)
   displ. norm   :     0.6694621 α      lambda       -0.2361987E-02
   maximum displ.:     0.3356337 α      in ANC's #7, #18, #14, ...
 * RMSD in coord.:     0.8355985 α      energy gain  -0.6983555E+00 Eh

generating ANC from exact Hessian ...
Using Lindh-Hessian (1995)
 Shifting diagonal of input Hessian by    9.8140360303695367E-003
 Lowest  eigenvalues of input Hessian
    0.000000    0.000000    0.000000    0.000000    0.000000    0.000000
    0.010000    0.010132    0.010365    0.010430    0.010686    0.011044
    0.011380    0.012613    0.014253    0.015593    0.017123    0.019752
 Highest eigenvalues
    3.130667    3.204367    3.211837    3.246493    3.329053    3.334206


........................................................................
.............................. CYCLE   21 ..............................
........................................................................

 iter      E             dE          RMSdq      gap      omega  full diag
   1   -408.8953937 -0.408895E+03  0.450E-02    0.07       0.0  T
   2   -408.8953966 -0.291083E-05  0.276E-02    0.08       1.0  T
   3   -408.8953068  0.897755E-04  0.294E-02    0.07       1.0  T
   4   -408.8953820 -0.752052E-04  0.161E-02    0.08       1.0  T
   5   -408.8954117 -0.296962E-04  0.218E-03    0.07       2.9  T
   6   -408.8954124 -0.705761E-06  0.751E-04    0.07       8.5  T
   7   -408.8954124 -0.416986E-07  0.521E-04    0.07      12.3  T
     SCC iter.                  ...        0 min,  0.480 sec
     gradient                   ...        0 min,  0.319 sec
 * total energy  :  -403.4164349 Eh     change       -0.1845272E-02 Eh
   gradient norm :     0.0151348 Eh/α   predicted     0.0000000E+00 (-100.00%)
   displ. norm   :     0.2793183 α      lambda       -0.1472317E-02
   maximum displ.:     0.1770131 α      in ANC's #6, #7, #1, ...

........................................................................
.............................. CYCLE   22 ..............................
........................................................................

 iter      E             dE          RMSdq      gap      omega  full diag
   1   -408.8993735 -0.408899E+03  0.341E-02    0.08       0.0  T
   2   -408.8993752 -0.166591E-05  0.203E-02    0.07       1.0  T
   3   -408.8993571  0.181295E-04  0.129E-02    0.08       1.0  T
   4   -408.8993732 -0.161344E-04  0.496E-03    0.07       1.3  T
   5   -408.8993763 -0.311476E-05  0.153E-03    0.07       4.2  T
   6   -408.8993766 -0.258135E-06  0.477E-04    0.07      13.4  T
   7   -408.8993766 -0.120772E-07  0.233E-04    0.07      27.4  T
     SCC iter.                  ...        0 min,  0.501 sec
     gradient                   ...        0 min,  0.321 sec
 * total energy  :  -403.4176421 Eh     change       -0.1207196E-02 Eh
   gradient norm :     0.0067636 Eh/α   predicted    -0.7948816E-03 ( -34.15%)
   displ. norm   :     0.5364694 α      lambda       -0.1790851E-02
   maximum displ.:     0.3347487 α      in ANC's #6, #1, #7, ...

........................................................................
.............................. CYCLE   23 ..............................
........................................................................

 iter      E             dE          RMSdq      gap      omega  full diag
   1   -408.9019771 -0.408902E+03  0.586E-02    0.08       0.0  T
   2   -408.9019798 -0.271809E-05  0.348E-02    0.07       1.0  T
   3   -408.9019321  0.477724E-04  0.221E-02    0.08       1.0  T
   4   -408.9019748 -0.426973E-04  0.803E-03    0.07       1.0  T
   5   -408.9019825 -0.775598E-05  0.274E-03    0.08       2.3  T
   6   -408.9019833 -0.835346E-06  0.789E-04    0.08       8.1  T
   7   -408.9019834 -0.320367E-07  0.380E-04    0.08      16.8  T
     SCC iter.                  ...        0 min,  0.504 sec
     gradient                   ...        0 min,  0.320 sec
 * total energy  :  -403.4190784 Eh     change       -0.1436280E-02 Eh
   gradient norm :     0.0079168 Eh/α   predicted    -0.1153130E-02 ( -19.71%)
   displ. norm   :     0.5835749 α      lambda       -0.1402108E-02
   maximum displ.:     0.3573308 α      in ANC's #6, #1, #3, ...

........................................................................
.............................. CYCLE   24 ..............................
........................................................................

 iter      E             dE          RMSdq      gap      omega  full diag
   1   -408.9020522 -0.408902E+03  0.610E-02    0.08       0.0  T
   2   -408.9020536 -0.136573E-05  0.362E-02    0.07       1.0  T
   3   -408.9020031  0.504121E-04  0.236E-02    0.08       1.0  T
   4   -408.9020481 -0.449178E-04  0.846E-03    0.07       1.0  T
   5   -408.9020564 -0.837569E-05  0.288E-03    0.08       2.2  T
   6   -408.9020574 -0.935808E-06  0.755E-04    0.08       8.5  T
   7   -408.9020574 -0.246291E-07  0.405E-04    0.08      15.8  T
     SCC iter.                  ...        0 min,  0.501 sec
     gradient                   ...        0 min,  0.320 sec
 * total energy  :  -403.4202944 Eh     change       -0.1216051E-02 Eh
   gradient norm :     0.0111095 Eh/α   predicted    -0.9398053E-03 ( -22.72%)
   displ. norm   :     0.6428108 α      lambda       -0.1403104E-02
   maximum displ.:     0.3884036 α      in ANC's #6, #1, #3, ...

........................................................................
.............................. CYCLE   25 ..............................
........................................................................

 iter      E             dE          RMSdq      gap      omega  full diag
   1   -408.9019582 -0.408902E+03  0.653E-02    0.08       0.0  T
   2   -408.9019587 -0.532726E-06  0.389E-02    0.08       1.0  T
   3   -408.9018933  0.653871E-04  0.271E-02    0.09       1.0  T
   4   -408.9019519 -0.585478E-04  0.973E-03    0.08       1.0  T
   5   -408.9019629 -0.110399E-04  0.339E-03    0.08       1.9  T
   6   -408.9019642 -0.130527E-05  0.822E-04    0.08       7.8  T
   7   -408.9019643 -0.192050E-07  0.498E-04    0.08      12.8  T
   8   -408.9019643 -0.248093E-07  0.193E-04    0.08      33.1  T
     SCC iter.                  ...        0 min,  0.568 sec
     gradient                   ...        0 min,  0.322 sec
 * total energy  :  -403.4215068 Eh     change       -0.1212348E-02 Eh
   gradient norm :     0.0104244 Eh/α   predicted    -0.9914389E-03 ( -18.22%)
   displ. norm   :     0.6803592 α      lambda       -0.1294706E-02
   maximum displ.:     0.4142506 α      in ANC's #6, #1, #3, ...

........................................................................
.............................. CYCLE   26 ..............................
........................................................................

 iter      E             dE          RMSdq      gap      omega  full diag
   1   -408.9023666 -0.408902E+03  0.661E-02    0.08       0.0  T
   2   -408.9023657  0.867362E-06  0.395E-02    0.08       1.0  T
   3   -408.9022851  0.805761E-04  0.305E-02    0.09       1.0  T
   4   -408.9023607 -0.755922E-04  0.103E-02    0.08       1.0  T
   5   -408.9023724 -0.116331E-04  0.406E-03    0.08       1.6  T
   6   -408.9023743 -0.190613E-05  0.909E-04    0.08       7.0  T
   7   -408.9023743 -0.302596E-07  0.552E-04    0.08      11.6  T
   8   -408.9023743 -0.284932E-07  0.238E-04    0.08      26.8  T
     SCC iter.                  ...        0 min,  0.579 sec
     gradient                   ...        0 min,  0.322 sec
 * total energy  :  -403.4225931 Eh     change       -0.1086328E-02 Eh
   gradient norm :     0.0086815 Eh/α   predicted    -0.9470449E-03 ( -12.82%)
   displ. norm   :     0.6767993 α      lambda       -0.1089224E-02
   maximum displ.:     0.4115933 α      in ANC's #6, #1, #3, ...

........................................................................
.............................. CYCLE   27 ..............................
........................................................................

 iter      E             dE          RMSdq      gap      omega  full diag
   1   -408.9039189 -0.408904E+03  0.623E-02    0.08       0.0  T
   2   -408.9039171  0.179519E-05  0.373E-02    0.08       1.0  T
   3   -408.9038410  0.761650E-04  0.305E-02    0.09       1.0  T
   4   -408.9039151 -0.741132E-04  0.100E-02    0.08       1.0  T
   5   -408.9039257 -0.106497E-04  0.423E-03    0.08       1.5  T
   6   -408.9039278 -0.210779E-05  0.937E-04    0.08       6.8  T
   7   -408.9039279 -0.450365E-07  0.541E-04    0.08      11.8  T
   8   -408.9039279 -0.244269E-07  0.246E-04    0.08      26.0  T
     SCC iter.                  ...        0 min,  0.579 sec
     gradient                   ...        0 min,  0.320 sec
 * total energy  :  -403.4235070 Eh     change       -0.9139426E-03 Eh
   gradient norm :     0.0070578 Eh/α   predicted    -0.7940789E-03 ( -13.12%)
   displ. norm   :     0.6820365 α      lambda       -0.9171286E-03
   maximum displ.:     0.4151096 α      in ANC's #6, #1, #3, ...

........................................................................
.............................. CYCLE   28 ..............................
........................................................................

 iter      E             dE          RMSdq      gap      omega  full diag
   1   -408.9060229 -0.408906E+03  0.609E-02    0.09       0.0  T
   2   -408.9060206  0.223553E-05  0.365E-02    0.08       1.0  T
   3   -408.9059482  0.724858E-04  0.299E-02    0.09       1.0  T
   4   -408.9060221 -0.739369E-04  0.898E-03    0.08       1.0  T
   5   -408.9060303 -0.817777E-05  0.382E-03    0.08       1.7  T
   6   -408.9060320 -0.171869E-05  0.936E-04    0.08       6.8  T
   7   -408.9060320 -0.528327E-07  0.515E-04    0.08      12.4  T
   8   -408.9060321 -0.199988E-07  0.241E-04    0.08      26.5  T
     SCC iter.                  ...        0 min,  0.631 sec
     gradient                   ...        0 min,  0.321 sec
 * total energy  :  -403.4242821 Eh     change       -0.7750610E-03 Eh
   gradient norm :     0.0056429 Eh/α   predicted    -0.6718837E-03 ( -13.31%)
   displ. norm   :     0.6983078 α      lambda       -0.7524158E-03
   maximum displ.:     0.4301869 α      in ANC's #6, #1, #3, ...

........................................................................
.............................. CYCLE   29 ..............................
........................................................................

 iter      E             dE          RMSdq      gap      omega  full diag
   1   -408.9077249 -0.408908E+03  0.601E-02    0.09       0.0  T
   2   -408.9077224  0.255645E-05  0.360E-02    0.08       1.0  T
   3   -408.9076489  0.735123E-04  0.296E-02    0.10       1.0  T
   4   -408.9077268 -0.779364E-04  0.760E-03    0.09       1.0  T
   5   -408.9077324 -0.557152E-05  0.322E-03    0.09       2.0  T
   6   -408.9077336 -0.121244E-05  0.927E-04    0.09       6.9  T
   7   -408.9077336 -0.533860E-07  0.493E-04    0.09      13.0  T
   8   -408.9077336 -0.165639E-07  0.231E-04    0.09      27.7  T
     SCC iter.                  ...        0 min,  0.578 sec
     gradient                   ...        0 min,  0.320 sec
 * total energy  :  -403.4248923 Eh     change       -0.6101591E-03 Eh
   gradient norm :     0.0053812 Eh/α   predicted    -0.5596601E-03 (  -8.28%)
   displ. norm   :     0.6157978 α      lambda       -0.5240032E-03
   maximum displ.:     0.3736034 α      in ANC's #6, #1, #3, ...

........................................................................
.............................. CYCLE   30 ..............................
........................................................................

 iter      E             dE          RMSdq      gap      omega  full diag
   1   -408.9113562 -0.408911E+03  0.503E-02    0.09       0.0  T
   2   -408.9113539  0.228958E-05  0.303E-02    0.09       1.0  T
   3   -408.9112978  0.561044E-04  0.257E-02    0.10       1.0  T
   4   -408.9113601 -0.622822E-04  0.566E-03    0.09       1.1  T
   5   -408.9113631 -0.298858E-05  0.211E-03    0.09       3.0  T
   6   -408.9113636 -0.489589E-06  0.846E-04    0.09       7.6  T
   7   -408.9113636 -0.544101E-07  0.415E-04    0.09      15.4  T
     SCC iter.                  ...        0 min,  0.512 sec
     gradient                   ...        0 min,  0.320 sec
 * total energy  :  -403.4252900 Eh     change       -0.3976980E-03 Eh
   gradient norm :     0.0054089 Eh/α   predicted    -0.3613669E-03 (  -9.14%)
   displ. norm   :     0.6239175 α      lambda       -0.3804994E-03
   maximum displ.:     0.4009510 α      in ANC's #6, #1, #3, ...

........................................................................
.............................. CYCLE   31 ..............................
........................................................................

 iter      E             dE          RMSdq      gap      omega  full diag
   1   -408.9074024 -0.408907E+03  0.526E-02    0.10       0.0  T
   2   -408.9074010  0.140463E-05  0.315E-02    0.09       1.0  T
   3   -408.9073425  0.584997E-04  0.253E-02    0.10       1.0  T
   4   -408.9074065 -0.639813E-04  0.491E-03    0.09       1.3  T
   5   -408.9074088 -0.234586E-05  0.159E-03    0.09       4.0  T
   6   -408.9074091 -0.219817E-06  0.881E-04    0.09       7.3  T
   7   -408.9074091 -0.527260E-07  0.463E-04    0.09      13.8  T
     SCC iter.                  ...        0 min,  0.505 sec
     gradient                   ...        0 min,  0.321 sec
 * total energy  :  -403.4255091 Eh     change       -0.2191407E-03 Eh
   gradient norm :     0.0067479 Eh/α   predicted    -0.2643098E-03 (  20.61%)
   displ. norm   :     0.4336746 α      lambda       -0.3501867E-03
   maximum displ.:     0.2684802 α      in ANC's #1, #6, #3, ...

........................................................................
.............................. CYCLE   32 ..............................
........................................................................

 iter      E             dE          RMSdq      gap      omega  full diag
   1   -408.9147017 -0.408915E+03  0.311E-02    0.10       0.0  T
   2   -408.9147011  0.527002E-06  0.188E-02    0.10       1.0  T
   3   -408.9146775  0.235916E-04  0.166E-02    0.10       1.0  T
   4   -408.9147051 -0.275668E-04  0.329E-03    0.10       1.9  T
   5   -408.9147061 -0.983963E-06  0.161E-03    0.10       4.0  T
   6   -408.9147064 -0.329090E-06  0.600E-04    0.10      10.6  T
   7   -408.9147064 -0.308615E-07  0.264E-04    0.10      24.2  T
     SCC iter.                  ...        0 min,  0.501 sec
     gradient                   ...        0 min,  0.322 sec
 * total energy  :  -403.4257022 Eh     change       -0.1930805E-03 Eh
   gradient norm :     0.0067621 Eh/α   predicted    -0.2080288E-03 (   7.74%)
   displ. norm   :     0.4637974 α      lambda       -0.2908075E-03
   maximum displ.:     0.2935621 α      in ANC's #1, #6, #3, ...

........................................................................
.............................. CYCLE   33 ..............................
........................................................................

 iter      E             dE          RMSdq      gap      omega  full diag
   1   -408.9134189 -0.408913E+03  0.365E-02    0.10       0.0  T
   2   -408.9134191 -0.133014E-06  0.219E-02    0.10       1.0  T
   3   -408.9133879  0.311579E-04  0.176E-02    0.11       1.0  T
   4   -408.9134225 -0.346383E-04  0.338E-03    0.10       1.9  T
   5   -408.9134234 -0.849201E-06  0.743E-04    0.10       8.6  T
   6   -408.9134234  0.191694E-07  0.741E-04    0.10       8.6  T
     SCC iter.                  ...        0 min,  0.431 sec
     gradient                   ...        0 min,  0.318 sec
 * total energy  :  -403.4258102 Eh     change       -0.1079908E-03 Eh
   gradient norm :     0.0069420 Eh/α   predicted    -0.1766859E-03 (  63.61%)
   displ. norm   :     0.2377156 α      lambda       -0.1593991E-03
   maximum displ.:     0.1542984 α      in ANC's #1, #6, #4, ...

........................................................................
.............................. CYCLE   34 ..............................
........................................................................

 iter      E             dE          RMSdq      gap      omega  full diag
   1   -408.9133575 -0.408913E+03  0.167E-02    0.10       0.0  T
   2   -408.9133575  0.154225E-07  0.100E-02    0.10       1.0  T
   3   -408.9133499  0.759392E-05  0.846E-03    0.10       1.0  T
   4   -408.9133583 -0.846366E-05  0.177E-03    0.10       3.6  T
   5   -408.9133585 -0.130283E-06  0.784E-04    0.10       8.2  T
   6   -408.9133585 -0.741445E-07  0.304E-04    0.10      21.0  T
     SCC iter.                  ...        0 min,  0.431 sec
     gradient                   ...        0 min,  0.320 sec
 * total energy  :  -403.4259127 Eh     change       -0.1025721E-03 Eh
   gradient norm :     0.0047052 Eh/α   predicted    -0.8420479E-04 ( -17.91%)
   displ. norm   :     0.2550919 α      lambda       -0.1750122E-03
   maximum displ.:     0.1537752 α      in ANC's #1, #4, #6, ...

........................................................................
.............................. CYCLE   35 ..............................
........................................................................

 iter      E             dE          RMSdq      gap      omega  full diag
   1   -408.9150681 -0.408915E+03  0.143E-02    0.10       0.0  T
   2   -408.9150688 -0.774752E-06  0.868E-03    0.10       1.0  T
   3   -408.9150642  0.468591E-05  0.703E-03    0.11       1.0  T
   4   -408.9150687 -0.456095E-05  0.281E-03    0.10       2.3  T
   5   -408.9150694 -0.727051E-06  0.166E-03    0.10       3.8  T
   6   -408.9150698 -0.343301E-06  0.312E-04    0.10      20.5  T
   7   -408.9150698 -0.626017E-08  0.134E-04    0.10      47.5  T
     SCC iter.                  ...        0 min,  0.503 sec
     gradient                   ...        0 min,  0.321 sec
 * total energy  :  -403.4259990 Eh     change       -0.8628058E-04 Eh
   gradient norm :     0.0077349 Eh/α   predicted    -0.9320053E-04 (   8.02%)
   displ. norm   :     0.2767833 α      lambda       -0.1640565E-03
   maximum displ.:     0.1414848 α      in ANC's #1, #7, #4, ...

........................................................................
.............................. CYCLE   36 ..............................
........................................................................

 iter      E             dE          RMSdq      gap      omega  full diag
   1   -408.9174104 -0.408917E+03  0.135E-02    0.10       0.0  T
   2   -408.9174105 -0.750989E-07  0.796E-03    0.10       1.0  T
   3   -408.9174068  0.372158E-05  0.683E-03    0.11       1.0  T
   4   -408.9174088 -0.198116E-05  0.456E-03    0.10       1.4  T
   5   -408.9174113 -0.252308E-05  0.127E-03    0.10       5.0  T
   6   -408.9174115 -0.173659E-06  0.261E-04    0.10      24.5  T
   7   -408.9174115 -0.322791E-08  0.124E-04    0.10      51.7  T
     SCC iter.                  ...        0 min,  0.500 sec
     gradient                   ...        0 min,  0.321 sec
 * total energy  :  -403.4261257 Eh     change       -0.1266808E-03 Eh
   gradient norm :     0.0064684 Eh/α   predicted    -0.8831397E-04 ( -30.29%)
   displ. norm   :     0.5156936 α      lambda       -0.2367916E-03
   maximum displ.:     0.2981748 α      in ANC's #1, #4, #7, ...

........................................................................
.............................. CYCLE   37 ..............................
........................................................................

 iter      E             dE          RMSdq      gap      omega  full diag
   1   -408.9153829 -0.408915E+03  0.249E-02    0.11       0.0  T
   2   -408.9153827  0.200848E-06  0.149E-02    0.10       1.0  T
   3   -408.9153682  0.145194E-04  0.132E-02    0.11       1.0  T
   4   -408.9153771 -0.888668E-05  0.856E-03    0.10       1.0  T
   5   -408.9153861 -0.896677E-05  0.242E-03    0.11       2.6  T
   6   -408.9153867 -0.640439E-06  0.472E-04    0.11      13.5  T
   7   -408.9153867 -0.107394E-07  0.227E-04    0.11      28.1  T
     SCC iter.                  ...        0 min,  0.547 sec
     gradient                   ...        0 min,  0.327 sec
 * total energy  :  -403.4263048 Eh     change       -0.1790954E-03 Eh
   gradient norm :     0.0048124 Eh/α   predicted    -0.1498838E-03 ( -16.31%)
   displ. norm   :     0.4800942 α      lambda       -0.2043670E-03
   maximum displ.:     0.2190732 α      in ANC's #4, #7, #3, ...

........................................................................
.............................. CYCLE   38 ..............................
........................................................................

 iter      E             dE          RMSdq      gap      omega  full diag
   1   -408.9158987 -0.408916E+03  0.303E-02    0.11       0.0  T
   2   -408.9158987 -0.627495E-07  0.179E-02    0.11       1.0  T
   3   -408.9158820  0.167547E-04  0.149E-02    0.11       1.0  T
   4   -408.9158834 -0.138556E-05  0.124E-02    0.11       1.0  T
   5   -408.9159021 -0.186880E-04  0.109E-03    0.11       5.8  T
   6   -408.9159022 -0.134968E-06  0.456E-04    0.11      14.0  T
   7   -408.9159022 -0.140303E-07  0.206E-04    0.11      31.0  T
     SCC iter.                  ...        0 min,  0.519 sec
     gradient                   ...        0 min,  0.321 sec
 * total energy  :  -403.4264549 Eh     change       -0.1501305E-03 Eh
   gradient norm :     0.0057106 Eh/α   predicted    -0.1257385E-03 ( -16.25%)
   displ. norm   :     0.4418028 α      lambda       -0.1720579E-03
   maximum displ.:     0.1987588 α      in ANC's #4, #1, #7, ...

........................................................................
.............................. CYCLE   39 ..............................
........................................................................

 iter      E             dE          RMSdq      gap      omega  full diag
   1   -408.9140253 -0.408914E+03  0.287E-02    0.11       0.0  T
   2   -408.9140258 -0.429231E-06  0.168E-02    0.11       1.0  T
   3   -408.9140154  0.103444E-04  0.128E-02    0.11       1.0  T
   4   -408.9140101  0.532607E-05  0.121E-02    0.11       1.0  T
   5   -408.9140285 -0.183714E-04  0.167E-03    0.11       3.8  T
   6   -408.9140288 -0.315570E-06  0.463E-04    0.11      13.8  T
   7   -408.9140288 -0.130681E-07  0.200E-04    0.11      32.0  T
     SCC iter.                  ...        0 min,  0.505 sec
     gradient                   ...        0 min,  0.320 sec
 * total energy  :  -403.4265784 Eh     change       -0.1234153E-03 Eh
   gradient norm :     0.0048029 Eh/α   predicted    -0.1028220E-03 ( -16.69%)
   displ. norm   :     0.3775351 α      lambda       -0.1659027E-03
   maximum displ.:     0.1697711 α      in ANC's #4, #1, #2, ...

........................................................................
.............................. CYCLE   40 ..............................
........................................................................

 iter      E             dE          RMSdq      gap      omega  full diag
   1   -408.9138776 -0.408914E+03  0.298E-02    0.11       0.0  T
   2   -408.9138786 -0.945244E-06  0.173E-02    0.11       1.0  T
   3   -408.9138720  0.654627E-05  0.119E-02    0.11       1.0  T
   4   -408.9138641  0.793065E-05  0.113E-02    0.11       1.0  T
   5   -408.9138807 -0.166068E-04  0.206E-03    0.11       3.1  T
   6   -408.9138812 -0.508373E-06  0.447E-04    0.11      14.3  T
   7   -408.9138812 -0.126909E-07  0.182E-04    0.11      35.1  T
     SCC iter.                  ...        0 min,  0.502 sec
     gradient                   ...        0 min,  0.320 sec
 * total energy  :  -403.4266889 Eh     change       -0.1105191E-03 Eh
   gradient norm :     0.0040803 Eh/α   predicted    -0.9477491E-04 ( -14.25%)
   displ. norm   :     0.2869167 α      lambda       -0.1124200E-03
   maximum displ.:     0.1546129 α      in ANC's #1, #4, #5, ...

........................................................................
.............................. CYCLE   41 ..............................
........................................................................

 iter      E             dE          RMSdq      gap      omega  full diag
   1   -408.9147978 -0.408915E+03  0.227E-02    0.11       0.0  T
   2   -408.9147977  0.118373E-06  0.133E-02    0.11       1.0  T
   3   -408.9147916  0.605782E-05  0.104E-02    0.11       1.0  T
   4   -408.9147906  0.104505E-05  0.886E-03    0.11       1.0  T
   5   -408.9148001 -0.956707E-05  0.236E-03    0.11       2.7  T
   6   -408.9148008 -0.667966E-06  0.344E-04    0.11      18.6  T
   7   -408.9148008 -0.612334E-08  0.151E-04    0.11      42.2  T
     SCC iter.                  ...        0 min,  0.505 sec
     gradient                   ...        0 min,  0.320 sec
 * total energy  :  -403.4267671 Eh     change       -0.7822173E-04 Eh
   gradient norm :     0.0038569 Eh/α   predicted    -0.6084010E-04 ( -22.22%)
   displ. norm   :     0.2793013 α      lambda       -0.9103446E-04
   maximum displ.:     0.1890614 α      in ANC's #1, #5, #4, ...

........................................................................
.............................. CYCLE   42 ..............................
........................................................................

 iter      E             dE          RMSdq      gap      omega  full diag
   1   -408.9156345 -0.408916E+03  0.203E-02    0.12       0.0  T
   2   -408.9156332  0.127418E-05  0.123E-02    0.11       1.0  T
   3   -408.9156255  0.770556E-05  0.110E-02    0.12       1.0  T
   4   -408.9156306 -0.511191E-05  0.773E-03    0.11       1.0  T
   5   -408.9156374 -0.673398E-05  0.249E-03    0.11       2.6  T
   6   -408.9156381 -0.738900E-06  0.325E-04    0.11      19.7  T
   7   -408.9156381 -0.530417E-08  0.156E-04    0.11      40.9  T
     SCC iter.                  ...        0 min,  0.499 sec
     gradient                   ...        0 min,  0.320 sec
 * total energy  :  -403.4268300 Eh     change       -0.6293342E-04 Eh
   gradient norm :     0.0033452 Eh/α   predicted    -0.4907264E-04 ( -22.02%)
   displ. norm   :     0.2663387 α      lambda       -0.8069532E-04
   maximum displ.:     0.1934860 α      in ANC's #1, #5, #4, ...
 * RMSD in coord.:     0.4992765 α      energy gain  -0.1224039E-01 Eh

generating ANC from exact Hessian ...
Using Lindh-Hessian (1995)
 Shifting diagonal of input Hessian by    9.8238253719605574E-003
 Lowest  eigenvalues of input Hessian
    0.000000    0.000000    0.000000    0.000000    0.000000    0.000000
    0.010000    0.010170    0.010346    0.010555    0.010772    0.010954
    0.011565    0.012617    0.014269    0.015616    0.017932    0.021148
 Highest eigenvalues
    3.130178    3.203713    3.211785    3.246418    3.328851    3.333913


........................................................................
.............................. CYCLE   43 ..............................
........................................................................

 iter      E             dE          RMSdq      gap      omega  full diag
   1   -408.9161719 -0.408916E+03  0.188E-02    0.12       0.0  T
   2   -408.9161701  0.176714E-05  0.117E-02    0.12       1.0  T
   3   -408.9161590  0.111417E-04  0.118E-02    0.12       1.0  T
   4   -408.9161695 -0.105638E-04  0.659E-03    0.12       1.0  T
   5   -408.9161743 -0.478289E-05  0.212E-03    0.12       3.0  T
   6   -408.9161749 -0.552927E-06  0.274E-04    0.12      23.3  T
   7   -408.9161749 -0.228636E-08  0.141E-04    0.12      45.2  T
     SCC iter.                  ...        0 min,  0.492 sec
     gradient                   ...        0 min,  0.320 sec
 * total energy  :  -403.4268857 Eh     change       -0.5565553E-04 Eh
   gradient norm :     0.0034607 Eh/α   predicted     0.0000000E+00 (-100.00%)
   displ. norm   :     0.0431730 α      lambda       -0.4622799E-04
   maximum displ.:     0.0214732 α      in ANC's #7, #3, #2, ...

........................................................................
.............................. CYCLE   44 ..............................
........................................................................

 iter      E             dE          RMSdq      gap      omega  full diag
   1   -408.9167435 -0.408917E+03  0.562E-03    0.12       0.0  T
   2   -408.9167435 -0.357591E-07  0.340E-03    0.12       1.9  T
   3   -408.9167423  0.126366E-05  0.307E-03    0.12       2.1  T
   4   -408.9167434 -0.116488E-05  0.125E-03    0.12       5.1  T
   5   -408.9167437 -0.216025E-06  0.300E-04    0.12      21.3  T
   6   -408.9167437 -0.124814E-07  0.705E-05    0.12      90.6  T
     SCC iter.                  ...        0 min,  0.434 sec
     gradient                   ...        0 min,  0.321 sec
 * total energy  :  -403.4269232 Eh     change       -0.3751289E-04 Eh
   gradient norm :     0.0014624 Eh/α   predicted    -0.2353016E-04 ( -37.27%)
   displ. norm   :     0.1802152 α      lambda       -0.7177413E-04
   maximum displ.:     0.0937307 α      in ANC's #7, #3, #2, ...

........................................................................
.............................. CYCLE   45 ..............................
........................................................................

 iter      E             dE          RMSdq      gap      omega  full diag
   1   -408.9173157 -0.408917E+03  0.190E-02    0.11       0.0  T
   2   -408.9173160 -0.386581E-06  0.113E-02    0.12       1.0  T
   3   -408.9173052  0.108188E-04  0.855E-03    0.11       1.0  T
   4   -408.9173153 -0.100768E-04  0.355E-03    0.12       1.8  T
   5   -408.9173170 -0.173323E-05  0.107E-03    0.12       5.9  T
   6   -408.9173172 -0.155482E-06  0.241E-04    0.11      26.5  T
   7   -408.9173172 -0.127204E-08  0.124E-04    0.11      51.4  T
     SCC iter.                  ...        0 min,  0.554 sec
     gradient                   ...        0 min,  0.327 sec
 * total energy  :  -403.4269765 Eh     change       -0.5325773E-04 Eh
   gradient norm :     0.0033896 Eh/α   predicted    -0.3640582E-04 ( -31.64%)
   displ. norm   :     0.0507344 α      lambda       -0.2293419E-04
   maximum displ.:     0.0258685 α      in ANC's #7, #3, #2, ...

........................................................................
.............................. CYCLE   46 ..............................
........................................................................

 iter      E             dE          RMSdq      gap      omega  full diag
   1   -408.9170378 -0.408917E+03  0.488E-03    0.11       0.0  T
   2   -408.9170378 -0.927571E-09  0.290E-03    0.11       2.2  T
   3   -408.9170365  0.125924E-05  0.298E-03    0.11       2.1  T
   4   -408.9170378 -0.129596E-05  0.343E-04    0.11      18.6  T
   5   -408.9170378 -0.178406E-07  0.147E-04    0.11      43.4  T
   6   -408.9170378 -0.404560E-08  0.660E-05    0.11      96.7  T
     SCC iter.                  ...        0 min,  0.447 sec
     gradient                   ...        0 min,  0.319 sec
 * total energy  :  -403.4269970 Eh     change       -0.2049916E-04 Eh
   gradient norm :     0.0023146 Eh/α   predicted    -0.1149731E-04 ( -43.91%)
   displ. norm   :     0.1574553 α      lambda       -0.5903863E-04
   maximum displ.:     0.0750171 α      in ANC's #7, #2, #3, ...

........................................................................
.............................. CYCLE   47 ..............................
........................................................................

 iter      E             dE          RMSdq      gap      omega  full diag
   1   -408.9163222 -0.408916E+03  0.152E-02    0.11       0.0  T
   2   -408.9163220  0.112331E-06  0.902E-03    0.11       1.0  T
   3   -408.9163075  0.145218E-04  0.101E-02    0.12       1.0  T
   4   -408.9163225 -0.149699E-04  0.118E-03    0.11       5.4  T
   5   -408.9163227 -0.216030E-06  0.482E-04    0.11      13.3  T
   6   -408.9163228 -0.490298E-07  0.193E-04    0.11      33.1  T
     SCC iter.                  ...        0 min,  0.425 sec
     gradient                   ...        0 min,  0.318 sec
 * total energy  :  -403.4270373 Eh     change       -0.4038248E-04 Eh
   gradient norm :     0.0012756 Eh/α   predicted    -0.3026167E-04 ( -25.06%)
   displ. norm   :     0.1841353 α      lambda       -0.2198099E-04
   maximum displ.:     0.0880403 α      in ANC's #2, #3, #7, ...

........................................................................
.............................. CYCLE   48 ..............................
........................................................................

 iter      E             dE          RMSdq      gap      omega  full diag
   1   -408.9158524 -0.408916E+03  0.175E-02    0.11       0.0  T
   2   -408.9158523  0.104151E-06  0.103E-02    0.11       1.0  T
   3   -408.9158360  0.162910E-04  0.107E-02    0.12       1.0  T
   4   -408.9158527 -0.167007E-04  0.164E-03    0.11       3.9  T
   5   -408.9158531 -0.366207E-06  0.553E-04    0.11      11.5  T
   6   -408.9158532 -0.644841E-07  0.223E-04    0.11      28.7  T
     SCC iter.                  ...        0 min,  0.433 sec
     gradient                   ...        0 min,  0.321 sec
 * total energy  :  -403.4270572 Eh     change       -0.1984650E-04 Eh
   gradient norm :     0.0023612 Eh/α   predicted    -0.1116042E-04 ( -43.77%)
   displ. norm   :     0.0511613 α      lambda       -0.1173311E-04
   maximum displ.:     0.0278712 α      in ANC's #2, #3, #5, ...

........................................................................
.............................. CYCLE   49 ..............................
........................................................................

 iter      E             dE          RMSdq      gap      omega  full diag
   1   -408.9161692 -0.408916E+03  0.494E-03    0.11       0.0  T
   2   -408.9161692 -0.276839E-07  0.288E-03    0.11       2.2  T
   3   -408.9161687  0.510968E-06  0.199E-03    0.11       3.2  T
   4   -408.9161691 -0.424485E-06  0.102E-03    0.11       6.3  T
   5   -408.9161692 -0.138500E-06  0.163E-04    0.11      39.2  T
   6   -408.9161692 -0.369647E-08  0.720E-05    0.11      88.7  T
     SCC iter.                  ...        0 min,  0.434 sec
     gradient                   ...        0 min,  0.322 sec
 * total energy  :  -403.4270673 Eh     change       -0.1010786E-04 Eh
   gradient norm :     0.0015179 Eh/α   predicted    -0.5882152E-05 ( -41.81%)
   displ. norm   :     0.1417184 α      lambda       -0.1987313E-04
   maximum displ.:     0.0821849 α      in ANC's #2, #3, #5, ...

........................................................................
.............................. CYCLE   50 ..............................
........................................................................

 iter      E             dE          RMSdq      gap      omega  full diag
   1   -408.9169091 -0.408917E+03  0.136E-02    0.11       0.0  T
   2   -408.9169092 -0.959785E-07  0.794E-03    0.11       1.0  T
   3   -408.9169039  0.536746E-05  0.660E-03    0.12       1.0  T
   4   -408.9169084 -0.450811E-05  0.331E-03    0.11       1.9  T
   5   -408.9169098 -0.143156E-05  0.559E-04    0.11      11.4  T
   6   -408.9169098 -0.475461E-07  0.194E-04    0.11      32.9  T
   7   -408.9169098 -0.258160E-08  0.102E-04    0.11      62.7  T
     SCC iter.                  ...        0 min,  0.510 sec
     gradient                   ...        0 min,  0.322 sec
 * total energy  :  -403.4270824 Eh     change       -0.1514168E-04 Eh
   gradient norm :     0.0012385 Eh/α   predicted    -0.1002809E-04 ( -33.77%)
   displ. norm   :     0.0377594 α      lambda       -0.3573043E-05
   maximum displ.:     0.0246952 α      in ANC's #2, #3, #5, ...

........................................................................
.............................. CYCLE   51 ..............................
........................................................................

 iter      E             dE          RMSdq      gap      omega  full diag
   1   -408.9167375 -0.408917E+03  0.326E-03    0.11       0.0  T
   2   -408.9167374  0.248446E-07  0.196E-03    0.11       3.3  T
   3   -408.9167370  0.421039E-06  0.203E-03    0.11       3.1  T
   4   -408.9167374 -0.361068E-06  0.103E-03    0.11       6.2  T
   5   -408.9167375 -0.115799E-06  0.147E-04    0.11      43.4  T
   6   -408.9167375 -0.272047E-08  0.401E-05    0.11     159.5  T
     SCC iter.                  ...        0 min,  0.431 sec
     gradient                   ...        0 min,  0.322 sec
 * total energy  :  -403.4270873 Eh     change       -0.4864970E-05 Eh
   gradient norm :     0.0008121 Eh/α   predicted    -0.1788931E-05 ( -63.23%)
   displ. norm   :     0.0756014 α      lambda       -0.8661111E-05
   maximum displ.:     0.0450000 α      in ANC's #2, #3, #7, ...

   *** GEOMETRY OPTIMIZATION CONVERGED AFTER 51 ITERATIONS ***

------------------------------------------------------------------------
 total energy gain   :        -0.7108532 Eh     -446.0671 kcal/mol
 total RMSD          :         0.9583069 a0        0.5071 Å
 total power (kW/mol):       -36.5949960 (step)  -38.4910 (real)
------------------------------------------------------------------------

 ANCopt (total)                0 d,  0 h,  0 min, 48.488 sec
 optimizer setup                ...        0 min,  0.001 sec (  0.002%)
 model hessian                  ...        0 min,  0.268 sec (  0.552%)
 ANC generation                 ...        0 min,  0.118 sec (  0.244%)
 coordinate transformation      ...        0 min,  0.011 sec (  0.022%)
 single point calculation       ...        0 min, 48.022 sec ( 99.040%)
 optimization log               ...        0 min,  0.018 sec (  0.038%)
 hessian update                 ...        0 min,  0.008 sec (  0.016%)
 rational function              ...        0 min,  0.034 sec (  0.071%)

================
 final structure:
================
245
 xtb: 6.7.1 (edcfbbe)
N            0.15742324679523       -1.67550999790382       -1.04954257439702
N           -0.01125618648764       -1.00103756010557        1.71376619972547
C           -0.50606687626599       -0.91859823503629       -3.31992052487159
C           -0.03061834256887       -1.87315702682677       -2.39366523024348
C            0.38921631933231       -3.21400353379595       -2.75536054495650
H            0.33689241875164       -3.62963334208091       -3.76273485851166
C            0.85722968531678       -3.80187807619927       -1.61393392071430
H            1.26885091570808       -4.80412933719555       -1.48781272901084
C            0.67703326729239       -2.84305950912932       -0.54129666922491
C            0.90647075315159       -3.12896164666128        0.81960122441567
C            0.51437478781962       -2.26052224206335        1.85772460400060
C            0.48904970514491       -2.63843417671736        3.25827395545764
H            0.85041444599977       -3.59156599335309        3.64723495029945
C           -0.10113399997957       -1.61155970389350        3.93778400568225
H           -0.31785881441328       -1.53411587816454        5.00408329820760
C           -0.39863253944218       -0.58034462464114        2.96106459396830
C            1.48402920242954       -4.46930771677829        1.19015159594672
C            2.83970195124997       -4.59557609465723        1.57596133643927
C            3.38754301967332       -5.84251566736481        1.92780610227827
C            2.57558598710573       -6.97971567869882        1.88621218416096
H            3.00184351651252       -7.95669372075330        2.14959537646428
C            1.23203798769632       -6.89506173275460        1.51197838760191
C            0.68863331132065       -5.64051102266223        1.17601793414611
N           -0.82794299957016        1.66381402286468        1.00641936925895
N           -0.61038882751957        0.99947910783018       -1.74199684974452
C           -0.97026333258295        0.66843177499493        3.28102990442889
C           -1.10476615399019        1.72069916256917        2.34826984538529
C           -1.49178071293369        3.07044554464898        2.70699591674329
H           -1.78452907335805        3.38360368277391        3.71003726812439
C           -1.39648597370594        3.82586545234395        1.57110783282087
H           -1.60251404709765        4.88923051267504        1.44529511452672
C           -1.01632481613042        2.92856988888271        0.49990719670569
C           -0.94366929384897        3.29647429683053       -0.85716667730329
C           -0.83417139694422        2.34559390204144       -1.89002309832507
C           -1.08580048568141        2.64685496332650       -3.28537470693581
H           -1.29149387363896        3.64416124380641       -3.67576240269818
C           -1.06386271313226        1.45870547869465       -3.95843477450065
H           -1.24408919017912        1.27291333003900       -5.01806108817062
C           -0.73283633816395        0.43319731350788       -2.98692696904950
C           -1.05574941392644        4.74634974084502       -1.24287593257540
C            0.10550329367359        5.45878922635374       -1.63093305703701
C            0.03187593373585        6.79945898646805       -2.05049666059841
C           -1.20882560598868        7.44419671152599       -2.05542178767841
H           -1.27010535302675        8.49324163389696       -2.37359771020084
C           -2.37353814881501        6.77627500904129       -1.66564777458283
C           -2.29631614506799        5.42568227685932       -1.27658387765540
Fe          -0.22760719195139        0.02901730548048       -0.01865879771590
Cl          -2.44238010100226       -0.64017784609404        0.02503199492816
C           -1.51654318330359        0.87245921305847        4.67302510322966
C           -0.72814043850619        1.42867974779826        5.71559585216588
C           -2.86137401429258        0.49247644043806        4.94150652627558
C           -1.27217779880994        1.60756841568464        7.00339827524147
N            0.60505923777848        1.80337549418026        5.40609239011481
C           -3.40187612116966        0.69621517854126        6.22945688636590
N           -3.60897233794045       -0.11087785819561        3.90238505391330
H           -0.64383197719366        2.02372327077457        7.79550840754999
C           -2.60220478752808        1.24444288782305        7.23574620745746
C            1.59961477184239        2.23282035744139        6.25588189245778
H            0.84924624057221        1.70630023410474        4.41891551786236
H           -4.44315984506125        0.41935150674760        6.41266047623030
C           -4.93190312292297       -0.50710835569923        3.92222590897620
H           -3.10202220784360       -0.27747539792350        3.02792019347781
H           -3.02854609002354        1.39194683218717        8.23641274666390
O            1.48884274712023        2.34035069089775        7.47231699670773
C            2.89996959873720        2.57763024714493        5.56067481549557
O           -5.70790731816434       -0.28483298946598        4.84659669368377
C           -5.36819069928063       -1.26824426436986        2.69327078963336
C            4.18562688047883        2.21519189190598        6.25947198022678
H            2.92163978605789        2.57799671195056        4.46544316743791
C            3.74202335902301        3.65812704493112        6.24976325901588
C           -6.74344523128146       -0.99290463937863        2.13794706877187
H           -4.60125294238810       -1.56832318643973        1.96996001780482
C           -6.51810669475389       -2.25520604080296        2.93586960994602
H            4.10377838014537        1.69231232681662        7.21545558262267
H            5.03473961224541        1.94944901701777        5.62668623202582
H            3.32836314354766        4.05242104407970        7.18122486523006
C            4.47787448460690        4.63594136561332        5.39013974405157
H           -7.33253592180321       -0.21714306359594        2.63525452369015
H           -6.86096701703461       -1.08404145771425        1.05460351515410
H           -6.90788341934269       -2.26578007332763        3.95851267339230
C           -6.49476962281523       -3.57582555433501        2.24226007152149
O            4.57053018831465        5.83360945126871        5.99258777581788
O            4.94901346758659        4.38313740652938        4.29792111423928
O           -7.06698194137968       -4.52988055264019        3.00949792525986
O           -6.03896500332670       -3.78502370758603        1.13604818999366
C            5.27458064150770        6.91102598986554        5.30614869062142
C           -7.14956112963452       -5.88131773333885        2.47600282844884
C            4.25605328116040        7.77128386385348        4.54547315770319
C            6.05286764599738        7.68171643982725        6.37133802599448
H            5.96217690483243        6.43456146420791        4.58472363330458
C           -7.09352671416914       -6.82988714454947        3.67454949663800
C           -8.42770700115893       -6.01913491221921        1.64120856511751
H           -6.26817529095456       -6.02635589516884        1.82277212284532
H            3.73185475165361        7.16655403209859        3.78739173440172
H            3.51635409247744        8.19280226771875        5.23900845870197
H            4.76994810913404        8.59980122879953        4.03886145021499
H            6.75523198058886        7.02103173501731        6.89558061674453
H            6.62942198030232        8.49610547418450        5.91255742954184
H            5.37471761137357        8.11651620556100        7.11665738324923
H           -6.16522185095799       -6.67915379837255        4.24068659397576
H           -7.94698528900487       -6.65921008092955        4.34790613087789
H           -7.13377313528059       -7.87453462304832        3.33669412681796
H           -8.40935623187199       -5.31580747150714        0.79755897745509
H           -8.51555217028560       -7.03951425530285        1.24283928811706
H           -9.31780701024847       -5.81727331670161        2.25640970833716
C           -0.77581844895707       -1.39171449131604       -4.72650842993482
C            0.15218491245854       -1.16754409372231       -5.77946246158645
C           -1.97433019186898       -2.10794730903679       -4.99652384387451
C           -0.08063294341556       -1.70605213791942       -7.06055456309035
N            1.28940218347671       -0.37113795033118       -5.49100958072214
C           -2.19544961865858       -2.65055215424865       -6.28018799473436
N           -2.93083824359589       -2.20759104097570       -3.95924923737800
H            0.65042811859067       -1.52725645473459       -7.85421220051096
C           -1.24461405598850       -2.44898054662722       -7.28513357894438
C            2.19987096137966        0.18576256086327       -6.36274440014173
H            1.32757044996829       -0.04131496375720       -4.52506399233945
H           -3.11112286724388       -3.21976468525658       -6.46143271912055
C           -4.14999843127067       -2.85510551912769       -3.97163533160620
H           -2.70302222767579       -1.69123989326743       -3.10534802276260
H           -1.42161827865026       -2.87517153967063       -8.28118701722530
O            2.27840789044749       -0.07035879335366       -7.55839984095424
C            3.10113066141143        1.21622903673488       -5.71642895355704
O           -4.54161401287276       -3.58084398707875       -4.88007898092129
C           -4.99955732244839       -2.57740217047928       -2.75527707755873
C            3.37427428110749        2.46994781306220       -6.51053215811009
H            3.06751070668610        1.32490076963747       -4.62668191681577
C            4.46956238133222        1.44059613318093       -6.35951182199956
C           -5.86725677079604       -3.68594973026181       -2.21725871641077
H           -4.63201175933544       -1.84898434238216       -2.02296019207776
C           -6.51347289870132       -2.58094794047048       -3.01722336649555
H            2.91033836885732        2.54053084814778       -7.49796077478122
H            3.48158979318059        3.40269445663366       -5.95187702111272
H            4.69997021917819        0.82377044963294       -7.23213661485804
C            5.61456953182818        1.76810836675899       -5.45208001950321
H           -5.79873273564036       -4.65373854571931       -2.72097553722349
H           -6.01970518782888       -3.69945502556283       -1.13477485153634
H           -6.80501877693703       -2.82080885644005       -4.04439154657291
C           -7.35603060570529       -1.55610519178286       -2.33291167749556
O            6.77657126738298        1.32992544904778       -5.96386339774544
O            5.50959860020555        2.37075286544092       -4.40047687003031
O           -8.38045509769464       -1.16982624985164       -3.12352011873808
O           -7.16913700597941       -1.12329665318182       -1.21349651201842
C            8.00598261877687        1.58728807281680       -5.22254614165840
C           -9.30871488481077       -0.17544333954061       -2.60493930891388
C            8.92890009401500        0.39369117366073       -5.47327429865225
C            8.59127579825300        2.92730671704600       -5.67680001776823
H            7.72943687294046        1.64962642567618       -4.15327303075537
C           -8.77334862228596        1.23053924786089       -2.90483201794111
C          -10.66520131756026       -0.46644797213001       -3.24587864804099
H           -9.35464364682187       -0.31872510783291       -1.51002299710905
H            8.44644464941135       -0.53684305325808       -5.14667946882819
H            9.17378546834261        0.30763124111228       -6.54288783177854
H            9.86959387632110        0.51945571940607       -4.92005361531620
H            7.88637598731989        3.74308986794726       -5.47210492486035
H            9.52667860416569        3.13746939685270       -5.14007181358401
H            8.81517670708441        2.90907702987618       -6.75456033118960
H           -7.79965516463904        1.38264360103289       -2.41146082584906
H           -8.65233192132596        1.37382139567424       -3.98748421078819
H           -9.47506185837796        1.98959666259030       -2.53215413250322
H          -10.99505945652946       -1.48871767731543       -3.01292599144513
H          -11.42513785607357        0.23261676898723       -2.87173116441214
H          -10.61344300582756       -0.36304949675171       -4.33770812794629
H            4.43988755590295       -5.91650767923910        2.22611724214252
H            0.60379949304732       -7.79255667351956        1.47573676838057
H            0.93638526575058        7.32519851728503       -2.37727003796571
H           -3.34101095389213        7.29215563435291       -1.66572617667131
O            3.56860158191763       -3.42753212576134        1.58766792798313
O           -0.61456371338370       -5.46983093802142        0.77177506702836
O            1.26940282393665        4.72243472082656       -1.63877130910271
O           -3.38657071805285        4.70023892454878       -0.85571532960688
C            4.91550887757664       -3.44656896659794        1.94980142883617
C            5.89755361358323       -3.70924425558970        0.98402639975869
C            5.27406134842741       -3.12285256970119        3.26495311640739
C            7.24957822723245       -3.65473860252748        1.34674757210290
H            5.59259524780534       -3.94874998077131       -0.03999557011276
C            6.62967257743093       -3.06974708919285        3.61543871104752
H            4.48383148846114       -2.91211084357917        3.99269015777323
C            7.61919106008235       -3.33701205610165        2.66026088689019
H            8.02083756592873       -3.85896603507121        0.59553769079078
H            6.91572470759920       -2.81686455478893        4.64253946549379
H            8.68061180011012       -3.29576914665233        2.93906425927255
C           -1.56749666265367       -6.46532768654165        0.96221116256093
C           -1.90620447269360       -6.91915664737703        2.24513958760845
C           -2.24410625546305       -6.94779573417285       -0.16657547008676
C           -2.91527618132388       -7.87909509288807        2.38979932991414
H           -1.38083312585345       -6.51441081989887        3.11676448313016
C           -3.25734956177341       -7.90127144140552       -0.00726843703619
H           -1.96883055990965       -6.55937511285182       -1.15241395146304
C           -3.59156766697484       -8.37490671620139        1.26773095552106
H           -3.17998073470055       -8.23915874182741        3.39014043849917
H           -3.78842632707400       -8.27859686316899       -0.88786632268721
H           -4.38095014548543       -9.12855848429832        1.38813471657049
C            2.53460886265504        5.28696152259956       -1.56439323362122
C            2.85252099440026        6.35011632990238       -0.70390391271977
C            3.53894453023081        4.67266036932956       -2.33007196383305
C            4.17510001020037        6.80689936356828       -0.63470031757702
H            2.07013230597863        6.81136351786899       -0.09136297606985
C            4.85749831566636        5.13075849390509       -2.24409681207230
H            3.27904650127340        3.83126602399575       -2.98086489984268
C            5.18053926840511        6.20451953005142       -1.40228574760062
H            4.42216243679900        7.64083984518438        0.03435564556851
H            5.62496655952912        4.63021982081639       -2.84504928253330
H            6.21354384760816        6.57067608924236       -1.33917863596271
C           -4.68518314557448        5.08115088485868       -1.17340640762600
C           -5.09214277300065        5.28991864969086       -2.49916090125997
C           -5.61104338329027        5.16450641766898       -0.12342437012460
C           -6.43070382815936        5.60301986066631       -2.76568456052600
H           -4.36182822579462        5.19934127451126       -3.31012193487222
C           -6.94812811092753        5.47085229894243       -0.40483791691951
H           -5.26645515845462        4.97857743501052        0.89872832336921
C           -7.36181078038259        5.69722179797471       -1.72353186699142
H           -6.75158162883375        5.76651849096333       -3.80025399989838
H           -7.67286937061851        5.53476230427438        0.41394907668633
H           -8.41015772110702        5.94165997354984       -1.94014908347774
N            1.30197712620767        0.60060551663529        0.06174994047910
C            2.37484862326978        1.09417946140582        0.59812092444908
C            2.34946457169889        2.38448843997778        1.20468377455536
C            3.45314312639658        2.87204492056889        1.85454919684043
C            4.62123969464329        2.12245759774297        1.94093585655809
C            4.68687314395460        0.89256086463569        1.30163227912682
C            3.61195013026956        0.37616399367603        0.61041462070754
C            3.73688352361278       -0.85175918410374       -0.23004229575321
C            4.03879600565419       -0.44351675891550       -1.69167741956743
C            5.32924373071816        0.29343458860954       -1.75214673009173
C            5.61194259291334        1.60053943240386       -1.52663921110597
C            7.03252092092246        1.72495162395250       -1.58649153805275
C            7.94018224673818        2.77257260810749       -1.44965998917064
C            9.28404519274968        2.49265042836925       -1.57617174520974
C            9.73725057607020        1.19784728980866       -1.83322311170300
C            8.85835928588580        0.14046492751222       -1.97365850843586
C            7.50832759588810        0.42337963178562       -1.84714911387185
O            6.46696330709381       -0.44121401233135       -1.94715440501880
H            1.44059138438847        2.95818384406847        1.13244654634711
H            3.42008284776664        3.85013480599242        2.31061621368780
H            5.46684744486405        2.51644596944207        2.48004717584523
H            5.60363245199052        0.32165367250102        1.33256799472306
H            2.80599719233853       -1.41926440253318       -0.20739949076982
H            4.55083239985401       -1.47544219055820        0.13914415695704
H            4.09874410607674       -1.33903915280611       -2.31145436468014
H            3.23030176689748        0.19446086664648       -2.05096980473195
H            4.90683145267634        2.38617255704937       -1.35202808435816
H            7.58848484518142        3.77195346609217       -1.24869084326598
H           10.00664036072380        3.28897688549697       -1.47532681759044
H           10.79804411547932        1.01868568840151       -1.92375951646796
H            9.20170364770407       -0.86123607989088       -2.17502387948867

 Bond Distances (Angstroems)
 ---------------------------
N1-C4=1.3715         N1-C9=1.3753         N1-Fe47=2.0289       N2-C11=1.3723        N2-C16=1.3722        N2-Fe47=2.0271       
C3-C4=1.4125         C3-C39=1.4106        C3-C106=1.5083       C4-N1=1.3715         C4-C3=1.4125         C4-C5=1.4508         
C5-C4=1.4508         C5-H6=1.0910         C5-C7=1.3666         H6-C5=1.0910         C7-C5=1.3666         C7-H8=1.0908         
C7-C9=1.4499         H8-C7=1.0908         C9-N1=1.3753         C9-C7=1.4499         C9-C10=1.4094        C10-C9=1.4094        
C10-C11=1.4091       C10-C17=1.5058       C11-N2=1.3723        C11-C10=1.4091       C11-C12=1.4509       C12-C11=1.4509       
C12-H13=1.0910       C12-C14=1.3655       H13-C12=1.0910       C14-C12=1.3655       C14-H15=1.0909       C14-C16=1.4512       
H15-C14=1.0909       C16-N2=1.3722        C16-C14=1.4512       C16-C26=1.4102       C17-C10=1.5058       C17-C18=1.4151       
C17-C23=1.4158       C18-C17=1.4151       C18-C19=1.4067       C18-O167=1.3769      C19-C18=1.4067       C19-C20=1.3979       
C19-H163=1.0963      C20-C19=1.3979       C20-H21=1.0980       C20-C22=1.3973       H21-C20=1.0980       C22-C20=1.3973       
C22-C23=1.4079       C22-H164=1.0961      C23-C17=1.4158       C23-C22=1.4079       C23-O168=1.3751      N24-C27=1.3713       
N24-C32=1.3754       N24-Fe47=2.0208      N25-C34=1.3726       N25-C39=1.3731       N25-Fe47=2.0145      C26-C16=1.4102       
C26-C27=1.4126       C26-C49=1.5092       C27-N24=1.3713       C27-C26=1.4126       C27-C28=1.4492       C28-C27=1.4492       
C28-H29=1.0908       C28-C30=1.3675       H29-C28=1.0908       C30-C28=1.3675       C30-H31=1.0904       C30-C32=1.4481       
H31-C30=1.0904       C32-N24=1.3754       C32-C30=1.4481       C32-C33=1.4079       C33-C32=1.4079       C33-C34=1.4082       
C33-C40=1.5045       C34-N25=1.3726       C34-C33=1.4082       C34-C35=1.4495       C35-C34=1.4495       C35-H36=1.0906       
C35-C37=1.3657       H36-C35=1.0906       C37-C35=1.3657       C37-H38=1.0908       C37-C39=1.4509       H38-C37=1.0908       
C39-C3=1.4106        C39-N25=1.3731       C39-C37=1.4509       C40-C33=1.5045       C40-C41=1.4166       C40-C46=1.4148       
C41-C40=1.4166       C41-C42=1.4067       C41-O169=1.3773      C42-C41=1.4067       C42-C43=1.3982       C42-H165=1.0960      
C43-C42=1.3982       C43-H44=1.0979       C43-C45=1.3981       H44-C43=1.0979       C45-C43=1.3981       C45-C46=1.4076       
C45-H166=1.0964      C46-C40=1.4148       C46-C45=1.4076       C46-O170=1.3755      Fe47-N1=2.0289       Fe47-N2=2.0271       
Fe47-N24=2.0208      Fe47-N25=2.0145      Fe47-Cl48=2.3141     Fe47-N215=1.6349     Cl48-Fe47=2.3141     C49-C26=1.5092       
C49-C50=1.4205       C49-C51=1.4230       C50-C49=1.4205       C50-C52=1.4094       C50-N53=1.4190       C51-C49=1.4230       
C51-C54=1.4115       C51-N55=1.4152       C52-C50=1.4094       C52-H56=1.0934       C52-C57=1.3981       N53-C50=1.4190       
N53-C58=1.3768       N53-H59=1.0216       C54-C51=1.4115       C54-C57=1.3974       C54-H60=1.0929       N55-C51=1.4152       
N55-C61=1.3811       N55-H62=1.0244       H56-C52=1.0934       C57-C52=1.3981       C57-C54=1.3974       C57-H63=1.0977       
C58-N53=1.3768       C58-O64=1.2262       C58-C65=1.5143       H59-N53=1.0216       H60-C54=1.0929       C61-N55=1.3811       
C61-O66=1.2272       C61-C67=1.5100       H62-N55=1.0244       H63-C57=1.0977       O64-C58=1.2262       C65-C58=1.5143       
C65-C68=1.5075       C65-H69=1.0954       C65-C70=1.5334       O66-C61=1.2272       C67-C61=1.5100       C67-C71=1.5085       
C67-H72=1.0961       C67-C73=1.5347       C68-C65=1.5075       C68-C70=1.5096       C68-H74=1.0927       C68-H75=1.0918       
H69-C65=1.0954       C70-C65=1.5334       C70-C68=1.5096       C70-H76=1.0928       C70-C77=1.4955       C71-C67=1.5085       
C71-C73=1.5103       C71-H78=1.0937       C71-H79=1.0935       H72-C67=1.0961       C73-C67=1.5347       C73-C71=1.5103       
C73-H80=1.0945       C73-C81=1.4919       H74-C68=1.0927       H75-C68=1.0918       H76-C70=1.0928       C77-C70=1.4955       
C77-O82=1.3439       C77-O83=1.2161       H78-C71=1.0937       H79-C71=1.0935       H80-C73=1.0945       C81-C73=1.4919       
C81-O84=1.3514       C81-O85=1.2146       O82-C77=1.3439       O82-C86=1.4587       O83-C77=1.2161       O84-C81=1.3514       
O84-C87=1.4553       O85-C81=1.2146       C86-O82=1.4587       C86-C88=1.5349       C86-C89=1.5278       C86-H90=1.1047       
C87-O84=1.4553       C87-C91=1.5295       C87-C92=1.5328       C87-H93=1.1066       C88-C86=1.5349       C88-H94=1.1023       
C88-H95=1.0981       C88-H96=1.0987       C89-C86=1.5278       C89-H97=1.0976       C89-H98=1.0982       C89-H99=1.0975       
H90-C86=1.1047       C91-C87=1.5295       C91-H100=1.0977      C91-H101=1.1004      C91-H102=1.0987      C92-C87=1.5328       
C92-H103=1.0985      C92-H104=1.0989      C92-H105=1.1007      H93-C87=1.1066       H94-C88=1.1023       H95-C88=1.0981       
H96-C88=1.0987       H97-C89=1.0976       H98-C89=1.0982       H99-C89=1.0975       H100-C91=1.0977      H101-C91=1.1004      
H102-C91=1.0987      H103-C92=1.0985      H104-C92=1.0989      H105-C92=1.1007      C106-C3=1.5083       C106-C107=1.4213     
C106-C108=1.4221     C107-C106=1.4213     C107-C109=1.4090     C107-N110=1.4180     C108-C106=1.4221     C108-C111=1.4111     
C108-N112=1.4145     C109-C107=1.4090     C109-H113=1.0938     C109-C114=1.3990     N110-C107=1.4180     N110-C115=1.3780     
N110-H116=1.0214     C111-C108=1.4111     C111-C114=1.3981     C111-H117=1.0933     N112-C108=1.4145     N112-C118=1.3805     
N112-H119=1.0236     H113-C109=1.0938     C114-C109=1.3990     C114-C111=1.3981     C114-H120=1.0978     C115-N110=1.3780     
C115-O121=1.2253     C115-C122=1.5139     H116-N110=1.0214     H117-C111=1.0933     C118-N112=1.3805     C118-O123=1.2269     
C118-C124=1.5094     H119-N112=1.0236     H120-C114=1.0978     O121-C115=1.2253     C122-C115=1.5139     C122-C125=1.5090     
C122-H126=1.0957     C122-C127=1.5286     O123-C118=1.2269     C124-C118=1.5094     C124-C128=1.5071     C124-H129=1.0963     
C124-C130=1.5364     C125-C122=1.5090     C125-C127=1.5106     C125-H131=1.0933     C125-H132=1.0925     H126-C122=1.0957     
C127-C122=1.5286     C127-C125=1.5106     C127-H133=1.0932     C127-C134=1.4972     C128-C124=1.5071     C128-C130=1.5095     
C128-H135=1.0932     C128-H136=1.0932     H129-C124=1.0963     C130-C124=1.5364     C130-C128=1.5095     C130-H137=1.0944     
C130-C138=1.4928     H131-C125=1.0933     H132-C125=1.0925     H133-C127=1.0932     C134-C127=1.4972     C134-O139=1.3432     
C134-O140=1.2166     H135-C128=1.0932     H136-C128=1.0932     H137-C130=1.0944     C138-C130=1.4928     C138-O141=1.3505     
C138-O142=1.2146     O139-C134=1.3432     O139-C143=1.4585     O140-C134=1.2166     O141-C138=1.3505     O141-C144=1.4558     
O142-C138=1.2146     C143-O139=1.4585     C143-C145=1.5295     C143-C146=1.5312     C143-H147=1.1062     C144-O141=1.4558     
C144-C148=1.5341     C144-C149=1.5282     C144-H150=1.1052     C145-C143=1.5295     C145-H151=1.0979     C145-H152=1.1007     
C145-H153=1.0985     C146-C143=1.5312     C146-H154=1.0974     C146-H155=1.0987     C146-H156=1.1009     H147-C143=1.1062     
C148-C144=1.5341     C148-H157=1.1021     C148-H158=1.0988     C148-H159=1.0988     C149-C144=1.5282     C149-H160=1.0991     
C149-H161=1.0983     C149-H162=1.0979     H150-C144=1.1052     H151-C145=1.0979     H152-C145=1.1007     H153-C145=1.0985     
H154-C146=1.0974     H155-C146=1.0987     H156-C146=1.1009     H157-C148=1.1021     H158-C148=1.0988     H159-C148=1.0988     
H160-C149=1.0991     H161-C149=1.0983     H162-C149=1.0979     H163-C19=1.0963      H164-C22=1.0961      H165-C42=1.0960      
H166-C45=1.0964      O167-C18=1.3769      O167-C171=1.3949     O168-C23=1.3751      O168-C182=1.3912     O169-C41=1.3773      
O169-C193=1.3874     O170-C46=1.3755      O170-C204=1.3901     C171-O167=1.3949     C171-C172=1.4022     C171-C173=1.4011     
C172-C171=1.4022     C172-C174=1.4009     C172-H175=1.0950     C173-C171=1.4011     C173-C176=1.4012     C173-H177=1.0947     
C174-C172=1.4009     C174-C178=1.4010     C174-H179=1.0958     H175-C172=1.0950     C176-C173=1.4012     C176-C178=1.4011     
C176-H180=1.0958     H177-C173=1.0947     C178-C174=1.4010     C178-C176=1.4011     C178-H181=1.0982     H179-C174=1.0958     
H180-C176=1.0958     H181-C178=1.0982     C182-O168=1.3912     C182-C183=1.4024     C182-C184=1.4017     C183-C182=1.4024     
C183-C185=1.4002     C183-H186=1.0952     C184-C182=1.4017     C184-C187=1.4004     C184-H188=1.0948     C185-C183=1.4002     
C185-C189=1.4008     C185-H190=1.0956     H186-C183=1.0952     C187-C184=1.4004     C187-C189=1.4006     C187-H191=1.0954     
H188-C184=1.0948     C189-C185=1.4008     C189-C187=1.4006     C189-H192=1.0980     H190-C185=1.0956     H191-C187=1.0954     
H192-C189=1.0980     C193-O169=1.3874     C193-C194=1.4042     C193-C195=1.4044     C194-C193=1.4042     C194-C196=1.4009     
C194-H197=1.0955     C195-C193=1.4044     C195-C198=1.3985     C195-H199=1.0950     C196-C194=1.4009     C196-C200=1.4011     
C196-H201=1.0973     H197-C194=1.0955     C198-C195=1.3985     C198-C200=1.4021     C198-H202=1.0958     H199-C195=1.0950     
C200-C196=1.4011     C200-C198=1.4021     C200-H203=1.0978     H201-C196=1.0973     H202-C198=1.0958     H203-C200=1.0978     
C204-O170=1.3901     C204-C205=1.4024     C204-C206=1.4024     C205-C204=1.4024     C205-C207=1.4003     C205-H208=1.0951     
C206-C204=1.4024     C206-C209=1.4003     C206-H210=1.0946     C207-C205=1.4003     C207-C211=1.4007     C207-H212=1.0955     
H208-C205=1.0951     C209-C206=1.4003     C209-C211=1.4005     C209-H213=1.0953     H210-C206=1.0946     C211-C207=1.4007     
C211-C209=1.4005     C211-H214=1.0980     H212-C207=1.0955     H213-C209=1.0953     H214-C211=1.0980     N215-Fe47=1.6349     
N215-C216=1.2971     C216-N215=1.2971     C216-C217=1.4260     C216-C221=1.4304     C217-C216=1.4260     C217-C218=1.3705     
C217-H233=1.0772     C218-C217=1.3705     C218-C219=1.3906     C218-H234=1.0797     C219-C218=1.3906     C219-C220=1.3877     
C219-H235=1.0775     C220-C219=1.3877     C220-C221=1.3784     C220-H236=1.0804     C221-C216=1.4304     C221-C220=1.3784     
C221-C222=1.4932     C222-C221=1.4932     C222-C223=1.5473     C222-H237=1.0905     C222-H238=1.0899     C223-C222=1.5473     
C223-C224=1.4873     C223-H239=1.0907     C223-H240=1.0908     C224-C223=1.4873     C224-C225=1.3562     C224-O232=1.3683     
C225-C224=1.3562     C225-C226=1.4273     C225-H241=1.0700     C226-C225=1.4273     C226-C227=1.3929     C226-C231=1.4101     
C227-C226=1.3929     C227-C228=1.3785     C227-H242=1.0784     C228-C227=1.3785     C228-C229=1.3957     C228-H243=1.0800     
C229-C228=1.3957     C229-C230=1.3821     C229-H244=1.0796     C230-C229=1.3821     C230-C231=1.3851     C230-H245=1.0779     
C231-C226=1.4101     C231-C230=1.3851     C231-O232=1.3572     O232-C224=1.3683     O232-C231=1.3572     H233-C217=1.0772     
H234-C218=1.0797     H235-C219=1.0775     H236-C220=1.0804     H237-C222=1.0905     H238-C222=1.0899     H239-C223=1.0907     
H240-C223=1.0908     H241-C225=1.0700     H242-C227=1.0784     H243-C228=1.0800     H244-C229=1.0796     H245-C230=1.0779     
 C  H  Rav=1.0944 sigma=0.0064  Rmin=1.0700  Rmax=1.1066    97
 C  C  Rav=1.4387 sigma=0.0534  Rmin=1.3562  Rmax=1.5473   117
 N  H  Rav=1.0227 sigma=0.0013  Rmin=1.0214  Rmax=1.0244     4
 N  C  Rav=1.3802 sigma=0.0273  Rmin=1.2971  Rmax=1.4190    17
 O  C  Rav=1.3376 sigma=0.0844  Rmin=1.2146  Rmax=1.4587    26
 Fe N  Rav=1.9452 sigma=0.1553  Rmin=1.6349  Rmax=2.0289     5
 Fe Cl Rav=2.3141 sigma=0.0000  Rmin=2.3141  Rmax=2.3141     1

 selected bond angles (degree)
 --------------------
C9-N1-C4=106.96                Fe47-N1-C4=126.37              Fe47-N1-C9=126.67              C16-N2-C11=107.11              
Fe47-N2-C11=126.65             Fe47-N2-C16=126.22             C39-C3-C4=123.16               C106-C3-C4=117.37              
C106-C3-C39=119.47             C3-C4-N1=126.26                C5-C4-N1=109.74                C5-C4-C3=123.95                
H6-C5-C4=124.64                C7-C5-C4=106.76                C7-C5-H6=128.59                H8-C7-C5=128.39                
C9-C7-C5=106.91                C9-C7-H8=124.68                C7-C9-N1=109.57                C10-C9-N1=126.20               
C10-C9-C7=124.05               C11-C10-C9=122.75              C17-C10-C9=118.73              C17-C10-C11=118.30             

 selected dihedral angles (degree)
 ---------------------------------
C3-C4-N1-C9=182.23            C3-C4-N1-Fe47=  1.21          C5-C4-N1-C9=359.78            C5-C4-N1-Fe47=178.76          
N1-C4-C3-C39=  6.38           N1-C4-C3-C106=186.33          C5-C4-C3-C39=189.15           C5-C4-C3-C106=  9.11          
H6-C5-C4-N1=179.46            H6-C5-C4-C3=357.08            C7-C5-C4-N1=358.70            C7-C5-C4-C3=176.32            
H8-C7-C5-C4=180.69            H8-C7-C5-H6=359.88            C9-C7-C5-C4=  2.19            C9-C7-C5-H6=181.38            
C7-C9-N1-C4=  1.59            C7-C9-N1-Fe47=182.62          C10-C9-N1-C4=186.37           C10-C9-N1-Fe47=  7.40         
N1-C9-C7-C5=357.57            N1-C9-C7-H8=179.00            C10-C9-C7-C5=172.91           C10-C9-C7-H8=354.35           
C11-C10-C9-N1=  5.48          C11-C10-C9-C7=190.92          C17-C10-C9-N1=179.95          C17-C10-C9-C7=  5.38          
           -------------------------------------------------
          |                Final Singlepoint                |
           -------------------------------------------------

          ...................................................
          :                      SETUP                      :
          :.................................................:
          :  # basis functions                 689          :
          :  # atomic orbitals                 687          :
          :  # shells                          391          :
          :  # electrons                       727          :
          :  max. iterations                   250          :
          :  Hamiltonian                  GFN2-xTB          :
          :  restarted?                      false          :
          :  GBSA solvation                   true          :
          :  PC potential                    false          :
          :  electronic temp.          300.0000000     K    :
          :  accuracy                    1.0000000          :
          :  -> integral cutoff          0.2500000E+02      :
          :  -> integral neglect         0.1000000E-07      :
          :  -> SCF convergence          0.1000000E-05 Eh   :
          :  -> wf. convergence          0.1000000E-03 e    :
          :  Broyden damping             0.4000000          :
          :  net charge                          0          :
          :  unpaired electrons                  0          :
          ...................................................

 iter      E             dE          RMSdq      gap      omega  full diag
   1   -408.9167375 -0.408917E+03  0.209E-05    0.11       0.0  T
   2   -408.9167375  0.599130E-10  0.255E-05    0.11     250.2  T
   3   -408.9167375 -0.985096E-10  0.123E-05    0.11     518.3  T

   *** convergence criteria satisfied after 3 iterations ***

         #    Occupation            Energy/Eh            Energy/eV
      -------------------------------------------------------------
         1        2.0000           -1.0150520             -27.6210
       ...           ...                  ...                  ...
       358        2.0000           -0.3796932             -10.3320
       359        2.0000           -0.3789903             -10.3129
       360        2.0000           -0.3765104             -10.2454
       361        2.0000           -0.3758772             -10.2281
       362        2.0000           -0.3749151             -10.2020
       363        2.0000           -0.3620788              -9.8527
       364        0.9017           -0.3322270              -9.0404 (HOMO)
       365        0.0983           -0.3280154              -8.9258 (LUMO)
       366                         -0.3062831              -8.3344
       367                         -0.3038369              -8.2678
       368                         -0.2679022              -7.2900
       369                         -0.2633091              -7.1650
       ...                                ...                  ...
       687                          1.5335147              41.7291
      -------------------------------------------------------------
                  HL-Gap            0.0042116 Eh            0.1146 eV
             Fermi-level           -0.3386399 Eh           -9.2149 eV

 SCC (total)                   0 d,  0 h,  0 min,  0.584 sec
 SCC setup                      ...        0 min,  0.004 sec (  0.719%)
 Dispersion                     ...        0 min,  0.004 sec (  0.670%)
 classical contributions        ...        0 min,  0.001 sec (  0.143%)
 integral evaluation            ...        0 min,  0.024 sec (  4.164%)
 iterations                     ...        0 min,  0.212 sec ( 36.333%)
 molecular gradient             ...        0 min,  0.319 sec ( 54.656%)
 printout                       ...        0 min,  0.019 sec (  3.311%)

         :::::::::::::::::::::::::::::::::::::::::::::::::::::
         ::                     SUMMARY                     ::
         :::::::::::::::::::::::::::::::::::::::::::::::::::::
         :: total energy            -403.427087294215 Eh    ::
         :: total w/o Gsasa/hb      -403.315251046529 Eh    ::
         :: gradient norm              0.000812355124 Eh/a0 ::
         :: HOMO-LUMO gap              0.114603028763 eV    ::
         ::.................................................::
         :: SCC energy              -408.892910913174 Eh    ::
         :: -> isotropic ES            0.504450258847 Eh    ::
         :: -> anisotropic ES          0.003393785970 Eh    ::
         :: -> anisotropic XC          0.162283018318 Eh    ::
         :: -> dispersion             -0.356992182571 Eh    ::
         :: -> Gsolv                  -0.158567149255 Eh    ::
         ::    -> Gelec               -0.046730901570 Eh    ::
         ::    -> Gsasa               -0.110565881041 Eh    ::
         ::    -> Ghb                 -0.006223804221 Eh    ::
         ::    -> Gshift               0.004953437577 Eh    ::
         :: repulsion energy           5.455213661792 Eh    ::
         :: add. restraining           0.010609957167 Eh    ::
         :: total charge              -0.000000000014 e     ::
         :::::::::::::::::::::::::::::::::::::::::::::::::::::

           -------------------------------------------------
          |                Property Printout                |
           -------------------------------------------------

    * Orbital Energies and Occupations

         #    Occupation            Energy/Eh            Energy/eV
      -------------------------------------------------------------
         1        2.0000           -1.0150520             -27.6210
       ...           ...                  ...                  ...
       352        2.0000           -0.3884966             -10.5715
       353        2.0000           -0.3871369             -10.5345
       354        2.0000           -0.3834943             -10.4354
       355        2.0000           -0.3828926             -10.4190
       356        2.0000           -0.3813531             -10.3771
       357        2.0000           -0.3804874             -10.3536
       358        2.0000           -0.3796932             -10.3320
       359        2.0000           -0.3789903             -10.3129
       360        2.0000           -0.3765104             -10.2454
       361        2.0000           -0.3758772             -10.2281
       362        2.0000           -0.3749151             -10.2020
       363        2.0000           -0.3620788              -9.8527
       364        0.9017           -0.3322270              -9.0404 (HOMO)
       365        0.0983           -0.3280154              -8.9258 (LUMO)
       366                         -0.3062831              -8.3344
       367                         -0.3038369              -8.2678
       368                         -0.2679022              -7.2900
       369                         -0.2633091              -7.1650
       370                         -0.2591146              -7.0509
       371                         -0.2583937              -7.0313
       372                         -0.2532201              -6.8905
       373                         -0.2520509              -6.8587
       374                         -0.2425285              -6.5995
       375                         -0.2409703              -6.5571
       ...                                ...                  ...
       687                          1.5335147              41.7291
      -------------------------------------------------------------
                  HL-Gap            0.0042116 Eh            0.1146 eV
             Fermi-level           -0.3386399 Eh           -9.2149 eV

     #   Z          covCN         q      C6AA      α(0)
     1   7 N        2.613    -0.206    25.495     7.499
     2   7 N        2.615    -0.213    25.656     7.523
     3   6 C        2.949    -0.018    28.449     8.748
     4   6 C        3.093     0.074    26.247     8.397
     5   6 C        2.988    -0.049    29.200     8.864
     6   1 H        0.924     0.045     2.380     2.412
     7   6 C        2.990    -0.041    29.005     8.834
     8   1 H        0.924     0.041     2.435     2.440
     9   6 C        3.092     0.079    26.143     8.380
    10   6 C        2.949     0.010    27.804     8.648
    11   6 C        3.092     0.079    26.129     8.378
    12   6 C        2.991    -0.042    29.037     8.839
    13   1 H        0.924     0.037     2.496     2.471
    14   6 C        2.988    -0.051    29.246     8.871
    15   1 H        0.924     0.043     2.407     2.426
    16   6 C        3.093     0.072    26.285     8.403
    17   6 C        2.960    -0.032    28.787     8.800
    18   6 C        2.855     0.142    24.906     8.180
    19   6 C        2.902    -0.073    29.832     8.956
    20   6 C        2.909    -0.035    28.867     8.810
    21   1 H        0.923     0.055     2.261     2.351
    22   6 C        2.902    -0.072    29.806     8.952
    23   6 C        2.853     0.142    24.895     8.178
    24   7 N        2.619    -0.202    25.405     7.486
    25   7 N        2.621    -0.208    25.535     7.505
    26   6 C        2.949    -0.018    28.446     8.748
    27   6 C        3.089     0.073    26.279     8.403
    28   6 C        2.991    -0.050    29.244     8.871
    29   1 H        0.924     0.045     2.387     2.416
    30   6 C        2.990    -0.042    29.042     8.840
    31   1 H        0.924     0.041     2.439     2.442
    32   6 C        3.091     0.079    26.146     8.381
    33   6 C        2.950     0.010    27.784     8.645
    34   6 C        3.095     0.079    26.122     8.377
    35   6 C        2.991    -0.042    29.042     8.840
    36   1 H        0.924     0.037     2.495     2.470
    37   6 C        2.989    -0.053    29.298     8.879
    38   1 H        0.924     0.044     2.401     2.423
    39   6 C        3.093     0.070    26.326     8.410
    40   6 C        2.961    -0.029    28.727     8.791
    41   6 C        2.849     0.140    24.944     8.186
    42   6 C        2.902    -0.070    29.737     8.941
    43   6 C        2.909    -0.035    28.872     8.811
    44   1 H        0.923     0.057     2.233     2.337
    45   6 C        2.902    -0.070    29.748     8.943
    46   6 C        2.851     0.142    24.902     8.179
    47  26 Fe       4.582     0.845     4.987     7.204
    48  17 Cl       0.750    -0.558   117.634    16.590
    49   6 C        2.966    -0.027    28.681     8.784
    50   6 C        2.893     0.072    26.396     8.424
    51   6 C        2.893     0.076    26.310     8.410
    52   6 C        2.903    -0.055    29.367     8.886
    53   7 N        2.688    -0.159    24.436     7.342
    54   6 C        2.904    -0.054    29.343     8.882
    55   7 N        2.688    -0.160    24.472     7.347
    56   1 H        0.924     0.077     2.009     2.217
    57   6 C        2.908    -0.031    28.784     8.797
    58   6 C        2.746     0.276    22.333     7.738
    59   1 H        0.860     0.194     1.137     1.670
    60   1 H        0.924     0.079     1.992     2.207
    61   6 C        2.747     0.278    22.296     7.732
    62   1 H        0.859     0.198     1.116     1.655
    63   1 H        0.924     0.054     2.273     2.358
    64   8 O        0.857    -0.458    22.884     6.414
    65   6 C        3.856    -0.042    21.288     6.562
    66   8 O        0.857    -0.460    22.925     6.419
    67   6 C        3.856    -0.038    21.217     6.551
    68   6 C        3.803    -0.052    21.504     6.602
    69   1 H        0.924     0.059     2.209     2.324
    70   6 C        3.855    -0.042    21.290     6.562
    71   6 C        3.802    -0.049    21.450     6.594
    72   1 H        0.924     0.067     2.120     2.277
    73   6 C        3.855    -0.041    21.276     6.560
    74   1 H        0.924     0.079     1.989     2.206
    75   1 H        0.924     0.072     2.063     2.246
    76   1 H        0.924     0.083     1.947     2.182
    77   6 C        2.702     0.357    20.934     7.489
    78   1 H        0.924     0.073     2.049     2.239
    79   1 H        0.924     0.087     1.908     2.160
    80   1 H        0.924     0.081     1.972     2.196
    81   6 C        2.703     0.358    20.917     7.486
    82   8 O        1.700    -0.290    18.812     5.856
    83   8 O        0.856    -0.455    22.817     6.404
    84   8 O        1.700    -0.295    18.901     5.870
    85   8 O        0.856    -0.454    22.784     6.400
    86   6 C        3.729     0.118    18.745     6.181
    87   6 C        3.730     0.121    18.688     6.171
    88   6 C        3.746    -0.118    22.838     6.817
    89   6 C        3.747    -0.124    22.957     6.834
    90   1 H        0.923     0.053     2.282     2.362
    91   6 C        3.747    -0.122    22.909     6.827
    92   6 C        3.746    -0.119    22.844     6.818
    93   1 H        0.922     0.045     2.385     2.415
    94   1 H        0.923     0.047     2.359     2.402
    95   1 H        0.923     0.060     2.198     2.319
    96   1 H        0.923     0.061     2.183     2.311
    97   1 H        0.924     0.057     2.237     2.339
    98   1 H        0.923     0.063     2.166     2.302
    99   1 H        0.924     0.064     2.150     2.293
   100   1 H        0.924     0.055     2.254     2.348
   101   1 H        0.923     0.065     2.146     2.291
   102   1 H        0.923     0.061     2.182     2.310
   103   1 H        0.923     0.049     2.329     2.386
   104   1 H        0.923     0.060     2.196     2.318
   105   1 H        0.923     0.058     2.220     2.330
   106   6 C        2.967    -0.028    28.690     8.786
   107   6 C        2.893     0.072    26.386     8.422
   108   6 C        2.894     0.076    26.312     8.410
   109   6 C        2.903    -0.055    29.359     8.884
   110   7 N        2.689    -0.160    24.472     7.347
   111   6 C        2.903    -0.054    29.339     8.881
   112   7 N        2.689    -0.161    24.476     7.348
   113   1 H        0.924     0.077     2.014     2.219
   114   6 C        2.908    -0.031    28.777     8.796
   115   6 C        2.746     0.276    22.326     7.737
   116   1 H        0.860     0.195     1.132     1.667
   117   1 H        0.924     0.078     2.004     2.214
   118   6 C        2.746     0.278    22.300     7.732
   119   1 H        0.859     0.197     1.119     1.657
   120   1 H        0.924     0.054     2.271     2.357
   121   8 O        0.857    -0.456    22.841     6.408
   122   6 C        3.857    -0.039    21.229     6.553
   123   8 O        0.857    -0.460    22.912     6.418
   124   6 C        3.856    -0.038    21.213     6.550
   125   6 C        3.803    -0.051    21.480     6.598
   126   1 H        0.924     0.055     2.264     2.353
   127   6 C        3.855    -0.042    21.281     6.561
   128   6 C        3.803    -0.049    21.456     6.595
   129   1 H        0.924     0.064     2.149     2.292
   130   6 C        3.855    -0.041    21.268     6.559
   131   1 H        0.924     0.079     1.990     2.206
   132   1 H        0.924     0.070     2.083     2.257
   133   1 H        0.924     0.083     1.947     2.182
   134   6 C        2.703     0.358    20.924     7.487
   135   1 H        0.924     0.075     2.032     2.229
   136   1 H        0.924     0.086     1.916     2.165
   137   1 H        0.924     0.080     1.980     2.200
   138   6 C        2.703     0.358    20.919     7.486
   139   8 O        1.700    -0.289    18.803     5.854
   140   8 O        0.856    -0.457    22.859     6.410
   141   8 O        1.700    -0.294    18.891     5.868
   142   8 O        0.856    -0.454    22.781     6.399
   143   6 C        3.730     0.120    18.712     6.175
   144   6 C        3.731     0.120    18.707     6.174
   145   6 C        3.747    -0.121    22.891     6.824
   146   6 C        3.746    -0.118    22.831     6.816
   147   1 H        0.922     0.045     2.389     2.417
   148   6 C        3.745    -0.117    22.818     6.814
   149   6 C        3.747    -0.124    22.950     6.833
   150   1 H        0.922     0.048     2.341     2.393
   151   1 H        0.924     0.054     2.265     2.354
   152   1 H        0.923     0.065     2.140     2.288
   153   1 H        0.923     0.061     2.183     2.311
   154   1 H        0.924     0.050     2.322     2.383
   155   1 H        0.923     0.060     2.204     2.322
   156   1 H        0.923     0.060     2.199     2.319
   157   1 H        0.923     0.048     2.347     2.396
   158   1 H        0.923     0.058     2.225     2.333
   159   1 H        0.923     0.059     2.208     2.324
   160   1 H        0.923     0.057     2.230     2.335
   161   1 H        0.923     0.062     2.170     2.304
   162   1 H        0.923     0.064     2.151     2.294
   163   1 H        0.924     0.047     2.360     2.403
   164   1 H        0.924     0.047     2.352     2.398
   165   1 H        0.924     0.053     2.281     2.362
   166   1 H        0.924     0.050     2.320     2.382
   167   8 O        1.706    -0.292    18.857     5.863
   168   8 O        1.706    -0.290    18.815     5.856
   169   8 O        1.707    -0.284    18.708     5.840
   170   8 O        1.706    -0.288    18.776     5.850
   171   6 C        2.853     0.137    25.012     8.197
   172   6 C        2.905    -0.048    29.185     8.858
   173   6 C        2.906    -0.048    29.185     8.858
   174   6 C        2.909    -0.031    28.762     8.794
   175   1 H        0.924     0.050     2.317     2.380
   176   6 C        2.909    -0.031    28.770     8.795
   177   1 H        0.924     0.051     2.311     2.377
   178   6 C        2.905    -0.035    28.869     8.810
   179   1 H        0.924     0.050     2.314     2.379
   180   1 H        0.924     0.051     2.302     2.373
   181   1 H        0.923     0.050     2.317     2.380
   182   6 C        2.851     0.138    24.976     8.191
   183   6 C        2.905    -0.050    29.240     8.866
   184   6 C        2.906    -0.047    29.166     8.855
   185   6 C        2.909    -0.032    28.793     8.799
   186   1 H        0.924     0.043     2.413     2.429
   187   6 C        2.909    -0.030    28.749     8.792
   188   1 H        0.924     0.051     2.302     2.373
   189   6 C        2.905    -0.036    28.906     8.816
   190   1 H        0.924     0.048     2.344     2.394
   191   1 H        0.924     0.051     2.304     2.374
   192   1 H        0.923     0.048     2.341     2.393
   193   6 C        2.846     0.137    25.007     8.196
   194   6 C        2.905    -0.055    29.372     8.887
   195   6 C        2.907    -0.047    29.155     8.854
   196   6 C        2.909    -0.032    28.791     8.798
   197   1 H        0.924     0.041     2.431     2.438
   198   6 C        2.908    -0.026    28.654     8.777
   199   1 H        0.924     0.045     2.378     2.411
   200   6 C        2.905    -0.037    28.929     8.819
   201   1 H        0.924     0.046     2.374     2.409
   202   1 H        0.924     0.055     2.264     2.353
   203   1 H        0.924     0.044     2.392     2.419
   204   6 C        2.851     0.138    24.985     8.192
   205   6 C        2.905    -0.051    29.265     8.870
   206   6 C        2.906    -0.049    29.211     8.862
   207   6 C        2.910    -0.032    28.802     8.800
   208   1 H        0.924     0.042     2.425     2.435
   209   6 C        2.909    -0.030    28.759     8.793
   210   1 H        0.924     0.052     2.299     2.371
   211   6 C        2.905    -0.037    28.923     8.818
   212   1 H        0.924     0.049     2.331     2.388
   213   1 H        0.924     0.051     2.313     2.378
   214   1 H        0.923     0.049     2.338     2.391
   215   7 N        1.741    -0.296    28.458     7.895
   216   6 C        2.908     0.113    25.518     8.283
   217   6 C        2.922    -0.042    29.042     8.837
   218   6 C        2.915    -0.028    28.709     8.786
   219   6 C        2.916    -0.032    28.795     8.799
   220   6 C        2.919    -0.034    28.836     8.806
   221   6 C        2.973     0.009    27.810     8.650
   222   6 C        3.811    -0.055    21.545     6.607
   223   6 C        3.806    -0.057    21.591     6.615
   224   6 C        3.084     0.119    25.287     8.243
   225   6 C        2.982    -0.073    29.805     8.955
   226   6 C        3.084    -0.011    28.197     8.705
   227   6 C        2.912    -0.038    28.951     8.823
   228   6 C        2.920    -0.044    29.082     8.843
   229   6 C        2.927    -0.042    29.053     8.839
   230   6 C        2.907    -0.057    29.425     8.895
   231   6 C        3.100     0.118    25.279     8.239
   232   8 O        1.720    -0.240    17.975     5.724
   233   1 H        0.926     0.040     2.447     2.446
   234   1 H        0.926     0.051     2.313     2.379
   235   1 H        0.926     0.059     2.216     2.328
   236   1 H        0.926     0.044     2.396     2.420
   237   1 H        0.924     0.057     2.231     2.336
   238   1 H        0.925     0.054     2.269     2.355
   239   1 H        0.924     0.061     2.186     2.312
   240   1 H        0.924     0.046     2.372     2.408
   241   1 H        0.927     0.039     2.468     2.457
   242   1 H        0.926     0.041     2.431     2.438
   243   1 H        0.926     0.041     2.432     2.439
   244   1 H        0.926     0.043     2.405     2.425
   245   1 H        0.926     0.048     2.344     2.394

 Mol. C6AA /au·bohr⁶  :     764574.212589
 Mol. C8AA /au·bohr⁸  :   18813927.106024
 Mol. α(0) /au        :       1373.179681


Wiberg/Mayer (AO) data.
largest (>0.10) Wiberg bond orders for each atom

 ---------------------------------------------------------------------------
     #   Z sym  total        # sym  WBO       # sym  WBO       # sym  WBO
 ---------------------------------------------------------------------------
     1   7 N    3.446 --     4 C    1.246     9 C    1.238    47 Fe   0.602
     2   7 N    3.433 --    11 C    1.251    16 C    1.247    47 Fe   0.573
     3   6 C    3.930 --    39 C    1.309     4 C    1.303   106 C    1.001
     4   6 C    3.927 --     3 C    1.303     1 N    1.246     5 C    1.170
     5   6 C    3.953 --     7 C    1.647     4 C    1.170     6 H    0.969
     6   1 H    0.997 --     5 C    0.969
     7   6 C    3.953 --     5 C    1.647     9 C    1.170     8 H    0.970
     8   1 H    0.997 --     7 C    0.970
     9   6 C    3.926 --    10 C    1.311     1 N    1.238     7 C    1.170
    10   6 C    3.933 --    11 C    1.313     9 C    1.311    17 C    1.004
    11   6 C    3.927 --    10 C    1.313     2 N    1.251    12 C    1.162
    12   6 C    3.955 --    14 C    1.660    11 C    1.162    13 H    0.970
    13   1 H    0.998 --    12 C    0.970
    14   6 C    3.953 --    12 C    1.660    16 C    1.162    15 H    0.969
    15   1 H    0.997 --    14 C    0.969
    16   6 C    3.927 --    26 C    1.313     2 N    1.247    14 C    1.162
    17   6 C    3.972 --    18 C    1.338    23 C    1.338    10 C    1.004
                            20 C    0.100
    18   6 C    3.921 --    19 C    1.365    17 C    1.338   167 O    1.035
    19   6 C    3.977 --    20 C    1.438    18 C    1.365   163 H    0.964
    20   6 C    3.986 --    22 C    1.442    19 C    1.438    21 H    0.968
                            17 C    0.100
    21   1 H    0.996 --    20 C    0.968
    22   6 C    3.979 --    20 C    1.442    23 C    1.362   164 H    0.964
    23   6 C    3.920 --    22 C    1.362    17 C    1.338   168 O    1.036
    24   7 N    3.453 --    27 C    1.250    32 C    1.239    47 Fe   0.587
    25   7 N    3.439 --    34 C    1.249    39 C    1.246    47 Fe   0.584
    26   6 C    3.927 --    16 C    1.313    27 C    1.299    49 C    0.997
    27   6 C    3.927 --    26 C    1.299    24 N    1.250    28 C    1.171
    28   6 C    3.954 --    30 C    1.646    27 C    1.171    29 H    0.969
    29   1 H    0.997 --    28 C    0.969
    30   6 C    3.955 --    28 C    1.646    32 C    1.171    31 H    0.970
    31   1 H    0.997 --    30 C    0.970
    32   6 C    3.928 --    33 C    1.310    24 N    1.239    30 C    1.171
    33   6 C    3.932 --    34 C    1.312    32 C    1.310    40 C    1.006
    34   6 C    3.926 --    33 C    1.312    25 N    1.249    35 C    1.165
    35   6 C    3.953 --    37 C    1.656    34 C    1.165    36 H    0.970
    36   1 H    0.998 --    35 C    0.970
    37   6 C    3.953 --    35 C    1.656    39 C    1.163    38 H    0.969
    38   1 H    0.997 --    37 C    0.969
    39   6 C    3.927 --     3 C    1.309    25 N    1.246    37 C    1.163
    40   6 C    3.972 --    46 C    1.339    41 C    1.338    33 C    1.006
    41   6 C    3.921 --    42 C    1.367    40 C    1.338   169 O    1.033
    42   6 C    3.978 --    43 C    1.439    41 C    1.367   165 H    0.964
    43   6 C    3.985 --    45 C    1.441    42 C    1.439    44 H    0.968
    44   1 H    0.996 --    43 C    0.968
    45   6 C    3.976 --    43 C    1.441    46 C    1.364   166 H    0.964
    46   6 C    3.920 --    45 C    1.364    40 C    1.339   170 O    1.035
    47  26 Fe   5.216 --   215 N    1.582     1 N    0.602    48 Cl   0.598
                            24 N    0.587    25 N    0.584     2 N    0.573
                           217 C    0.110   221 C    0.106
    48  17 Cl   0.756 --    47 Fe   0.598
    49   6 C    3.971 --    50 C    1.347    51 C    1.339    26 C    0.997
    50   6 C    3.950 --    52 C    1.370    49 C    1.347    53 N    1.064
    51   6 C    3.950 --    54 C    1.364    49 C    1.339    55 N    1.076
    52   6 C    3.978 --    57 C    1.439    50 C    1.370    56 H    0.958
    53   7 N    3.499 --    58 C    1.215    50 C    1.064    59 H    0.923
                            64 O    0.166
    54   6 C    3.969 --    57 C    1.444    51 C    1.364    60 H    0.956
    55   7 N    3.500 --    61 C    1.205    51 C    1.076    62 H    0.919
                            66 O    0.160
    56   1 H    0.992 --    52 C    0.958
    57   6 C    3.987 --    54 C    1.444    52 C    1.439    63 H    0.968
    58   6 C    3.950 --    64 O    1.660    53 N    1.215    65 C    0.991
    59   1 H    0.962 --    53 N    0.923
    60   1 H    0.992 --    54 C    0.956
    61   6 C    3.948 --    66 O    1.658    55 N    1.205    67 C    0.999
    62   1 H    0.960 --    55 N    0.919
    63   1 H    0.996 --    57 C    0.968
    64   8 O    1.982 --    58 C    1.660    53 N    0.166
    65   6 C    3.939 --    58 C    0.991    69 H    0.962    68 C    0.958
                            70 C    0.893
    66   8 O    1.987 --    61 C    1.658    55 N    0.160
    67   6 C    3.939 --    61 C    0.999    72 H    0.964    71 C    0.956
                            73 C    0.887
    68   6 C    3.938 --    75 H    0.975    74 H    0.973    65 C    0.958
                            70 C    0.945
    69   1 H    0.996 --    65 C    0.962
    70   6 C    3.937 --    77 C    1.007    76 H    0.964    68 C    0.945
                            65 C    0.893
    71   6 C    3.936 --    78 H    0.974    79 H    0.967    67 C    0.956
                            73 C    0.943
    72   1 H    0.995 --    67 C    0.964
    73   6 C    3.937 --    81 C    1.013    80 H    0.963    71 C    0.943
                            67 C    0.887
    74   1 H    0.993 --    68 C    0.973
    75   1 H    0.994 --    68 C    0.975
    76   1 H    0.993 --    70 C    0.964
    77   6 C    3.919 --    83 O    1.694    82 O    1.147    70 C    1.007
    78   1 H    0.994 --    71 C    0.974
    79   1 H    0.992 --    71 C    0.967
    80   1 H    0.993 --    73 C    0.963
    81   6 C    3.918 --    85 O    1.699    84 O    1.133    73 C    1.013
    82   8 O    2.297 --    77 C    1.147    86 C    0.900    83 O    0.170
    83   8 O    1.998 --    77 C    1.694    82 O    0.170
    84   8 O    2.285 --    81 C    1.133    87 C    0.904    85 O    0.167
    85   8 O    2.004 --    81 C    1.699    84 O    0.167
    86   6 C    3.910 --    89 C    1.007    88 C    1.002    90 H    0.961
                            82 O    0.900
    87   6 C    3.913 --    91 C    1.007    92 C    1.003    93 H    0.962
                            84 O    0.904
    88   6 C    3.990 --    86 C    1.002    94 H    0.986    95 H    0.985
                            96 H    0.982
    89   6 C    3.989 --    86 C    1.007    97 H    0.984    99 H    0.983
                            98 H    0.981
    90   1 H    0.997 --    86 C    0.961
    91   6 C    3.989 --    87 C    1.007   100 H    0.985   101 H    0.983
                           102 H    0.982
    92   6 C    3.990 --    87 C    1.003   103 H    0.985   105 H    0.985
                           104 H    0.982
    93   1 H    0.998 --    87 C    0.962
    94   1 H    0.998 --    88 C    0.986
    95   1 H    0.996 --    88 C    0.985
    96   1 H    0.996 --    88 C    0.982
    97   1 H    0.997 --    89 C    0.984
    98   1 H    0.995 --    89 C    0.981
    99   1 H    0.996 --    89 C    0.983
   100   1 H    0.997 --    91 C    0.985
   101   1 H    0.996 --    91 C    0.983
   102   1 H    0.995 --    91 C    0.982
   103   1 H    0.998 --    92 C    0.985
   104   1 H    0.996 --    92 C    0.982
   105   1 H    0.997 --    92 C    0.985
   106   6 C    3.971 --   107 C    1.343   108 C    1.339     3 C    1.001
   107   6 C    3.950 --   109 C    1.371   106 C    1.343   110 N    1.065
   108   6 C    3.950 --   111 C    1.365   106 C    1.339   112 N    1.075
   109   6 C    3.970 --   114 C    1.437   107 C    1.371   113 H    0.958
   110   7 N    3.496 --   115 C    1.212   107 C    1.065   116 H    0.920
                           121 O    0.166
   111   6 C    3.969 --   114 C    1.444   108 C    1.365   117 H    0.957
   112   7 N    3.499 --   118 C    1.204   108 C    1.075   119 H    0.919
                           123 O    0.161
   113   1 H    0.992 --   109 C    0.958
   114   6 C    3.986 --   111 C    1.444   109 C    1.437   120 H    0.968
   115   6 C    3.950 --   121 O    1.664   110 N    1.212   122 C    0.990
   116   1 H    0.961 --   110 N    0.920
   117   1 H    0.992 --   111 C    0.957
   118   6 C    3.949 --   123 O    1.659   112 N    1.204   124 C    0.999
   119   1 H    0.960 --   112 N    0.919
   120   1 H    0.996 --   114 C    0.968
   121   8 O    1.985 --   115 C    1.664   110 N    0.166
   122   6 C    3.940 --   115 C    0.990   126 H    0.965   125 C    0.954
                           127 C    0.900
   123   8 O    1.978 --   118 C    1.659   112 N    0.161
   124   6 C    3.939 --   118 C    0.999   129 H    0.965   128 C    0.958
                           130 C    0.883
   125   6 C    3.937 --   132 H    0.975   131 H    0.973   122 C    0.954
                           127 C    0.944
   126   1 H    0.997 --   122 C    0.965
   127   6 C    3.938 --   134 C    1.004   133 H    0.964   125 C    0.944
                           122 C    0.900
   128   6 C    3.936 --   135 H    0.973   136 H    0.967   124 C    0.958
                           130 C    0.945
   129   1 H    0.996 --   124 C    0.965
   130   6 C    3.937 --   138 C    1.012   137 H    0.964   128 C    0.945
                           124 C    0.883
   131   1 H    0.993 --   125 C    0.973
   132   1 H    0.995 --   125 C    0.975
   133   1 H    0.993 --   127 C    0.964
   134   6 C    3.919 --   140 O    1.694   139 O    1.149   127 C    1.004
   135   1 H    0.994 --   128 C    0.973
   136   1 H    0.992 --   128 C    0.967
   137   1 H    0.993 --   130 C    0.964
   138   6 C    3.918 --   142 O    1.699   141 O    1.134   130 C    1.012
   139   8 O    2.298 --   134 C    1.149   143 C    0.899   140 O    0.170
   140   8 O    1.997 --   134 C    1.694   139 O    0.170
   141   8 O    2.287 --   138 C    1.134   144 C    0.903   142 O    0.167
   142   8 O    2.004 --   138 C    1.699   141 O    0.167
   143   6 C    3.910 --   145 C    1.007   146 C    1.003   147 H    0.956
                           139 O    0.899
   144   6 C    3.912 --   149 C    1.007   148 C    1.002   150 H    0.961
                           141 O    0.903
   145   6 C    3.989 --   143 C    1.007   151 H    0.985   152 H    0.983
                           153 H    0.981
   146   6 C    3.990 --   143 C    1.003   154 H    0.985   156 H    0.984
                           155 H    0.982
   147   1 H    0.998 --   143 C    0.956
   148   6 C    3.991 --   144 C    1.002   157 H    0.985   158 H    0.985
                           159 H    0.982
   149   6 C    3.989 --   144 C    1.007   160 H    0.984   162 H    0.983
                           161 H    0.982
   150   1 H    0.998 --   144 C    0.961
   151   1 H    0.997 --   145 C    0.985
   152   1 H    0.996 --   145 C    0.983
   153   1 H    0.995 --   145 C    0.981
   154   1 H    0.997 --   146 C    0.985
   155   1 H    0.996 --   146 C    0.982
   156   1 H    0.996 --   146 C    0.984
   157   1 H    0.998 --   148 C    0.985
   158   1 H    0.997 --   148 C    0.985
   159   1 H    0.996 --   148 C    0.982
   160   1 H    0.997 --   149 C    0.984
   161   1 H    0.995 --   149 C    0.982
   162   1 H    0.996 --   149 C    0.983
   163   1 H    0.997 --    19 C    0.964
   164   1 H    0.996 --    22 C    0.964
   165   1 H    0.996 --    42 C    0.964
   166   1 H    0.996 --    45 C    0.964
   167   8 O    2.247 --    18 C    1.035   171 C    0.973
   168   8 O    2.264 --    23 C    1.036   182 C    0.985
   169   8 O    2.279 --    41 C    1.033   193 C    0.998
   170   8 O    2.268 --    46 C    1.035   204 C    0.989
   171   6 C    3.924 --   173 C    1.397   172 C    1.394   167 O    0.973
                           178 C    0.104
   172   6 C    3.987 --   174 C    1.441   171 C    1.394   175 H    0.967
                           176 C    0.112
   173   6 C    3.986 --   176 C    1.440   171 C    1.397   177 H    0.968
                           174 C    0.112
   174   6 C    3.988 --   172 C    1.441   178 C    1.438   179 H    0.969
                           173 C    0.112
   175   1 H    0.997 --   172 C    0.967
   176   6 C    3.988 --   173 C    1.440   178 C    1.439   180 H    0.969
                           172 C    0.112
   177   1 H    0.997 --   173 C    0.968
   178   6 C    3.989 --   176 C    1.439   174 C    1.438   181 H    0.969
                           171 C    0.104
   179   1 H    0.997 --   174 C    0.969
   180   1 H    0.997 --   176 C    0.969
   181   1 H    0.997 --   178 C    0.969
   182   6 C    3.922 --   184 C    1.390   183 C    1.388   168 O    0.985
                           189 C    0.102
   183   6 C    3.986 --   185 C    1.443   182 C    1.388   186 H    0.968
                           187 C    0.111
   184   6 C    3.985 --   187 C    1.442   182 C    1.390   188 H    0.968
                           185 C    0.111
   185   6 C    3.989 --   183 C    1.443   189 C    1.436   190 H    0.969
                           184 C    0.111
   186   1 H    0.998 --   183 C    0.968
   187   6 C    3.988 --   184 C    1.442   189 C    1.438   191 H    0.969
                           183 C    0.111
   188   1 H    0.997 --   184 C    0.968
   189   6 C    3.987 --   187 C    1.438   185 C    1.436   192 H    0.969
                           182 C    0.102
   190   1 H    0.997 --   185 C    0.969
   191   1 H    0.997 --   187 C    0.969
   192   1 H    0.998 --   189 C    0.969
   193   6 C    3.919 --   194 C    1.383   195 C    1.377   169 O    0.998
                           200 C    0.100
   194   6 C    3.985 --   196 C    1.442   193 C    1.383   197 H    0.967
                           198 C    0.109
   195   6 C    3.985 --   198 C    1.448   193 C    1.377   199 H    0.967
                           196 C    0.110
   196   6 C    3.988 --   194 C    1.442   200 C    1.438   201 H    0.970
                           195 C    0.110
   197   1 H    0.998 --   194 C    0.967
   198   6 C    3.987 --   195 C    1.448   200 C    1.432   202 H    0.967
                           194 C    0.109
   199   1 H    0.998 --   195 C    0.967
   200   6 C    3.986 --   196 C    1.438   198 C    1.432   203 H    0.970
                           193 C    0.100
   201   1 H    0.998 --   196 C    0.970
   202   1 H    0.996 --   198 C    0.967
   203   1 H    0.998 --   200 C    0.970
   204   6 C    3.921 --   205 C    1.387   206 C    1.386   170 O    0.989
                           211 C    0.102
   205   6 C    3.986 --   207 C    1.443   204 C    1.387   208 H    0.968
                           209 C    0.110
   206   6 C    3.985 --   209 C    1.444   204 C    1.386   210 H    0.968
                           207 C    0.110
   207   6 C    3.988 --   205 C    1.443   211 C    1.436   212 H    0.969
                           206 C    0.110
   208   1 H    0.998 --   205 C    0.968
   209   6 C    3.988 --   206 C    1.444   211 C    1.437   213 H    0.969
                           205 C    0.110
   210   1 H    0.997 --   206 C    0.968
   211   6 C    3.987 --   209 C    1.437   207 C    1.436   214 H    0.969
                           204 C    0.102
   212   1 H    0.997 --   207 C    0.969
   213   1 H    0.997 --   209 C    0.969
   214   1 H    0.998 --   211 C    0.969
   215   7 N    3.317 --    47 Fe   1.582   216 C    1.408
   216   6 C    3.970 --   215 N    1.408   217 C    1.177   221 C    1.164
   217   6 C    3.940 --   218 C    1.512   216 C    1.177   233 H    0.964
                            47 Fe   0.110
   218   6 C    3.989 --   217 C    1.512   219 C    1.380   234 H    0.960
   219   6 C    3.888 --   220 C    1.403   218 C    1.380   235 H    0.968
   220   6 C    3.990 --   221 C    1.466   219 C    1.403   236 H    0.962
   221   6 C    3.939 --   220 C    1.466   216 C    1.164   222 C    1.024
                            47 Fe   0.106
   222   6 C    3.985 --   221 C    1.024   238 H    0.969   237 H    0.954
                           223 C    0.953
   223   6 C    3.992 --   224 C    1.023   240 H    0.970   239 H    0.969
                           222 C    0.953
   224   6 C    3.914 --   225 C    1.634   232 O    1.070   223 C    1.023
   225   6 C    3.982 --   224 C    1.634   226 C    1.198   241 H    0.970
   226   6 C    3.987 --   227 C    1.335   231 C    1.272   225 C    1.198
   227   6 C    3.987 --   228 C    1.494   226 C    1.335   242 H    0.968
                           230 C    0.114
   228   6 C    3.991 --   227 C    1.494   229 C    1.388   243 H    0.971
   229   6 C    3.987 --   230 C    1.472   228 C    1.388   244 H    0.971
   230   6 C    3.987 --   229 C    1.472   231 C    1.362   245 H    0.967
                           227 C    0.114
   231   6 C    3.918 --   230 C    1.362   226 C    1.272   232 O    1.072
   232   8 O    2.364 --   231 C    1.072   224 C    1.070
   233   1 H    0.998 --   217 C    0.964
   234   1 H    0.989 --   218 C    0.960
   235   1 H    0.996 --   219 C    0.968
   236   1 H    0.992 --   220 C    0.962
   237   1 H    0.995 --   222 C    0.954
   238   1 H    0.996 --   222 C    0.969
   239   1 H    0.994 --   223 C    0.969
   240   1 H    0.996 --   223 C    0.970
   241   1 H    0.998 --   225 C    0.970
   242   1 H    0.998 --   227 C    0.968
   243   1 H    0.998 --   228 C    0.971
   244   1 H    0.998 --   229 C    0.971
   245   1 H    0.997 --   230 C    0.967
 ---------------------------------------------------------------------------

Topologies differ in total number of bonds
Writing topology from bond orders to xtbtopo.mol

molecular dipole:
                 x           y           z       tot (Debye)
 q only:        3.478       1.494       0.370
   full:        3.632       1.620       0.375      10.153
molecular quadrupole (traceless):
                xx          xy          yy          xz          yz          zz
 q only:       45.363       3.625      60.904      24.376     -36.212    -106.267
  q+dip:       38.065      -5.393      70.878      26.222     -37.070    -108.943
   full:       39.750      -5.736      75.696      28.266     -44.856    -115.446

           -------------------------------------------------
          |                Geometry Summary                 |
           -------------------------------------------------

      molecular mass/u    :     1984.3956747
   center of mass at/Å    :        0.1512475       0.1858739      -0.0764925
  moments of inertia/u·Å² :        0.4853721E+05   0.6950563E+05   0.7030325E+05
rotational constants/cm⁻¹ :        0.3473136E-03   0.2425362E-03   0.2397845E-03

 * 237 selected distances

     #   Z          #   Z                                           value/Å
     1   7 N        4   6 C                                       1.3715284
     3   6 C        4   6 C                                       1.4125095
     5   6 C        6   1 H                                       1.0910037
     5   6 C        7   6 C                                       1.3665607
     7   6 C        8   1 H                                       1.0908008
     1   7 N        9   6 C                                       1.3753111
     9   6 C       10   6 C                                       1.4094059
     2   7 N       11   6 C                                       1.3723389
    10   6 C       11   6 C                                       1.4091227
    12   6 C       13   1 H                                       1.0910250
    12   6 C       14   6 C                                       1.3654751
    14   6 C       15   1 H                                       1.0908536
     2   7 N       16   6 C                                       1.3721504
    17   6 C       18   6 C                                       1.4151473
    18   6 C       19   6 C                                       1.4066923
    19   6 C       20   6 C                                       1.3979372
    20   6 C       21   1 H                                       1.0979766
    20   6 C       22   6 C                                       1.3972612
    17   6 C       23   6 C                                       1.4158291
    22   6 C       23   6 C                                       1.4078551
    16   6 C       26   6 C                                       1.4101711
    24   7 N       27   6 C                                       1.3712877
    26   6 C       27   6 C                                       1.4125861
    28   6 C       29   1 H                                       1.0908079
    28   6 C       30   6 C                                       1.3674730
    30   6 C       31   1 H                                       1.0904228
    24   7 N       32   6 C                                       1.3753727
    30   6 C       32   6 C                                       1.4481481
    32   6 C       33   6 C                                       1.4079355
    25   7 N       34   6 C                                       1.3725945
    33   6 C       34   6 C                                       1.4081747
    35   6 C       36   1 H                                       1.0905652
    35   6 C       37   6 C                                       1.3657198
    37   6 C       38   1 H                                       1.0907834
     3   6 C       39   6 C                                       1.4105533
    25   7 N       39   6 C                                       1.3731423
    40   6 C       41   6 C                                       1.4165686
    41   6 C       42   6 C                                       1.4067162
    42   6 C       43   6 C                                       1.3982316
    43   6 C       44   1 H                                       1.0979465
    43   6 C       45   6 C                                       1.3980697
    40   6 C       46   6 C                                       1.4147915
    45   6 C       46   6 C                                       1.4076346
    49   6 C       50   6 C                                       1.4205331
    49   6 C       51   6 C                                       1.4230388
    50   6 C       52   6 C                                       1.4094017
    50   6 C       53   7 N                                       1.4190176
    51   6 C       54   6 C                                       1.4115483
    51   6 C       55   7 N                                       1.4151726
    52   6 C       56   1 H                                       1.0933627
    52   6 C       57   6 C                                       1.3981480
    54   6 C       57   6 C                                       1.3973713
    53   7 N       58   6 C                                       1.3768465
    53   7 N       59   1 H                                       1.0215524
    54   6 C       60   1 H                                       1.0929268
    55   7 N       61   6 C                                       1.3811367
    55   7 N       62   1 H                                       1.0244228
    57   6 C       63   1 H                                       1.0976603
    58   6 C       64   8 O                                       1.2261924
    61   6 C       66   8 O                                       1.2272125
    65   6 C       68   6 C                                       1.5075126
    65   6 C       69   1 H                                       1.0954462
    65   6 C       70   6 C                                       1.5334181
    68   6 C       70   6 C                                       1.5096161
    67   6 C       71   6 C                                       1.5084833
    67   6 C       72   1 H                                       1.0960929
    67   6 C       73   6 C                                       1.5346840
    71   6 C       73   6 C                                       1.5102527
    68   6 C       74   1 H                                       1.0927063
    68   6 C       75   1 H                                       1.0918011
    70   6 C       76   1 H                                       1.0927962
    71   6 C       78   1 H                                       1.0936859
    71   6 C       79   1 H                                       1.0935039
    73   6 C       80   1 H                                       1.0944573
    77   6 C       82   8 O                                       1.3438519
    77   6 C       83   8 O                                       1.2160689
    81   6 C       84   8 O                                       1.3514075
    81   6 C       85   8 O                                       1.2145891
    86   6 C       88   6 C                                       1.5349493
    86   6 C       89   6 C                                       1.5278492
    86   6 C       90   1 H                                       1.1046544
    87   6 C       91   6 C                                       1.5295223
    87   6 C       92   6 C                                       1.5328184
    87   6 C       93   1 H                                       1.1066109
    88   6 C       94   1 H                                       1.1023475
    88   6 C       95   1 H                                       1.0981002
    88   6 C       96   1 H                                       1.0987195
    89   6 C       97   1 H                                       1.0975657
    89   6 C       98   1 H                                       1.0982369
    89   6 C       99   1 H                                       1.0974696
    91   6 C      100   1 H                                       1.0977167
    91   6 C      101   1 H                                       1.1004234
    91   6 C      102   1 H                                       1.0986604
    92   6 C      103   1 H                                       1.0985222
    92   6 C      104   1 H                                       1.0989036
    92   6 C      105   1 H                                       1.1006811
   106   6 C      107   6 C                                       1.4213216
   106   6 C      108   6 C                                       1.4220860
   107   6 C      109   6 C                                       1.4090395
   107   6 C      110   7 N                                       1.4180026
   108   6 C      111   6 C                                       1.4110662
   108   6 C      112   7 N                                       1.4144877
   109   6 C      113   1 H                                       1.0937600
   109   6 C      114   6 C                                       1.3990106
   111   6 C      114   6 C                                       1.3980827
   110   7 N      115   6 C                                       1.3780470
   110   7 N      116   1 H                                       1.0214162 (min)
   111   6 C      117   1 H                                       1.0933025
   112   7 N      118   6 C                                       1.3805000
   112   7 N      119   1 H                                       1.0235556
   114   6 C      120   1 H                                       1.0977668
   115   6 C      121   8 O                                       1.2252993
   118   6 C      123   8 O                                       1.2269186
   122   6 C      125   6 C                                       1.5089793
   122   6 C      126   1 H                                       1.0956681
   122   6 C      127   6 C                                       1.5285621
   125   6 C      127   6 C                                       1.5106384
   124   6 C      128   6 C                                       1.5070648
   124   6 C      129   1 H                                       1.0963442
   124   6 C      130   6 C                                       1.5364144
   128   6 C      130   6 C                                       1.5094927
   125   6 C      131   1 H                                       1.0932676
   125   6 C      132   1 H                                       1.0925332
   127   6 C      133   1 H                                       1.0931770
   128   6 C      135   1 H                                       1.0931796
   128   6 C      136   1 H                                       1.0932495
   130   6 C      137   1 H                                       1.0943523
   134   6 C      139   8 O                                       1.3431958
   134   6 C      140   8 O                                       1.2165808
   138   6 C      141   8 O                                       1.3504514
   138   6 C      142   8 O                                       1.2146370
   143   6 C      145   6 C                                       1.5294820
   143   6 C      146   6 C                                       1.5311973
   143   6 C      147   1 H                                       1.1062137
   144   6 C      148   6 C                                       1.5340600
   144   6 C      149   6 C                                       1.5282483
   144   6 C      150   1 H                                       1.1052063
   145   6 C      151   1 H                                       1.0978714
   145   6 C      152   1 H                                       1.1006582
   145   6 C      153   1 H                                       1.0985330
   146   6 C      154   1 H                                       1.0973997
   146   6 C      155   1 H                                       1.0987375
   146   6 C      156   1 H                                       1.1009230
   148   6 C      157   1 H                                       1.1021026
   148   6 C      158   1 H                                       1.0987770
   148   6 C      159   1 H                                       1.0988442
   149   6 C      160   1 H                                       1.0991401
   149   6 C      161   1 H                                       1.0982630
   149   6 C      162   1 H                                       1.0979353
    19   6 C      163   1 H                                       1.0963091
    22   6 C      164   1 H                                       1.0961270
    42   6 C      165   1 H                                       1.0960476
    45   6 C      166   1 H                                       1.0964199
    18   6 C      167   8 O                                       1.3768656
    23   6 C      168   8 O                                       1.3750879
    41   6 C      169   8 O                                       1.3772951
    46   6 C      170   8 O                                       1.3755195
   167   8 O      171   6 C                                       1.3948701
   171   6 C      172   6 C                                       1.4021883
   171   6 C      173   6 C                                       1.4010626
   172   6 C      174   6 C                                       1.4008956
   172   6 C      175   1 H                                       1.0949812
   173   6 C      176   6 C                                       1.4011932
   173   6 C      177   1 H                                       1.0947496
   174   6 C      178   6 C                                       1.4010287
   176   6 C      178   6 C                                       1.4010505
   174   6 C      179   1 H                                       1.0958405
   176   6 C      180   1 H                                       1.0957699
   178   6 C      181   1 H                                       1.0982015
   168   8 O      182   6 C                                       1.3911726
   182   6 C      183   6 C                                       1.4023514
   182   6 C      184   6 C                                       1.4016903
   183   6 C      185   6 C                                       1.4002265
   183   6 C      186   1 H                                       1.0952463
   184   6 C      187   6 C                                       1.4004132
   184   6 C      188   1 H                                       1.0947717
   185   6 C      189   6 C                                       1.4007988
   187   6 C      189   6 C                                       1.4005913
   185   6 C      190   1 H                                       1.0956263
   187   6 C      191   1 H                                       1.0953857
   189   6 C      192   1 H                                       1.0980041
   169   8 O      193   6 C                                       1.3874326
   193   6 C      194   6 C                                       1.4042110
   193   6 C      195   6 C                                       1.4043932
   194   6 C      196   6 C                                       1.4009481
   194   6 C      197   1 H                                       1.0954851
   195   6 C      198   6 C                                       1.3985099
   195   6 C      199   1 H                                       1.0949991
   196   6 C      200   6 C                                       1.4010558
   198   6 C      200   6 C                                       1.4021285
   196   6 C      201   1 H                                       1.0973298
   198   6 C      202   1 H                                       1.0957603
   200   6 C      203   1 H                                       1.0977941
   170   8 O      204   6 C                                       1.3901137
   204   6 C      205   6 C                                       1.4024355
   204   6 C      206   6 C                                       1.4023651
   205   6 C      207   6 C                                       1.4002904
   205   6 C      208   1 H                                       1.0950898
   206   6 C      209   6 C                                       1.4002990
   206   6 C      210   1 H                                       1.0945807
   207   6 C      211   6 C                                       1.4006844
   209   6 C      211   6 C                                       1.4004751
   207   6 C      212   1 H                                       1.0954581
   209   6 C      213   1 H                                       1.0953295
   211   6 C      214   1 H                                       1.0980458
    47  26 Fe     215   7 N                                       1.6348723 (max)
   215   7 N      216   6 C                                       1.2970592
   216   6 C      217   6 C                                       1.4259946
   217   6 C      218   6 C                                       1.3704536
   218   6 C      219   6 C                                       1.3906091
   219   6 C      220   6 C                                       1.3876827
   216   6 C      221   6 C                                       1.4304258
   220   6 C      221   6 C                                       1.3783713
   223   6 C      224   6 C                                       1.4872826
   224   6 C      225   6 C                                       1.3562064
   225   6 C      226   6 C                                       1.4272715
   226   6 C      227   6 C                                       1.3928683
   227   6 C      228   6 C                                       1.3785244
   228   6 C      229   6 C                                       1.3957027
   229   6 C      230   6 C                                       1.3821106
   226   6 C      231   6 C                                       1.4101150
   230   6 C      231   6 C                                       1.3851467
   224   6 C      232   8 O                                       1.3682627
   231   6 C      232   8 O                                       1.3571894
   217   6 C      233   1 H                                       1.0772165
   218   6 C      234   1 H                                       1.0796991
   219   6 C      235   1 H                                       1.0774602
   220   6 C      236   1 H                                       1.0804350
   222   6 C      237   1 H                                       1.0904698
   222   6 C      238   1 H                                       1.0898588
   223   6 C      239   1 H                                       1.0907235
   223   6 C      240   1 H                                       1.0907656
   225   6 C      241   1 H                                       1.0699955
   227   6 C      242   1 H                                       1.0783515
   228   6 C      243   1 H                                       1.0800229
   229   6 C      244   1 H                                       1.0796198
   230   6 C      245   1 H                                       1.0778861

 * 6 distinct bonds (by element types)

   Z      Z             #   av. dist./Å        max./Å        min./Å
   1 H    6 C          97     1.0944155     1.1066109     1.0699955
   6 C    6 C          96     1.4279220     1.5364144     1.3562064
   1 H    7 N           4     1.0227368     1.0244228     1.0214162
   6 C    7 N          17     1.3802351     1.4190176     1.2970592
   6 C    8 O          22     1.3159188     1.3948701     1.2145891
   7 N   26 Fe          1     1.6348723     1.6348723     1.6348723


optimized geometry written to: xtbopt.xyz


           -------------------------------------------------
          | TOTAL ENERGY             -403.427087294215 Eh   |
          | GRADIENT NORM               0.000812355124 Eh/α |
          | HOMO-LUMO GAP               0.114603028763 eV   |
           -------------------------------------------------

------------------------------------------------------------------------
 * finished run on 2026/07/31 at 15:23:25.785     
------------------------------------------------------------------------
 total:
 * wall-time:     0 d,  0 h,  0 min, 51.695 sec
 *  cpu-time:     0 d,  0 h,  1 min, 56.887 sec
 * ratio c/w:     2.261 speedup
 SCF:
 * wall-time:     0 d,  0 h,  0 min,  2.558 sec
 *  cpu-time:     0 d,  0 h,  0 min,  5.676 sec
 * ratio c/w:     2.219 speedup
 ANC optimizer:
 * wall-time:     0 d,  0 h,  0 min, 49.081 sec
 *  cpu-time:     0 d,  0 h,  1 min, 51.117 sec
 * ratio c/w:     2.264 speedup

