43

C      3.027413   -0.874024    2.247614
C      2.747142   -0.280496    0.858905
C      3.359122   -1.205840   -0.209873
C      3.370923    1.126293    0.783652
O      1.322034   -0.208817    0.710131
C      0.622842    0.310258   -0.393205
O      1.247693    0.688774   -1.422113
C     -0.908753    0.321503   -0.357130
C     -1.466723   -1.125553   -0.464673
C     -0.631819   -2.206902   -0.853172
C     -1.130481   -3.505615   -0.968132
C     -2.475256   -3.764371   -0.727502
C     -3.332078   -2.721710   -0.387891
C     -2.851088   -1.412387   -0.268570
N     -3.794617   -0.385791    0.029958
C     -1.336811    0.987445    1.009805
C     -2.018268    2.355440    0.853603
C     -1.218472    3.240101   -0.102835
C     -1.134326    2.640913   -1.518933
C     -1.456687    1.132687   -1.577064
H      4.120312   -0.959738    2.432171
H      2.584328   -0.230338    3.037921
H      2.573640   -1.884997    2.332970
H      4.444442   -1.354315   -0.021805
H      3.249844   -0.779198   -1.227384
H      2.858393   -2.197414   -0.190820
H      3.273743    1.558563   -0.233008
H      2.866371    1.807502    1.502022
H      4.453755    1.087549    1.031285
H      0.414382   -2.067986   -1.082300
H     -0.469883   -4.314197   -1.254073
H     -2.858263   -4.772463   -0.820607
H     -4.382562   -2.930259   -0.226505
H     -0.462595    1.147873    1.678565
H     -1.998056    0.329562    1.610009
H     -2.082714    2.850723    1.846796
H     -3.055253    2.230582    0.474081
H     -1.687869    4.246501   -0.151996
H     -0.191226    3.372893    0.303767
H     -0.119248    2.826183   -1.930760
H     -1.847358    3.175725   -2.184016
H     -1.065966    0.710889   -2.529541
H     -2.560004    1.034452   -1.639345
