43

C     -3.415572    0.944442   -0.473102
C     -2.804285    0.143061    0.691880
C     -3.202711    0.811556    2.016156
C     -3.326180   -1.306572    0.689229
O     -1.371437    0.163279    0.623020
C     -0.577020   -0.381022   -0.400843
O     -1.115204   -0.874995   -1.429783
C      0.947281   -0.280029   -0.284569
C      1.411343    1.192036   -0.470401
C      0.528722    2.180709   -0.981104
C      0.944160    3.500420   -1.166343
C      2.252458    3.871118   -0.876150
C      3.157082    2.919053   -0.415876
C      2.759716    1.590360   -0.224587
N      3.751960    0.657587    0.198087
C      1.617428   -1.134040   -1.410648
C      1.394996   -2.653590   -1.257237
C      1.438664   -3.143706    0.201982
C      2.121004   -2.138724    1.130150
C      1.340808   -0.815414    1.148513
H     -4.517397    1.027734   -0.353189
H     -3.219898    0.455951   -1.449002
H     -2.984958    1.968186   -0.501914
H     -2.762868    0.258637    2.874094
H     -2.823938    1.855912    2.049508
H     -4.307640    0.831640    2.136841
H     -3.142247   -1.801459   -0.286041
H     -2.818434   -1.897492    1.481490
H     -4.421494   -1.328076    0.876779
H     -0.490934    1.951427   -1.253258
H      0.247763    4.237428   -1.545563
H      2.571098    4.894945   -1.023997
H      4.180153    3.213138   -0.216141
H      2.713332   -0.961732   -1.422703
H      1.253988   -0.809618   -2.410873
H      2.179282   -3.181627   -1.842769
H      0.419879   -2.939660   -1.706258
H      0.401259   -3.320662    0.563471
H      1.977098   -4.114867    0.252289
H      2.162099   -2.556738    2.159453
H      3.167108   -1.967073    0.796734
H      1.920777   -0.071142    1.731604
H      0.442760   -0.990380    1.781070
