43

C      3.543797   -0.496631   -1.189277
C      2.791322   -0.047178    0.072088
C      3.268308    1.365385    0.460075
C      3.076269   -1.050404    1.206050
O      1.394126   -0.036171   -0.251228
C      0.343508    0.320608    0.609143
O      0.576137    0.656426    1.802556
C     -1.082775    0.243014    0.084130
C     -1.396776   -1.253543   -0.181898
C     -1.805555   -1.717981   -1.459713
C     -2.093473   -3.065848   -1.683922
C     -1.979454   -3.989955   -0.651307
C     -1.570104   -3.571869    0.610990
C     -1.276692   -2.225424    0.855762
N     -0.836258   -1.870475    2.164362
C     -1.165199    1.118107   -1.207624
C     -0.954652    2.611996   -0.924661
C     -2.017936    3.123716    0.047852
C     -1.995045    2.323025    1.350851
C     -2.131587    0.808938    1.096663
H      4.640496   -0.528036   -1.010160
H      3.342034    0.204059   -2.028066
H      3.206430   -1.509490   -1.498407
H      2.985298    2.094890   -0.328855
H      4.372822    1.384862    0.582504
H      2.817904    1.696526    1.417798
H      4.170837   -1.160029    1.364874
H      2.652630   -2.045686    0.951705
H      2.629568   -0.716835    2.164615
H     -1.902301   -1.062519   -2.310226
H     -2.404171   -3.395049   -2.667353
H     -2.202587   -5.033777   -0.830920
H     -1.474997   -4.301009    1.406191
H     -0.411608    0.786737   -1.955855
H     -2.172254    1.018972   -1.669985
H     -1.033173    3.178151   -1.877805
H      0.061020    2.790794   -0.509187
H     -3.023954    3.045924   -0.420388
H     -1.826756    4.195398    0.271252
H     -1.057045    2.543240    1.901957
H     -2.837626    2.658221    1.993443
H     -3.154491    0.613267    0.703868
H     -2.066035    0.295648    2.076953
