43

C      3.732708    1.395099    0.218091
C      3.119044    0.330627   -0.711161
C      3.583553   -1.080799   -0.304066
C      3.574984    0.606662   -2.151765
O      1.686953    0.414215   -0.698139
C      0.850652    0.226739    0.415528
O      1.339080   -0.034948    1.549156
C     -0.657620    0.321988    0.263717
C     -1.242832   -1.069134    0.636837
C     -2.053219   -1.257567    1.785598
C     -2.588520   -2.508106    2.100618
C     -2.302780   -3.613814    1.307993
C     -1.451995   -3.480469    0.215506
C     -0.904398   -2.235066   -0.113646
N      0.050279   -2.192738   -1.171532
C     -1.027459    0.714994   -1.204712
C     -2.518793    1.025624   -1.369622
C     -2.913962    2.208263   -0.486334
C     -2.603757    1.909537    0.979765
C     -1.127349    1.503608    1.178780
H      3.329174    2.399746   -0.031665
H      4.838438    1.419247    0.107773
H      3.505984    1.183132    1.282687
H      3.079727   -1.846169   -0.932334
H      3.349744   -1.293824    0.758758
H      4.682625   -1.182815   -0.434366
H      3.240224    1.615990   -2.474872
H      4.682289    0.556779   -2.236751
H      3.132677   -0.140726   -2.845345
H     -2.273203   -0.460108    2.474372
H     -3.218277   -2.621416    2.973885
H     -2.716023   -4.582270    1.558846
H     -1.197441   -4.356505   -0.368284
H     -0.455164    1.622952   -1.502605
H     -0.753053   -0.064380   -1.938969
H     -3.128136    0.132468   -1.109697
H     -2.724128    1.282225   -2.431346
H     -2.364494    3.120364   -0.808237
H     -4.001681    2.405816   -0.600232
H     -3.295900    1.120404    1.333188
H     -2.811644    2.818749    1.584071
H     -0.937351    1.284008    2.250957
H     -0.508957    2.401613    0.949555
