43

C      3.347763    1.002954    1.675385
C      2.799084    0.286795    0.432275
C      3.271619   -1.179337    0.453716
C      3.317200    1.008343   -0.826601
O      1.367949    0.357350    0.502112
C      0.459714   -0.142385   -0.446108
O      0.879726   -0.791486   -1.444216
C     -1.052104    0.012228   -0.227970
C     -1.647311   -1.272989    0.419924
C     -0.807757   -2.346414    0.825405
C     -1.331810   -3.505742    1.399323
C     -2.701043   -3.632189    1.599488
C     -3.552797   -2.594058    1.237005
C     -3.048018   -1.421780    0.661302
N     -3.980294   -0.385791    0.362291
C     -1.696720    0.259167   -1.630192
C     -1.138296    1.517126   -2.334954
C     -0.745454    2.642445   -1.357959
C     -1.552169    2.578338   -0.059118
C     -1.331759    1.252116    0.700039
H      2.977760    0.508450    2.599382
H      4.459288    0.988408    1.686704
H      3.007304    2.060840    1.691681
H      2.975076   -1.715378   -0.470461
H      2.829787   -1.711404    1.323301
H      4.379099   -1.231389    0.531872
H      4.427433    1.059496   -0.818082
H      2.915289    2.043260   -0.867900
H      3.011791    0.479060   -1.751953
H      0.265372   -2.312722    0.711062
H     -0.669106   -4.309849    1.693051
H     -3.102777   -4.532609    2.046135
H     -4.616573   -2.696785    1.413089
H     -1.552666   -0.626566   -2.287627
H     -2.789530    0.403513   -1.547433
H     -0.247701    1.241799   -2.940601
H     -1.905463    1.898108   -3.044371
H     -0.909072    3.627745   -1.845547
H      0.337260    2.571875   -1.116228
H     -2.631993    2.690805   -0.302262
H     -1.268256    3.431088    0.594929
H     -2.228049    1.092452    1.332054
H     -0.521796    1.395111    1.444660
