43

C      3.205081    1.203067    1.235256
C      2.854825   -0.078470    0.454996
C      3.037352   -1.324060    1.342834
C      3.790764   -0.192668   -0.757570
O      1.514244   -0.010043   -0.051331
C      0.341559    0.142129    0.708480
O      0.395097    0.139965    1.969231
C     -1.004430    0.217891   -0.019384
C     -1.372300   -1.163946   -0.629354
C     -0.671561   -2.341268   -0.254934
C     -1.008015   -3.587576   -0.786021
C     -2.064718   -3.706044   -1.681911
C     -2.801887   -2.580525   -2.037456
C     -2.480488   -1.322156   -1.514840
N     -3.310930   -0.222269   -1.880736
C     -0.860071    1.310077   -1.151425
C     -1.700481    2.573849   -0.913128
C     -1.520807    3.067174    0.522636
C     -2.000532    2.033832    1.558740
C     -2.129795    0.602269    0.996636
H      2.992427    2.099449    0.614007
H      4.281381    1.210080    1.512526
H      2.616090    1.280801    2.171711
H      2.437923   -1.251514    2.272736
H      4.102790   -1.440244    1.637244
H      2.721197   -2.236383    0.793267
H      3.548022   -1.103172   -1.346908
H      4.853774   -0.251033   -0.437504
H      3.669098    0.689767   -1.422209
H      0.139525   -2.321756    0.457873
H     -0.449775   -4.467689   -0.493232
H     -2.323982   -4.674869   -2.089062
H     -3.638336   -2.687853   -2.717079
H      0.193260    1.650599   -1.259902
H     -1.101920    0.909079   -2.156915
H     -1.377934    3.369611   -1.619256
H     -2.774630    2.367503   -1.109575
H     -0.444281    3.290253    0.694465
H     -2.081603    4.017364    0.657702
H     -1.303619    2.038222    2.423959
H     -2.993335    2.345184    1.951394
H     -2.153373   -0.122117    1.840732
H     -3.125607    0.527495    0.513307
