43

C      3.269209    1.297930    0.848750
C      2.885799    0.005858    0.102179
C      3.708116   -0.082054   -1.192195
C      3.186390   -1.232919    0.967129
O      1.502587    0.034367   -0.277449
C      0.401519    0.152830    0.588157
O      0.571870    0.153547    1.838496
C     -1.007851    0.188284   -0.011536
C     -1.390048   -1.204385   -0.587088
C     -0.623351   -2.360237   -0.281317
C     -0.970945   -3.616434   -0.780998
C     -2.102311   -3.766805   -1.575148
C     -2.901990   -2.663784   -1.858839
C     -2.570518   -1.395980   -1.366177
N     -3.463234   -0.321328   -1.651568
C     -2.044858    0.540493    1.105181
C     -1.906041    1.975812    1.655303
C     -1.555034    3.021726    0.580923
C     -1.852634    2.521873   -0.832815
C     -1.001273    1.283073   -1.150226
H      2.973584    2.187041    0.251457
H      4.365929    1.336848    1.024933
H      2.767668    1.359284    1.835965
H      3.499451    0.795740   -1.841175
H      4.797493   -0.108839   -0.972254
H      3.438550   -0.999905   -1.758007
H      2.673981   -1.177045    1.948766
H      4.277500   -1.317471    1.161199
H      2.847490   -2.154699    0.447725
H      0.249474   -2.316181    0.353170
H     -0.362364   -4.479472   -0.542775
H     -2.369721   -4.743245   -1.958120
H     -3.794400   -2.796326   -2.458082
H     -1.968741   -0.183410    1.946585
H     -3.078602    0.436009    0.716215
H     -2.866833    2.258288    2.138896
H     -1.132284    2.001554    2.452139
H     -2.128486    3.955187    0.769068
H     -0.474213    3.276476    0.652503
H     -2.933863    2.283883   -0.929094
H     -1.620482    3.326038   -1.564466
H     -1.323535    0.874116   -2.129615
H      0.027003    1.654259   -1.355405
