43

C      3.519571   -0.997216   -1.153435
C      2.861085   -0.421193    0.109076
C      3.500764    0.944311    0.425356
C      3.074433   -1.405905    1.274362
O      1.463187   -0.269366   -0.175588
C      0.488821    0.263722    0.685858
O      0.790274    0.580440    1.869574
C     -0.957369    0.365865    0.190572
C     -1.591748   -1.048015    0.066576
C     -0.967743   -2.185473    0.644606
C     -1.540670   -3.454973    0.551523
C     -2.760266   -3.628439   -0.093278
C     -3.421839   -2.529457   -0.632893
C     -2.863889   -1.248229   -0.548863
N     -3.621220   -0.161152   -1.076104
C     -0.918013    1.087984   -1.213784
C     -1.547066    2.489585   -1.215082
C     -1.032446    3.302832   -0.027282
C     -1.410706    2.666388    1.323014
C     -1.808841    1.178768    1.220461
H      4.611449   -1.142677   -1.003494
H      3.368822   -0.310098   -2.013890
H      3.064110   -1.977452   -1.412189
H      4.604473    0.847820    0.514047
H      3.271535    1.670789   -0.383567
H      3.121382    1.357414    1.382079
H      2.555141   -2.365589    1.065424
H      4.157093   -1.613467    1.416132
H      2.683002   -0.997717    2.228019
H     -0.034684   -2.113774    1.183677
H     -1.038144   -4.307538    0.990337
H     -3.202289   -4.614184   -0.160617
H     -4.382910   -2.671998   -1.111518
H      0.124494    1.212544   -1.581065
H     -1.397605    0.484492   -2.011336
H     -2.655100    2.416944   -1.170925
H     -1.283262    3.011163   -2.160732
H     -1.444923    4.333629   -0.081258
H      0.074912    3.384621   -0.099857
H     -2.264702    3.226301    1.763429
H     -0.560342    2.781869    2.028602
H     -2.882583    1.144118    0.943480
H     -1.746191    0.712313    2.228570
