40

C     -4.567798    0.942773   -0.867037
C     -3.565020   -0.156765   -0.454159
C     -3.142598   -0.911638   -1.737808
C     -4.268926   -1.170166    0.474412
C     -2.376118    0.484952    0.292116
C     -2.610676    1.208407    1.481375
C     -1.560764    1.793129    2.189636
C     -0.248621    1.679205    1.731500
N      0.805476    2.272653    2.486924
C      0.020162    0.980223    0.540659
C      1.433748    0.810557    0.037477
C      2.081308   -0.430255    0.659408
C      3.489088   -0.601072    0.155746
C      3.738620   -1.335418   -1.015797
C      5.043881   -1.465349   -1.500571
C      6.105656   -0.856104   -0.826097
C      5.863473   -0.112263    0.332135
C      4.559756    0.020207    0.820358
C     -1.039301    0.378397   -0.160748
H     -4.999971    1.455357    0.017552
H     -4.065508    1.704983   -1.501336
H     -5.412901    0.509311   -1.444822
H     -2.447109   -1.744692   -1.497231
H     -2.655744   -0.222039   -2.460976
H     -4.027926   -1.354108   -2.244402
H     -3.549383   -1.945708    0.815602
H     -4.697702   -0.674391    1.370214
H     -5.103973   -1.677374   -0.056020
H     -3.611627    1.321027    1.874814
H     -1.770496    2.334768    3.103719
H      1.431149    0.712317   -1.070851
H      2.037693    1.713036    0.276344
H      1.479878   -1.332055    0.408596
H      2.087860   -0.335797    1.767772
H      2.923414   -1.804439   -1.552884
H      5.231789   -2.035482   -2.401186
H      7.115122   -0.956540   -1.203380
H      6.685640    0.364733    0.849809
H      4.384083    0.607137    1.713483
H     -0.795636   -0.171516   -1.057599
