40

C     -3.955864   -1.245386   -1.075585
C     -3.087141   -0.630990    0.048526
C     -3.970575    0.366087    0.830014
C     -2.654466   -1.778501    0.987041
C     -1.834581    0.096297   -0.483347
C     -1.515721    0.162402   -1.858920
C     -0.362062    0.814197   -2.297214
C      0.503823    1.416432   -1.384643
N      1.683975    2.055148   -1.867306
C      0.210738    1.376378   -0.008630
C      1.151440    1.966862    1.018643
C      2.015410    0.888025    1.687497
C      2.922030    0.202420    0.697644
C      2.534389   -1.009742    0.101068
C      3.355113   -1.618965   -0.852749
C      4.564163   -1.022103   -1.220300
C      4.953078    0.186898   -0.636800
C      4.134474    0.800610    0.316371
C     -0.949265    0.715276    0.427019
H     -4.319643   -0.457535   -1.770191
H     -3.382723   -2.005813   -1.648952
H     -4.848838   -1.753605   -0.650697
H     -4.902652   -0.125935    1.183630
H     -4.252638    1.223069    0.180721
H     -3.447152    0.763732    1.724312
H     -1.981977   -2.482936    0.451111
H     -2.117119   -1.396026    1.879869
H     -3.538808   -2.346451    1.349303
H     -2.142122   -0.287421   -2.614302
H     -0.137336    0.844600   -3.356282
H      0.554186    2.479524    1.803900
H      1.804375    2.745860    0.569872
H      2.631288    1.363440    2.481657
H      1.362373    0.143705    2.194244
H      1.593427   -1.475929    0.366628
H      3.051556   -2.551628   -1.310330
H      5.197627   -1.494248   -1.960028
H      5.886798    0.651140   -0.926716
H      4.440791    1.743422    0.752392
H     -1.150371    0.677691    1.489464
