40

C     -3.372826   -1.727404    0.146669
C     -2.274150   -0.815180   -0.449935
C     -2.944059    0.102471   -1.495863
C     -1.240006   -1.723385   -1.151377
C     -1.561615    0.047326    0.612339
C     -1.875812   -0.018796    1.989116
C     -1.179969    0.753168    2.921427
C     -0.153763    1.605435    2.513090
N      0.558247    2.357435    3.493412
C      0.172616    1.705439    1.149323
C      1.328748    2.559395    0.679356
C      2.668124    1.816332    0.795375
C      2.698893    0.579064   -0.066911
C      2.918775    0.686229   -1.450182
C      2.881996   -0.453545   -2.259456
C      2.620503   -1.705262   -1.695573
C      2.394622   -1.819514   -0.321358
C      2.430724   -0.682778    0.491558
C     -0.533635    0.929873    0.214973
H     -4.163296   -1.123057    0.642058
H     -3.862671   -2.327826   -0.650665
H     -2.940024   -2.440650    0.881151
H     -2.196007    0.709185   -2.047465
H     -3.658650    0.795010   -1.000607
H     -3.502448   -0.497608   -2.246846
H     -1.736410   -2.389775   -1.889708
H     -0.479279   -1.129833   -1.700149
H     -0.714532   -2.358258   -0.405465
H     -2.651259   -0.666776    2.368829
H     -1.434305    0.677813    3.971502
H      1.170397    2.877776   -0.374665
H      1.378421    3.492675    1.280392
H      2.859694    1.553608    1.858910
H      3.486415    2.500623    0.482425
H      3.107778    1.652560   -1.901024
H      3.050057   -0.365486   -3.324977
H      2.587043   -2.585615   -2.324175
H      2.182348   -2.787905    0.112768
H      2.234315   -0.783237    1.551837
H     -0.255000    1.000475   -0.828061
