40

C     -3.880446    0.581192    1.736147
C     -3.106640    0.425403    0.404704
C     -4.025659   -0.323377   -0.585283
C     -2.814845    1.841962   -0.136612
C     -1.780030   -0.346626    0.562222
C     -1.321876   -0.832427    1.808150
C     -0.105903   -1.509755    1.910645
C      0.685939   -1.722752    0.782440
N      1.932221   -2.400281    0.928782
C      0.254358   -1.259616   -0.474603
C      1.108571   -1.419230   -1.713040
C      1.858966   -0.125027   -2.058941
C      2.833908    0.263969   -0.977281
C      2.462418    1.187861    0.014649
C      3.351248    1.510530    1.044392
C      4.613055    0.911751    1.093848
C      4.987007   -0.013308    0.115156
C      4.100522   -0.340276   -0.915632
C     -0.968008   -0.574799   -0.571023
H     -4.142060   -0.412253    2.160584
H     -4.830423    1.136695    1.577473
H     -3.281856    1.152627    2.478198
H     -3.580252   -0.372870   -1.600678
H     -4.207934   -1.361750   -0.232976
H     -5.006725    0.191044   -0.678988
H     -2.355999    1.807250   -1.146774
H     -3.752218    2.434127   -0.217468
H     -2.119150    2.379565    0.543597
H     -1.885662   -0.695818    2.718537
H      0.225404   -1.865874    2.878355
H      0.455203   -1.689924   -2.570945
H      1.832636   -2.254548   -1.601094
H      2.409362   -0.273972   -3.013348
H      1.130276    0.696328   -2.236843
H      1.482398    1.648812   -0.004015
H      3.060004    2.221493    1.806689
H      5.299370    1.161472    1.892600
H      5.962207   -0.480809    0.157971
H      4.397067   -1.067606   -1.661212
H     -1.276451   -0.209185   -1.541504
