40

C     -3.136662   -1.401620   -1.464082
C     -3.516844   -0.043293   -0.826557
C     -4.734475   -0.282814    0.092694
C     -3.917988    0.914234   -1.969770
C     -2.369625    0.585589   -0.007646
C     -2.572614    1.826544    0.633888
C     -1.556408    2.431572    1.373561
C     -0.311491    1.816188    1.500341
N      0.713221    2.467903    2.248138
C     -0.079371    0.570737    0.888872
C      1.268510   -0.103954    0.979497
C      2.188802    0.378497   -0.145692
C      3.531142   -0.296030   -0.057181
C      3.752814   -1.521728   -0.707238
C      4.990373   -2.163464   -0.596704
C      6.009820   -1.592191    0.169999
C      5.792070   -0.380123    0.831009
C      4.556024    0.264970    0.723154
C     -1.101173   -0.027156    0.130535
H     -2.285975   -1.284172   -2.169843
H     -2.867411   -2.144686   -0.682477
H     -3.990789   -1.819548   -2.040300
H     -5.133109    0.669625    0.500084
H     -5.559686   -0.775715   -0.465874
H     -4.451293   -0.936192    0.946215
H     -4.715007    0.463692   -2.600399
H     -3.040935    1.131284   -2.617290
H     -4.309049    1.876614   -1.578623
H     -3.521134    2.340775    0.561382
H     -1.738785    3.388214    1.847358
H      1.736430    0.103172    1.966628
H      1.144161   -1.207500    0.910397
H      2.317654    1.481435   -0.079629
H      1.721743    0.159255   -1.131419
H      2.967917   -1.979478   -1.296650
H      5.157900   -3.105505   -1.102634
H      6.966622   -2.090844    0.255593
H      6.580004    0.057918    1.429967
H      4.396693    1.198917    1.247915
H     -0.882076   -0.971122   -0.345955
