40

C     -3.280018   -0.116896   -1.672949
C     -3.585339   -0.218839   -0.158875
C     -4.671219    0.828692    0.170606
C     -4.139474   -1.634476    0.112452
C     -2.346680    0.027402    0.728428
C     -2.474826   -0.032040    2.132987
C     -1.376162    0.173897    2.967479
C     -0.120296    0.450301    2.428044
N      0.987473    0.638469    3.306343
C      0.040677    0.534309    1.033070
C      1.394419    0.798064    0.418236
C      2.156759   -0.514140    0.211571
C      3.504724   -0.251622   -0.403875
C      4.617618    0.010497    0.412696
C      5.862459    0.286919   -0.161368
C      6.002474    0.313288   -1.551748
C      4.896823    0.067395   -2.370608
C      3.650162   -0.209436   -1.800698
C     -1.066017    0.309455    0.195634
H     -4.198291   -0.297194   -2.273357
H     -2.529230   -0.877629   -1.978180
H     -2.905383    0.896461   -1.934302
H     -5.557926    0.698151   -0.487142
H     -5.021359    0.738745    1.220048
H     -4.274197    1.856243    0.021925
H     -4.484305   -1.744260    1.161805
H     -5.007939   -1.851265   -0.546861
H     -3.355799   -2.399163   -0.079183
H     -3.428933   -0.245126    2.595215
H     -1.503321    0.113359    4.041292
H      1.271237    1.314218   -0.559753
H      1.984876    1.481004    1.067259
H      2.284027   -1.033099    1.187235
H      1.567431   -1.189823   -0.447226
H      4.520111    0.002385    1.491328
H      6.717877    0.484183    0.471735
H      6.966350    0.528708   -1.994454
H      5.004961    0.094764   -3.447190
H      2.799157   -0.388886   -2.446138
H     -0.902903    0.356983   -0.870786
