40

C     -2.120477    2.097606    0.767136
C     -2.015613    1.249986   -0.519372
C     -1.007857    1.953291   -1.461114
C     -3.385053    1.224999   -1.232168
C     -1.599605   -0.189224   -0.150182
C     -2.419369   -0.954225    0.707175
C     -2.047070   -2.238745    1.104945
C     -0.845348   -2.794585    0.666501
N     -0.471907   -4.093050    1.122592
C     -0.013663   -2.067793   -0.203848
C      1.337726   -2.601375   -0.625091
C      2.425657   -2.267717    0.407643
C      2.603999   -0.778426    0.570096
C      1.964489   -0.097163    1.620615
C      2.057963    1.294266    1.718047
C      2.789375    2.014999    0.770404
C      3.427713    1.345464   -0.277197
C      3.333678   -0.045872   -0.380839
C     -0.399751   -0.778628   -0.610826
H     -2.907361    1.710833    1.447876
H     -1.152196    2.091009    1.313575
H     -2.378270    3.151621    0.525414
H     -0.909206    1.399984   -2.420045
H     -0.008907    2.039490   -0.980464
H     -1.348430    2.983284   -1.704449
H     -3.685112    2.248431   -1.545900
H     -3.337133    0.581931   -2.137543
H     -4.184540    0.834412   -0.568726
H     -3.349633   -0.555354    1.087793
H     -2.690703   -2.797641    1.772937
H      1.624774   -2.184394   -1.615591
H      1.287892   -3.703531   -0.756741
H      2.171656   -2.737173    1.383363
H      3.386408   -2.717647    0.075557
H      1.376096   -0.640803    2.349413
H      1.556139    1.814580    2.523532
H      2.857446    3.092543    0.845023
H      3.988407    1.905616   -1.014214
H      3.816127   -0.551164   -1.208301
H      0.271657   -0.239836   -1.262495
