40

C     -1.753781   -2.000423    0.054972
C     -2.160513   -0.853941   -0.902753
C     -1.749912   -1.272633   -2.331268
C     -3.695732   -0.705364   -0.831338
C     -1.494809    0.493712   -0.554385
C     -1.767101    1.631242   -1.344440
C     -1.141254    2.852305   -1.091179
C     -0.221741    2.973251   -0.049453
N      0.432682    4.222877    0.159479
C      0.058710    1.865123    0.769593
C      1.116857    1.935146    1.848402
C      2.518549    1.650423    1.286576
C      2.615852    0.261894    0.704592
C      2.768892   -0.849761    1.549662
C      2.773677   -2.143129    1.018080
C      2.618905   -2.336150   -0.357424
C      2.461769   -1.236026   -1.204465
C      2.460296    0.058981   -0.677909
C     -0.583939    0.640429    0.517074
H     -2.048720   -1.766415    1.100764
H     -0.657758   -2.182944    0.012817
H     -2.258835   -2.949269   -0.229106
H     -0.643087   -1.343545   -2.409471
H     -2.182924   -2.262713   -2.592178
H     -2.106744   -0.543894   -3.088760
H     -4.195965   -1.676590   -1.037166
H     -4.003468   -0.361166    0.179782
H     -4.071241    0.025131   -1.577838
H     -2.457486    1.578125   -2.175046
H     -1.361121    3.705040   -1.721533
H      0.887454    1.210467    2.660544
H      1.112636    2.940544    2.321393
H      3.262477    1.757275    2.105671
H      2.775379    2.412440    0.518264
H      2.869705   -0.714240    2.619355
H      2.888684   -2.996477    1.673757
H      2.615841   -3.338245   -0.766202
H      2.332488   -1.387033   -2.268346
H      2.315503    0.901117   -1.343293
H     -0.330225   -0.195565    1.151504
