40

C     -4.078147    1.143000   -1.166176
C     -3.485327   -0.256583   -0.893336
C     -2.908021   -0.789564   -2.227007
C     -4.614386   -1.215369   -0.456333
C     -2.430388   -0.158417    0.229021
C     -2.813507    0.311027    1.504004
C     -1.886474    0.424184    2.540177
C     -0.553382    0.068131    2.338486
N      0.374600    0.211815    3.411877
C     -0.139778   -0.420070    1.085683
C      1.303359   -0.781254    0.826638
C      2.092150    0.448750    0.367674
C      3.529724    0.088253    0.106674
C      4.473977    0.143377    1.145605
C      5.802577   -0.223626    0.909558
C      6.194796   -0.656731   -0.360104
C      5.258064   -0.727605   -1.394981
C      3.928436   -0.361554   -1.163266
C     -1.074144   -0.516526    0.039601
H     -4.609179    1.542410   -0.277033
H     -3.271750    1.857018   -1.440977
H     -4.810941    1.105110   -2.001341
H     -2.493039   -1.812699   -2.098425
H     -2.113150   -0.115060   -2.612735
H     -3.700605   -0.847321   -3.004631
H     -5.150699   -0.835105    0.437973
H     -4.198029   -2.217116   -0.213965
H     -5.365481   -1.335983   -1.267032
H     -3.835878    0.600140    1.705378
H     -2.208052    0.795875    3.505238
H      1.360762   -1.572035    0.045984
H      1.764199   -1.205707    1.745193
H      1.634206    0.863429   -0.557635
H      2.039186    1.241733    1.146012
H      4.180614    0.468220    2.136279
H      6.527374   -0.175616    1.711950
H      7.223197   -0.941688   -0.540776
H      5.561481   -1.069607   -2.376024
H      3.210210   -0.429994   -1.971025
H     -0.718558   -0.871651   -0.916203
