40

C     -4.592699   -1.318644    0.253483
C     -3.586802   -0.266987   -0.263436
C     -3.246235   -0.625620   -1.730212
C     -4.255737    1.124858   -0.265255
C     -2.349341   -0.241667    0.658662
C     -2.507922    0.069226    2.026485
C     -1.412183    0.112813    2.888638
C     -0.128608   -0.157199    2.415230
N      0.973990   -0.087257    3.317091
C      0.064447   -0.487699    1.061560
C      1.445986   -0.751504    0.512051
C      2.106212    0.556087    0.064770
C      3.481887    0.292918   -0.485647
C      3.656136    0.001739   -1.849061
C      4.931124   -0.275090   -2.352416
C      6.037313   -0.272905   -1.498132
C      5.869835    0.002017   -0.138048
C      4.596616    0.279372    0.369469
C     -1.040731   -0.513975    0.192927
H     -5.474504   -1.385797   -0.420188
H     -4.113216   -2.320299    0.302231
H     -4.968363   -1.062359    1.266009
H     -2.552165    0.122692   -2.170506
H     -4.164510   -0.635832   -2.357021
H     -2.788114   -1.636307   -1.794921
H     -3.531311    1.900987   -0.594567
H     -4.627691    1.400926    0.743478
H     -5.126114    1.143369   -0.956649
H     -3.484302    0.287206    2.437032
H     -1.563701    0.362917    3.931424
H      2.076257   -1.250719    1.280048
H      1.382117   -1.449953   -0.351744
H      1.477802    1.046476   -0.711431
H      2.174003    1.257162    0.925778
H      2.805773   -0.012391   -2.519648
H      5.061077   -0.494794   -3.404231
H      7.023238   -0.488681   -1.889081
H      6.726230   -0.003248    0.523790
H      4.478743    0.481475    1.426957
H     -0.854538   -0.747047   -0.844921
