40

C      1.356273    1.184686    1.636090
C      2.318481    0.353175    0.759133
C      3.392454   -0.259235    1.690108
C      3.039685    1.286188   -0.237951
C      1.514452   -0.709786   -0.017848
C      1.732802   -2.098172    0.134837
C      0.956531   -3.027038   -0.560823
C     -0.057059   -2.603252   -1.420610
N     -0.852379   -3.577440   -2.092858
C     -0.289219   -1.229166   -1.606012
C     -1.428101   -0.734879   -2.469363
C     -2.755630   -0.706040   -1.697115
C     -2.698660    0.235500   -0.520011
C     -2.823382    1.620928   -0.715731
C     -2.704920    2.498492    0.366494
C     -2.456102    2.000664    1.648444
C     -2.324605    0.624286    1.850523
C     -2.442580   -0.256751    0.771560
C      0.497657   -0.298778   -0.907080
H      0.623017    1.746286    1.020378
H      1.917744    1.927779    2.242877
H      0.793895    0.521425    2.328466
H      3.950061    0.538746    2.227227
H      2.925042   -0.912602    2.458315
H      4.132775   -0.848340    1.106700
H      3.702418    0.696848   -0.908019
H      3.662379    2.033136    0.300740
H      2.318958    1.848791   -0.867220
H      2.493819   -2.488965    0.793254
H      1.138276   -4.085382   -0.419763
H     -1.540304   -1.390727   -3.359306
H     -1.203335    0.282005   -2.860298
H     -3.015415   -1.733671   -1.360493
H     -3.564849   -0.381024   -2.386548
H     -3.001549    2.019783   -1.706664
H     -2.799808    3.565220    0.210213
H     -2.359319    2.681636    2.484023
H     -2.122016    0.240541    2.841989
H     -2.318785   -1.319472    0.939371
H      0.291297    0.754604   -1.042513
