40

C     -3.861221    1.774829   -0.351170
C     -3.101443    0.426643   -0.381519
C     -4.033271   -0.648748    0.218959
C     -2.809589    0.086000   -1.859215
C     -1.776332    0.460570    0.408208
C     -1.307572    1.621318    1.064843
C     -0.093277    1.615186    1.752825
C      0.686349    0.460021    1.807643
N      1.931390    0.496954    2.502041
C      0.243963   -0.715182    1.171951
C      1.085053   -1.972668    1.158622
C      1.836957   -2.141792   -0.169434
C      2.824295   -1.026662   -0.400668
C      2.466462    0.088763   -1.177387
C      3.366916    1.144106   -1.350436
C      4.626816    1.095876   -0.747551
C      4.987239   -0.006633    0.032182
C      4.089103   -1.063635    0.209347
C     -0.976636   -0.701921    0.477391
H     -3.252992    2.583264   -0.811582
H     -4.810583    1.705481   -0.925734
H     -4.122408    2.058693    0.691291
H     -4.216054   -0.443421    1.295988
H     -3.598281   -1.665684    0.126843
H     -5.013210   -0.659201   -0.305930
H     -2.105019    0.827461   -2.294542
H     -2.361040   -0.923821   -1.965215
H     -3.745417    0.098693   -2.459157
H     -1.861641    2.547734    1.055709
H      0.246350    2.519965    2.241781
H      0.422045   -2.853116    1.304891
H      1.806952   -1.986401    2.003152
H      1.109720   -2.195199   -1.009397
H      2.377093   -3.113410   -0.154319
H      1.488109    0.145198   -1.638803
H      3.086174    2.001502   -1.948303
H      5.322145    1.914437   -0.881228
H      5.960993   -0.040024    0.503451
H      4.375254   -1.906828    0.825774
H     -1.293391   -1.608351   -0.021301
