40

C     -3.217370   -0.003696   -1.856599
C     -3.580703   -0.093747   -0.354630
C     -4.640518    0.991350   -0.064163
C     -4.193450   -1.488944   -0.104269
C     -2.367142    0.109731    0.577081
C     -2.548058    0.055782    1.976045
C     -1.473808    0.223822    2.849887
C     -0.190354    0.455855    2.356437
N      0.890782    0.605846    3.274377
C      0.023851    0.533241    0.968254
C      1.407344    0.749174    0.402990
C      2.130419   -0.588972    0.223333
C      3.508116   -0.374077   -0.342766
C      3.705407   -0.337994   -1.733385
C      4.980781   -0.105241   -2.257638
C      6.063971    0.102518   -1.399153
C      5.872880    0.082056   -0.014767
C      4.599188   -0.150354    0.513703
C     -1.058970    0.346568    0.091167
H     -4.119028   -0.152297   -2.489966
H     -2.798370    0.995764   -2.103717
H     -2.483032   -0.790407   -2.134802
H     -4.202687    2.004282   -0.197825
H     -5.506835    0.891394   -0.753675
H     -5.031370    0.914475    0.971858
H     -5.044503   -1.675753   -0.794728
H     -3.430555   -2.280697   -0.267760
H     -4.579706   -1.585806    0.931840
H     -3.525133   -0.123536    2.403303
H     -1.641797    0.168501    3.918357
H      1.337738    1.268623   -0.578528
H      1.997381    1.411555    1.073352
H      2.204102   -1.111362    1.202677
H      1.542110   -1.244152   -0.456741
H      2.872580   -0.488105   -2.409308
H      5.128711   -0.082437   -3.329585
H      7.050171    0.283857   -1.806557
H      6.711178    0.249816    0.648997
H      4.462475   -0.154284    1.588094
H     -0.855796    0.387647   -0.968621
