40

C     -4.606934    0.278337    1.322604
C     -3.554751    0.558378    0.227384
C     -4.210799    0.413038   -1.163006
C     -3.099970    2.030092    0.379901
C     -2.395359   -0.452156    0.357181
C     -2.661154   -1.833703    0.241331
C     -1.638060   -2.776586    0.341829
C     -0.322625   -2.371657    0.565995
N      0.704309   -3.358035    0.646210
C     -0.023752   -1.003966    0.703900
C      1.395501   -0.532553    0.912929
C      2.099450   -0.330894   -0.432262
C      3.512948    0.141750   -0.224104
C      3.794194    1.514881   -0.126860
C      5.103440    1.950971    0.099627
C      6.137247    1.020944    0.240183
C      5.862895   -0.347100    0.158672
C      4.555081   -0.787510   -0.067703
C     -1.055604   -0.056435    0.585177
H     -5.432149    1.021845    1.276341
H     -5.060911   -0.727809    1.206028
H     -4.140539    0.336292    2.329932
H     -5.022565    1.160822   -1.296334
H     -3.456367    0.569670   -1.964201
H     -4.660599   -0.592502   -1.299640
H     -2.367083    2.302572   -0.410158
H     -3.964874    2.722068    0.283301
H     -2.645778    2.202929    1.379595
H     -3.665731   -2.193287    0.065530
H     -1.871117   -3.829307    0.239982
H      1.396093    0.424879    1.479825
H      1.958118   -1.268059    1.528371
H      1.539294    0.413839   -1.040098
H      2.102992   -1.286258   -1.002089
H      3.000497    2.245292   -0.224564
H      5.315988    3.009926    0.169691
H      7.149788    1.360102    0.416769
H      6.663162   -1.066573    0.274435
H      4.353982   -1.850487   -0.119302
H     -0.788255    0.986247    0.671533
