25

N      1.782656   -2.182501    0.782336
C      1.848861   -0.808324    0.407325
C      2.671401    0.059113    1.136114
C      2.747221    1.411238    0.793990
C      2.000552    1.904028   -0.277765
C      1.177689    1.045874   -1.011784
C      1.096548   -0.318708   -0.681930
C      0.168570   -1.220868   -1.462303
C     -1.169712   -1.423678   -0.741118
C     -1.980489   -0.120045   -0.682550
C     -1.851996    0.687771    0.600885
C     -3.110623   -0.122943    0.335503
H      3.250891   -0.314238    1.971207
H      3.383126    2.078035    1.361864
H      2.056473    2.953091   -0.538143
H      0.596803    1.447279   -1.832998
H     -0.015503   -0.806224   -2.478079
H      0.652158   -2.210162   -1.612559
H     -0.990867   -1.848941    0.271474
H     -1.764096   -2.170109   -1.310053
H     -2.190266    0.455729   -1.609449
H     -1.190016    0.259488    1.383787
H     -1.979042    1.782312    0.464345
H     -3.989208    0.494494    0.052622
H     -3.201133   -1.031710    0.968614
