25

N     -1.017994   -1.723509   -2.191256
C     -1.485210   -1.073829   -1.011002
C     -2.394133   -1.739534   -0.179829
C     -2.860343   -1.128056    0.986268
C     -2.419898    0.151733    1.328560
C     -1.513780    0.824561    0.504808
C     -1.040935    0.223064   -0.675055
C     -0.029203    0.951016   -1.529754
C      1.402410    0.480646   -1.244268
C      1.851933    0.873524    0.171294
C      3.074149    0.123197    0.678093
C      1.698741   -0.198285    1.240904
H     -2.737839   -2.733911   -0.436054
H     -3.561406   -1.647824    1.626443
H     -2.778126    0.621889    2.235246
H     -1.174013    1.812181    0.791372
H     -0.258851    0.780028   -2.603612
H     -0.099222    2.049282   -1.366906
H      2.084170    0.975350   -1.968575
H      1.479653   -0.615937   -1.416644
H      1.777523    1.927739    0.514384
H      3.480866   -0.665230    0.008867
H      3.717482    0.703320    1.372891
H      1.520958    0.199908    2.262004
H      1.283066   -1.171323    0.901820
