25

N      1.984112    1.870436    1.228007
C      1.941468    0.654116    0.484944
C      2.847659   -0.367103    0.794913
C      2.820702   -1.571174    0.087436
C      1.887263   -1.761558   -0.933083
C      0.979600   -0.747801   -1.250512
C      0.999553    0.471494   -0.550238
C     -0.018333    1.538476   -0.881127
C     -1.207247    1.512519    0.087426
C     -2.037472    0.230122   -0.075163
C     -2.977475   -0.066223    1.083379
C     -1.718616   -0.897965    0.895428
H      3.572359   -0.229013    1.587576
H      3.522080   -2.358280    0.332401
H      1.864316   -2.697210   -1.476663
H      0.254951   -0.916715   -2.037470
H     -0.385672    1.417026   -1.924162
H      0.463995    2.538670   -0.835161
H     -1.865599    2.377011   -0.143578
H     -0.845237    1.644962    1.131257
H     -2.420069   -0.071169   -1.073900
H     -3.910618   -0.596096    0.797629
H     -2.929954    0.631125    1.947272
H     -1.901911   -1.914370    0.487854
H     -0.919854   -0.691279    1.639628
