25

N     -1.690608    0.871285   -1.463237
C     -1.732157    0.647977   -0.055427
C     -2.437704    1.545756    0.754908
C     -2.488538    1.356778    2.137849
C     -1.832616    0.270349    2.719328
C     -1.125600   -0.631116    1.919401
C     -1.071608   -0.457359    0.525220
C     -0.276463   -1.435475   -0.310000
C      1.229529   -1.147847   -0.254597
C      1.572849    0.205688   -0.896264
C      2.970198    0.304067   -1.489209
C      1.761308    0.188151   -2.405332
H     -2.946120    2.393376    0.312540
H     -3.034779    2.054460    2.759429
H     -1.869970    0.127453    3.791569
H     -0.617266   -1.465637    2.386705
H     -0.619385   -1.436788   -1.366840
H     -0.454320   -2.463942    0.073464
H      1.570681   -1.137466    0.802886
H      1.762587   -1.981881   -0.762896
H      1.183103    1.151370   -0.462665
H      3.592296   -0.615542   -1.446888
H      3.413398    1.321890   -1.460615
H      1.657849   -0.802296   -2.898184
H      1.483339    1.136750   -2.911146
