25

N     -1.127136    1.909192   -0.920162
C     -1.610747    0.911113   -0.023773
C     -2.508533    1.280711    0.985114
C     -2.992323    0.326019    1.882498
C     -2.579994   -1.003542    1.778055
C     -1.684161   -1.382480    0.774918
C     -1.194249   -0.433618   -0.139680
C     -0.205793   -0.870231   -1.197457
C      1.215365   -1.006195   -0.635690
C      1.778584    0.349805   -0.182121
C      3.293373    0.473863   -0.244325
C      2.428554    1.188609   -1.271640
H     -2.830643    2.310597    1.075700
H     -3.685512    0.617648    2.660930
H     -2.953076   -1.741386    2.476554
H     -1.369569   -2.416970    0.711087
H     -0.202432   -0.170960   -2.060884
H     -0.522495   -1.856926   -1.600625
H      1.857034   -1.467795   -1.418827
H      1.210396   -1.698493    0.233470
H      1.298808    0.911756    0.647486
H      3.732965    1.150676    0.518479
H      3.845719   -0.400135   -0.651152
H      2.457307    0.734081   -2.285129
H      2.348559    2.284657   -1.112825
