25

N      0.961274    1.727596    1.462309
C      1.601363    0.695363    0.715116
C      2.760020    0.101578    1.230282
C      3.403365   -0.917521    0.524335
C      2.891186   -1.350633   -0.699905
C      1.735340   -0.764689   -1.222490
C      1.081077    0.266827   -0.526220
C     -0.182320    0.862334   -1.105676
C     -1.405501   -0.029631   -0.856605
C     -1.734704   -0.136325    0.640690
C     -3.198675   -0.393666    0.963887
C     -2.596714    0.982453    1.204946
H      3.161950    0.428791    2.181062
H      4.298249   -1.373456    0.927825
H      3.388944   -2.142964   -1.243916
H      1.347529   -1.116128   -2.170801
H     -0.371779    1.879940   -0.701802
H     -0.051885    0.985157   -2.203087
H     -1.212511   -1.049830   -1.252454
H     -2.263459    0.387430   -1.429411
H     -1.013228   -0.601493    1.345918
H     -3.896940   -0.434279    0.100587
H     -3.370968   -0.975345    1.894051
H     -2.927289    1.756492    0.479577
H     -2.404323    1.212001    2.274179
