25

N      0.534728   -1.927280   -1.640248
C     -0.630781   -1.242853   -1.185929
C     -1.601270   -0.859625   -2.119494
C     -2.747858   -0.178386   -1.704886
C     -2.930447    0.125379   -0.354734
C     -1.967713   -0.252415    0.584718
C     -0.811653   -0.944406    0.182770
C      0.229930   -1.303602    1.218071
C      1.112399   -0.102049    1.578272
C      2.003847    0.316865    0.399649
C      2.591077    1.715199    0.516256
C      1.469493    1.442959   -0.473567
H     -1.465501   -1.087296   -3.169409
H     -3.494092    0.116645   -2.431235
H     -3.817490    0.657228   -0.035730
H     -2.120274   -0.001477    1.627261
H     -0.283537   -1.654595    2.139786
H      0.865079   -2.149136    0.876787
H      1.775470   -0.394417    2.420321
H      0.474805    0.736472    1.937873
H      2.665717   -0.424098   -0.097747
H      2.275249    2.310629    1.399758
H      3.586808    1.839736    0.040655
H      0.486399    1.867150   -0.176690
H      1.799614    1.393370   -1.532507
