25

N      1.791333   -2.326303    0.432399
C      1.865996   -0.913654    0.252873
C      2.780045   -0.176213    1.015004
C      2.866613    1.209676    0.863814
C      2.039383    1.866253   -0.049208
C      1.124841    1.138755   -0.815154
C      1.031409   -0.257569   -0.677282
C      0.006473   -1.019961   -1.484933
C     -1.264514   -1.301172   -0.673895
C     -2.024446   -0.005460   -0.351607
C     -1.751407    0.604986    1.015551
C     -3.054407   -0.135813    0.760079
H      3.422664   -0.677260    1.728142
H      3.573531    1.775368    1.456879
H      2.104120    2.940826   -0.161243
H      0.483040    1.665564   -1.510509
H      0.442210   -1.985518   -1.821063
H     -0.258221   -0.458970   -2.408425
H     -1.932784   -1.946305   -1.283291
H     -1.005647   -1.872051    0.245483
H     -2.301214    0.702476   -1.162074
H     -1.855793    1.709859    1.049683
H     -1.033381    0.055705    1.661541
H     -3.114401   -1.125091    1.262669
H     -3.935443    0.531872    0.654568
