25

N     -0.368310   -2.370923   -0.098841
C     -1.312231   -1.302039   -0.095007
C     -2.530208   -1.472900    0.574170
C     -3.470103   -0.440127    0.601878
C     -3.197293    0.770445   -0.037492
C     -1.984685    0.950983   -0.707861
C     -1.032030   -0.082238   -0.749820
C      0.281594    0.153733   -1.460648
C      1.259432    0.970648   -0.606080
C      1.685941    0.205401    0.656497
C      3.061516    0.565606    1.196726
C      2.848758   -0.758657    0.478923
H     -2.748306   -2.407311    1.076096
H     -4.409593   -0.577534    1.121488
H     -3.925236    1.571040   -0.011921
H     -1.785952    1.898285   -1.193970
H      0.756622   -0.804684   -1.761088
H      0.085869    0.710058   -2.403305
H      0.781586    1.925754   -0.299198
H      2.138859    1.231511   -1.235904
H      0.937954   -0.067255    1.431383
H      3.165974    0.465540    2.297743
H      3.645913    1.306344    0.610031
H      3.295812   -0.801616   -0.537383
H      2.818115   -1.640062    1.153584
