25

N      0.436316    0.575008    3.067640
C      1.134194    0.643857    1.826027
C      1.961768    1.743350    1.568357
C      2.649570    1.838312    0.356352
C      2.513180    0.835414   -0.605215
C      1.690488   -0.266298   -0.356758
C      0.997020   -0.377462    0.861524
C      0.079874   -1.556158    1.092930
C     -1.384620   -1.204907    0.802875
C     -1.610710   -0.924198   -0.690549
C     -2.907724   -0.195820   -1.008162
C     -1.580577    0.539713   -1.105719
H      2.070072    2.527497    2.307246
H      3.286557    2.691350    0.161301
H      3.042716    0.913268   -1.545959
H      1.587485   -1.029454   -1.118299
H      0.387261   -2.419301    0.461971
H      0.168759   -1.894164    2.147917
H     -1.699606   -0.348808    1.440094
H     -2.015593   -2.074246    1.086172
H     -1.291014   -1.661696   -1.457712
H     -3.527299    0.109476   -0.137645
H     -3.351587   -0.450623   -1.993663
H     -1.230947    0.710715   -2.145581
H     -1.405583    1.275175   -0.291457
