25

N      1.227545    2.748708    0.094515
C      1.584503    1.383133    0.297396
C      2.438422    1.050981    1.356002
C      2.796352   -0.280313    1.580895
C      2.301975   -1.287060    0.749590
C      1.450100   -0.965307   -0.310173
C      1.086441    0.371467   -0.551509
C      0.130607    0.692913   -1.677157
C     -1.308596    0.858423   -1.173602
C     -1.878424   -0.469586   -0.652145
C     -3.120520   -0.328331    0.214397
C     -1.787821   -0.689364    0.851115
H      2.823252    1.825351    2.007794
H      3.455208   -0.531991    2.401892
H      2.576149   -2.318687    0.928548
H      1.066924   -1.760071   -0.938249
H      0.449131    1.632699   -2.177650
H      0.163260   -0.101393   -2.455374
H     -1.940913    1.190563   -2.024485
H     -1.347739    1.659910   -0.402721
H     -1.854734   -1.381355   -1.286779
H     -3.829922   -1.180081    0.147831
H     -3.455025    0.709051    0.430751
H     -1.701041   -1.754931    1.150846
H     -1.325135    0.132663    1.438275
