25

N      1.251623    1.842495    1.947032
C      1.619067    1.001097    0.855971
C      2.588847    1.444459   -0.051282
C      2.960122    0.642543   -1.133009
C      2.363439   -0.606480   -1.314471
C      1.395469   -1.058108   -0.413704
C      1.016621   -0.263533    0.682923
C     -0.062312   -0.752861    1.621268
C     -1.430971   -0.150545    1.280300
C     -1.946136   -0.656262   -0.075831
C     -3.076616    0.169228   -0.671003
C     -1.681245    0.249912   -1.269559
H      3.053797    2.413555    0.080063
H      3.708906    0.990833   -1.832646
H      2.648527   -1.224274   -2.156203
H      0.934796   -2.024753   -0.575979
H      0.202675   -0.480754    2.665724
H     -0.127725   -1.863112    1.595273
H     -1.372815    0.960091    1.316045
H     -2.156256   -0.466286    2.060309
H     -2.004463   -1.745737   -0.286279
H     -3.795702   -0.409129   -1.288725
H     -3.375100    1.077170   -0.104054
H     -1.568341   -0.288940   -2.233767
H     -1.146207    1.199392   -1.053249
