25

N     -0.734451    0.928482   -2.083262
C     -1.499454    0.388803   -1.007588
C     -2.664161   -0.332646   -1.296438
C     -3.428822   -0.879631   -0.263526
C     -3.032690   -0.710504    1.064306
C     -1.871818    0.007506    1.363050
C     -1.095989    0.569594    0.333959
C      0.168968    1.318414    0.688532
C      1.333391    0.367735    0.995327
C      1.750471   -0.437746   -0.245196
C      3.208233   -0.871291   -0.274223
C      2.731152    0.254853   -1.178855
H     -2.976632   -0.471940   -2.323847
H     -4.327824   -1.437065   -0.492809
H     -3.624520   -1.138053    1.863303
H     -1.575043    0.124696    2.398138
H     -0.023074    1.943930    1.587563
H      0.462323    2.022014   -0.119801
H      2.181710    0.971110    1.388325
H      1.036881   -0.341732    1.797529
H      1.042898   -1.150627   -0.719915
H      3.395445   -1.825993   -0.809642
H      3.843368   -0.530634    0.571381
H      2.627375   -0.034143   -2.245939
H      3.072264    1.264870   -0.865663
