22

C     -0.931430    1.203285    1.767614
C     -1.963870    0.528764    1.253169
C     -2.167390    0.400077   -0.232865
C     -1.399053   -0.791246   -0.822278
C      0.096916   -0.572503   -0.803119
C      0.679181    0.269762   -1.766697
C      2.055091    0.512708   -1.757417
C      2.863650   -0.078389   -0.785091
C      2.298284   -0.913092    0.181512
C      0.920658   -1.163144    0.180716
N      0.369987   -2.009746    1.187415
H     -0.816740    1.282254    2.843628
H     -0.197096    1.678679    1.124320
H     -2.686946    0.074955    1.924388
H     -3.250978    0.238448   -0.418205
H     -1.885409    1.343944   -0.749575
H     -1.680327   -1.722442   -0.284987
H     -1.725031   -0.933531   -1.875802
H      0.064792    0.741072   -2.524028
H      2.494391    1.162039   -2.503654
H      3.929065    0.112236   -0.778886
H      2.932253   -1.364130    0.934670
