22

C     -2.042501    0.456296   -1.328037
C     -2.267230   -0.721969   -0.739180
C     -1.840024   -0.995958    0.678106
C     -0.391267   -1.497296    0.760335
C      0.607991   -0.416961    0.413207
C      0.905084    0.573942    1.365454
C      1.803611    1.600505    1.063701
C      2.411870    1.651717   -0.191680
C      2.122245    0.677161   -1.149307
C      1.223503   -0.355816   -0.856732
N      0.937913   -1.329635   -1.858497
H     -1.534804    1.257987   -0.800203
H     -2.368522    0.623606   -2.349269
H     -2.788088   -1.498769   -1.291093
H     -2.503354   -1.786610    1.089809
H     -1.979318   -0.091505    1.310522
H     -0.265586   -2.390577    0.111351
H     -0.196839   -1.842145    1.799419
H      0.436811    0.552047    2.341876
H      2.026580    2.358507    1.803432
H      3.106568    2.448577   -0.423836
H      2.595356    0.726894   -2.122082
