22

C      3.802107    0.013141    0.053645
C      2.906189   -0.961586    0.235194
C      1.457939   -0.663864    0.509610
C      0.756426   -0.117630   -0.739103
C     -0.702928    0.143355   -0.456506
C     -1.648461   -0.866193   -0.708581
C     -3.000928   -0.655806   -0.426453
C     -3.421799    0.558716    0.118695
C     -2.490652    1.564622    0.387751
C     -1.133435    1.363117    0.108717
N     -0.201077    2.400153    0.406857
H      4.843100   -0.233297   -0.128116
H      3.506939    1.057494    0.088776
H      3.237671   -1.995617    0.215489
H      1.380868    0.064868    1.346225
H      0.957505   -1.604803    0.826503
H      0.855458   -0.851374   -1.569688
H      1.249692    0.819066   -1.077792
H     -1.337707   -1.817514   -1.122716
H     -3.722910   -1.436685   -0.627686
H     -4.469617    0.718981    0.337564
H     -2.824381    2.500856    0.817530
