22

C     -4.038489   -0.309631   -0.555709
C     -2.993886   -0.095771    0.247647
C     -1.589173   -0.121413   -0.289894
C     -0.566439    0.151192    0.817625
C      0.837220    0.125755    0.263230
C      1.420720    1.318894   -0.198058
C      2.707804    1.313291   -0.742461
C      3.421025    0.117103   -0.841307
C      2.847243   -1.077727   -0.400411
C      1.558189   -1.082249    0.146277
N      0.989453   -2.317733    0.574824
H     -3.897188   -0.506642   -1.614287
H     -5.046360   -0.288205   -0.154032
H     -3.173733    0.098161    1.301905
H     -1.490230    0.652374   -1.082818
H     -1.392198   -1.119025   -0.740258
H     -0.672087   -0.605893    1.625140
H     -0.772368    1.143737    1.276579
H      0.877712    2.254065   -0.137229
H      3.151255    2.237037   -1.091131
H      4.417247    0.114927   -1.264447
H      3.404281   -2.002246   -0.487570
