22

C      3.749883   -0.365693    0.549983
C      2.880426   -1.055838   -0.193970
C      1.523215   -0.507098   -0.537819
C      0.605355   -0.484732    0.689702
C     -0.762150    0.036033    0.320348
C     -1.766443   -0.868651   -0.066565
C     -3.030689   -0.405319   -0.440773
C     -3.302300    0.964210   -0.442390
C     -2.308867    1.874669   -0.074381
C     -1.039112    1.420079    0.301877
N     -0.037912    2.370877    0.658535
H      3.496494    0.615368    0.940290
H      4.727583   -0.782335    0.768958
H      3.172729   -2.025051   -0.587261
H      1.068919   -1.152641   -1.320831
H      1.632374    0.517007   -0.957592
H      1.048227    0.148326    1.488778
H      0.518765   -1.513159    1.105514
H     -1.569696   -1.933643   -0.079693
H     -3.799539   -1.108871   -0.733019
H     -4.281787    1.320863   -0.733787
H     -2.525476    2.935600   -0.085529
