22

C      3.787968    0.323184    0.080423
C      2.989287   -0.645879   -0.376464
C      1.538551   -0.724074    0.011634
C      0.724923    0.393565   -0.650687
C     -0.733296    0.280328   -0.278579
C     -1.602512   -0.458015   -1.100816
C     -2.950138   -0.600044   -0.759121
C     -3.441346   -0.016049    0.410088
C     -2.585187    0.707658    1.243462
C     -1.233416    0.855291    0.909666
N     -0.377070    1.586007    1.785080
H      3.407857    1.095269    0.742564
H      4.834357    0.344420   -0.206032
H      3.405512   -1.415528   -1.019805
H      1.137989   -1.708698   -0.314379
H      1.446729   -0.665215    1.118441
H      1.117501    1.387351   -0.344594
H      0.839355    0.329312   -1.755601
H     -1.235850   -0.925178   -2.006579
H     -3.613488   -1.166399   -1.400006
H     -4.485167   -0.128414    0.673382
H     -2.972558    1.151107    2.152262
