22

C     -2.200162    0.507203    1.000479
C     -2.412733   -0.558689    0.223143
C     -1.761089   -0.700145   -1.126533
C     -0.368447   -1.339637   -1.033812
C      0.638589   -0.423440   -0.376087
C      1.184646    0.639695   -1.116690
C      2.096653    1.519209   -0.527677
C      2.470341    1.350032    0.806609
C      1.932005    0.301560    1.556002
C      1.017596   -0.585391    0.975010
N      0.475302   -1.639002    1.768256
H     -1.540179    1.308845    0.682883
H     -2.690058    0.581361    1.965725
H     -3.087886   -1.337326    0.565505
H     -2.403003   -1.358524   -1.750328
H     -1.707670    0.284988   -1.640390
H     -0.437261   -2.314331   -0.504510
H     -0.019151   -1.572682   -2.063424
H      0.900223    0.788461   -2.151160
H      2.512194    2.334319   -1.105955
H      3.175930    2.033301    1.261331
H      2.224160    0.180191    2.591624
