22

C      3.733437    0.647110    0.223574
C      3.047145   -0.357422   -0.329274
C      1.589884   -0.223653   -0.675488
C      0.719386   -0.193104    0.585891
C     -0.741433   -0.093215    0.220215
C     -1.498253   -1.267848    0.064582
C     -2.844933   -1.198866   -0.302459
C     -3.446744    0.040727   -0.527443
C     -2.702246    1.214735   -0.390689
C     -1.352350    1.155784   -0.023530
N     -0.610526    2.367971    0.094472
H      3.253067    1.594035    0.450745
H      4.787921    0.525049    0.448520
H      3.562223   -1.284298   -0.563984
H      1.434114    0.699969   -1.275134
H      1.293977   -1.093579   -1.301496
H      0.898010   -1.116179    1.180941
H      1.007630    0.665188    1.230616
H     -1.044563   -2.237944    0.226348
H     -3.421539   -2.107825   -0.415787
H     -4.489555    0.091687   -0.812853
H     -3.174652    2.171679   -0.574293
