22

C     -2.052145    0.612899    1.269147
C     -2.380208   -0.480752    0.574980
C     -1.898838   -0.701186   -0.834264
C     -0.519675   -1.374285   -0.877238
C      0.579196   -0.457605   -0.389058
C      1.055694    0.555341   -1.239832
C      2.051178    1.434920   -0.806714
C      2.578727    1.315971    0.480191
C      2.111274    0.317850    1.338056
C      1.114202   -0.568723    0.913538
N      0.647975   -1.569878    1.815613
H     -1.417505    1.380692    0.836944
H     -2.420687    0.744243    2.281135
H     -3.026411   -1.224032    1.032443
H     -2.625526   -1.369022   -1.344711
H     -1.885746    0.257821   -1.397753
H     -0.545954   -2.321738   -0.297095
H     -0.301945   -1.663304   -1.928656
H      0.652338    0.664989   -2.239051
H      2.412155    2.211164   -1.469002
H      3.348846    1.999241    0.814176
H      2.523054    0.235393    2.336172
