25

N     -1.983778   -2.498654    0.510547
C     -1.960113   -1.072898    0.516301
C     -2.794075   -0.379892    1.402027
C     -2.782516    1.016553    1.433494
C     -1.936541    1.728006    0.580712
C     -1.101900    1.045300   -0.307803
C     -1.108296   -0.360187   -0.354490
C     -0.166433   -1.079315   -1.293167
C      1.109816   -1.542826   -0.578340
C      1.929707   -0.382220   -0.097626
C      1.911913    0.169972    1.165465
C      2.762731    1.254437    1.104460
O      3.258238    1.364670   -0.108413
C      2.773460    0.400892   -0.857455
H     -3.450146   -0.924162    2.069803
H     -3.427538    1.547435    2.121669
H     -1.924598    2.809867    0.610504
H     -0.443435    1.612646   -0.954065
H     -0.678605   -1.964462   -1.728080
H      0.104642   -0.423857   -2.150305
H      1.720303   -2.144159   -1.285815
H      0.850061   -2.200791    0.279090
H      1.338530   -0.164124    2.020106
H      2.993071    1.925219    1.921188
H      3.005501    0.262549   -1.905164
