25

N     -1.477658   -2.450066    0.122788
C     -2.087899   -1.161189    0.124688
C     -3.465886   -1.058191   -0.101248
C     -4.084864    0.193942   -0.119403
C     -3.329196    1.350309    0.083533
C     -1.953303    1.257611    0.310034
C     -1.320405    0.002689    0.345821
C      0.171575   -0.070854    0.559568
C      0.908796   -0.066737   -0.782218
C      2.389351   -0.140811   -0.569252
C      3.246563    0.921129   -0.375708
C      4.485660    0.356762   -0.150938
O      4.392489   -0.954164   -0.191341
C      3.145239   -1.286708   -0.433799
H     -4.057952   -1.949581   -0.267094
H     -5.150148    0.268198   -0.295935
H     -3.809326    2.320121    0.061974
H     -1.380289    2.165024    0.456279
H      0.431047   -0.988402    1.131655
H      0.508504    0.795750    1.170903
H      0.583965   -0.935280   -1.395679
H      0.665294    0.862300   -1.342770
H      3.000153    1.974633   -0.386822
H      5.403352    0.897881    0.036605
H      2.784939   -2.304366   -0.507259
