25

N      1.520363   -1.029940   -2.600210
C      1.748250   -0.375640   -1.353883
C      2.711659    0.637667   -1.280975
C      2.946893    1.300202   -0.073956
C      2.219723    0.954416    1.066537
C      1.257396   -0.056620    1.004022
C      1.015127   -0.736198   -0.203078
C     -0.060313   -1.797197   -0.258541
C     -1.381180   -1.244213   -0.810036
C     -1.972443   -0.208342    0.099740
C     -1.828202    1.158558   -0.007073
C     -2.475960    1.683466    1.092274
O     -2.972505    0.710351    1.823869
C     -2.682633   -0.439536    1.259356
H      3.277062    0.914913   -2.161903
H      3.691205    2.084376   -0.023489
H      2.399155    1.472792    1.999566
H      0.694206   -0.304107    1.895467
H      0.277700   -2.636106   -0.904244
H     -0.231690   -2.230983    0.751535
H     -2.104373   -2.080951   -0.918098
H     -1.221374   -0.810162   -1.820798
H     -1.302805    1.705019   -0.779174
H     -2.565447    2.734355    1.332420
H     -2.959816   -1.406122    1.658808
