25

N     -1.267697   -1.901087   -1.719528
C     -1.971515   -1.138906   -0.741102
C     -3.366432   -1.047607   -0.820952
C     -4.077678   -0.294757    0.116409
C     -3.398237    0.374768    1.135963
C     -2.006136    0.289434    1.224018
C     -1.279515   -0.477119    0.296071
C      0.225602   -0.528190    0.391545
C      0.857393    0.570850   -0.466852
C      2.351133    0.518750   -0.372423
C      3.137977    1.145179    0.570154
C      4.429473    0.743428    0.296242
O      4.432612   -0.078151   -0.730324
C      3.199289   -0.240163   -1.151833
H     -3.900392   -1.557591   -1.613050
H     -5.155786   -0.226218    0.049385
H     -3.950391    0.963478    1.857121
H     -1.493804    0.822553    2.015491
H      0.541236   -0.399408    1.450810
H      0.595843   -1.524377    0.064381
H      0.503090    1.567365   -0.123279
H      0.553732    0.443752   -1.528854
H      2.812718    1.804402    1.364093
H      5.315259    1.046171    0.838338
H      2.912225   -0.876557   -1.978533
