25

N     -0.895657   -0.089337    3.259123
C     -1.395114    0.177950    1.950509
C     -2.348633    1.188369    1.776962
C     -2.846449    1.475730    0.503861
C     -2.393139    0.755593   -0.602928
C     -1.442991   -0.255685   -0.439493
C     -0.938337   -0.559745    0.837410
C      0.120399   -1.628617    0.985603
C      1.532093   -1.030379    1.047760
C      1.906935   -0.356919   -0.239195
C      1.792631    0.986262   -0.528046
C      2.179264    1.112836   -1.846443
O      2.498034   -0.066416   -2.332744
C      2.339609   -0.972462   -1.395234
H     -2.702381    1.754548    2.629540
H     -3.581811    2.259355    0.374817
H     -2.775592    0.983494   -1.589461
H     -1.093685   -0.796507   -1.310476
H     -0.066276   -2.211028    1.913451
H      0.060951   -2.354693    0.144727
H      2.259649   -1.845395    1.250802
H      1.602986   -0.304671    1.886748
H      1.454030    1.773453    0.132620
H      2.214685    2.035380   -2.410099
H      2.518798   -2.031115   -1.528752
