25

N     -1.487144   -0.445202    2.740023
C     -1.733812   -0.088982    1.381483
C     -2.717111    0.865255    1.093709
C     -2.971094    1.238122   -0.228276
C     -2.242907    0.660173   -1.269809
C     -1.260785   -0.294185   -0.992664
C     -0.999441   -0.683524    0.333130
C      0.096709   -1.686130    0.613490
C      1.409244   -1.000697    1.016062
C      1.975769   -0.182982   -0.106750
C      1.805475    1.170585   -0.305462
C      2.437491    1.449048   -1.499903
O      2.949285    0.346510   -2.001119
C      2.684623   -0.653821   -1.192273
H     -3.283495    1.321502    1.895974
H     -3.730768    1.977932   -0.445184
H     -2.436946    0.954528   -2.293116
H     -0.697240   -0.723804   -1.811783
H      0.271552   -2.330776   -0.276258
H     -0.221742   -2.366129    1.432723
H      2.149109   -1.779297    1.301013
H      1.245967   -0.355425    1.906311
H      1.273332    1.865747    0.330441
H      2.505330    2.421519   -1.968672
H      2.978599   -1.679967   -1.369142
