25

N     -2.174788   -1.991541    1.359528
C     -2.049166   -0.877273    0.478622
C     -3.055931    0.095535    0.460547
C     -2.951645    1.201257   -0.386615
C     -1.840015    1.341364   -1.219514
C     -0.831016    0.374929   -1.209731
C     -0.926515   -0.746500   -0.366587
C      0.196807   -1.757863   -0.340931
C      1.164255   -1.508442    0.823742
C      1.886571   -0.202068    0.675561
C      1.533732    1.002014    1.246808
C      2.441352    1.919899    0.759582
O      3.282552    1.324762   -0.057078
C      2.973617    0.050623   -0.134996
H     -3.919389   -0.003356    1.106491
H     -3.731626    1.951611   -0.395117
H     -1.757991    2.201725   -1.871053
H      0.030004    0.505308   -1.853746
H     -0.226050   -2.781198   -0.246432
H      0.758479   -1.740288   -1.301143
H      1.911944   -2.329989    0.852673
H      0.613080   -1.526276    1.788867
H      0.708738    1.192402    1.920557
H      2.466426    2.974303    0.999694
H      3.496575   -0.670939   -0.748627
