25

N     -1.506626   -2.308970    0.660865
C     -2.105200   -1.065679    0.300958
C     -3.440573   -0.825661    0.646898
C     -4.045338    0.390126    0.319146
C     -3.317360    1.374481   -0.352036
C     -1.984086    1.144077   -0.701716
C     -1.367879   -0.080888   -0.391211
C      0.082227   -0.294744   -0.749759
C      0.990780    0.119209    0.410875
C      2.429654   -0.094412    0.054650
C      3.259021    0.798974   -0.588774
C      4.454500    0.131585   -0.761441
O      4.360853   -1.084924   -0.271369
C      3.155084   -1.255902    0.220454
H     -4.009963   -1.580854    1.174246
H     -5.077461    0.571239    0.590123
H     -3.785484    2.318665   -0.598808
H     -1.430907    1.921812   -1.213819
H      0.258989   -1.361948   -1.007313
H      0.339516    0.301405   -1.653448
H      0.828435    1.192630    0.651779
H      0.745716   -0.478610    1.315733
H      3.021604    1.806939   -0.902382
H      5.341962    0.533508   -1.231558
H      2.802536   -2.172058    0.675650
