25

N     -1.699612   -1.119969   -2.481013
C     -1.818233   -0.318706   -1.307439
C     -2.662184    0.798283   -1.325924
C     -2.788333    1.604440   -0.192178
C     -2.070793    1.299312    0.965886
C     -1.227370    0.185763    0.994481
C     -1.096111   -0.638040   -0.137657
C     -0.145589   -1.812925   -0.098692
C      1.211465   -1.471621   -0.728410
C      1.938841   -0.419990    0.056004
C      1.942400    0.936011   -0.192754
C      2.675327    1.495959    0.833380
O      3.083047    0.554317    1.655459
C      2.652587   -0.608044    1.221220
H     -3.219004    1.044425   -2.221440
H     -3.440380    2.468094   -0.212421
H     -2.165231    1.928371    1.841570
H     -0.669171   -0.029631    1.897329
H     -0.592097   -2.670981   -0.645797
H      0.006298   -2.156234    0.948619
H      1.835082   -2.390832   -0.759510
H      1.071081   -1.129383   -1.776621
H      1.458033    1.455040   -1.009331
H      2.886466    2.549368    0.959081
H      2.833479   -1.553028    1.716159
