25

N      1.761800   -2.671360    0.241159
C      1.876624   -1.252019    0.165962
C      2.881911   -0.608739    0.897979
C      3.009203    0.781414    0.848463
C      2.131729    1.536365    0.067975
C      1.126404    0.903261   -0.667329
C      0.991157   -0.496043   -0.631706
C     -0.130035   -1.156584   -1.401109
C     -1.340769   -1.452651   -0.506069
C     -1.975193   -0.192815    0.004450
C     -1.739615    0.412027    1.220715
C     -2.482562    1.574523    1.203067
O     -3.119106    1.679456    0.057406
C     -2.831391    0.637429   -0.688477
H      3.563970   -1.186494    1.509189
H      3.786646    1.274011    1.418029
H      2.228102    2.613909    0.035353
H      0.447016    1.505182   -1.258290
H     -0.446194   -0.516759   -2.254607
H      0.233284   -2.108881   -1.843922
H     -1.035983   -2.093798    0.349275
H     -2.093457   -2.019683   -1.094924
H     -1.094542    0.060178    2.014996
H     -2.538625    2.302288    2.001354
H     -3.210376    0.475785   -1.688938
