25

N     -1.601782   -0.756711    2.675833
C     -1.760978   -0.108672    1.415645
C     -2.584204    1.020419    1.327823
C     -2.749000    1.678544    0.106801
C     -2.091010    1.212492   -1.032899
C     -1.268718    0.085541   -0.955512
C     -1.099184   -0.590398    0.265953
C     -0.171433   -1.781911    0.336238
C      1.218838   -1.394120    0.857193
C      1.926821   -0.467466   -0.086409
C      1.964710    0.908727   -0.013700
C      2.658787    1.316955   -1.134094
O      3.012182    0.269462   -1.845857
C      2.582719   -0.818226   -1.247999
H     -3.094809    1.390956    2.207917
H     -3.384749    2.552300    0.044775
H     -2.215194    1.727090   -1.976944
H     -0.756564   -0.255468   -1.846870
H     -0.606594   -2.553123    1.007671
H     -0.073922   -2.258930   -0.664131
H      1.827632   -2.315796    0.978439
H      1.132841   -0.918319    1.858091
H      1.527386    1.538179    0.750066
H      2.881608    2.340787   -1.402728
H      2.724617   -1.822311   -1.625301
