25

N     -2.170600   -2.363654    0.268453
C     -2.054274   -0.944058    0.336170
C     -2.940885   -0.224346    1.146229
C     -2.841544    1.166015    1.236832
C     -1.854796    1.844573    0.519224
C     -0.966505    1.135176   -0.293099
C     -1.059503   -0.264052   -0.398573
C     -0.061378   -1.015599   -1.249625
C      1.087033   -1.591081   -0.410219
C      1.917946   -0.507531    0.210922
C      1.785521    0.001970    1.485090
C      2.706847    1.025576    1.569158
O      3.349985    1.141341    0.428232
C      2.896059    0.239516   -0.411770
H     -3.706406   -0.743343    1.709437
H     -3.527993    1.717461    1.866249
H     -1.775520    2.921330    0.595141
H     -0.199669    1.676292   -0.833718
H      0.352683   -0.352429   -2.041174
H     -0.574836   -1.847620   -1.777883
H      1.736952   -2.209715   -1.065743
H      0.683982   -2.257539    0.382852
H      1.093376   -0.319532    2.252145
H      2.881392    1.650856    2.434380
H      3.242132    0.120394   -1.429966
