25

N      1.560346    2.262645   -0.825871
C      2.123565    1.092016   -0.237642
C      3.501144    0.867518   -0.348920
C      4.074819   -0.279146    0.205478
C      3.274085   -1.210019    0.870082
C      1.898218   -0.994563    0.986472
C      1.310391    0.162703    0.446228
C     -0.181891    0.358142    0.555754
C     -0.892211   -0.218623   -0.671715
C     -2.373034   -0.023223   -0.562759
C     -3.271664   -0.870855    0.048770
C     -4.493761   -0.235891   -0.038953
O     -4.352551    0.920800   -0.648022
C     -3.089582    1.082925   -0.969936
H      4.128129    1.580722   -0.869353
H      5.140019   -0.448698    0.115431
H      3.719274   -2.101458    1.292770
H      1.290084   -1.731213    1.497008
H     -0.419353    1.439691    0.657570
H     -0.561807   -0.142701    1.473944
H     -0.671415   -1.305047   -0.758620
H     -0.524223    0.283263   -1.593080
H     -3.063276   -1.827232    0.509886
H     -5.433900   -0.617235    0.336354
H     -2.691405    1.955479   -1.470875
