25

N     -1.694969    2.291895    0.332063
C     -2.181771    0.951812    0.303803
C     -3.548831    0.726435    0.101674
C     -4.048223   -0.577293    0.054739
C     -3.183307   -1.663006    0.204898
C     -1.817353   -1.448095    0.407288
C     -1.303975   -0.140821    0.471691
C      0.179015    0.066357    0.658550
C      0.883052    0.172733   -0.696779
C      2.354569    0.379596   -0.510398
C      3.311593   -0.602158   -0.368068
C      4.497103    0.069454   -0.149208
O      4.280677    1.366367   -0.145258
C      3.002650    1.587015   -0.352540
H     -4.225279    1.562748   -0.023297
H     -5.105605   -0.746125   -0.103209
H     -3.570979   -2.672616    0.161061
H     -1.158817   -2.301547    0.512536
H      0.609176   -0.782947    1.234652
H      0.364334    0.986332    1.255042
H      0.715111   -0.757599   -1.282353
H      0.464607    1.025075   -1.275256
H      3.164749   -1.673376   -0.408541
H      5.465408   -0.388151    0.002842
H      2.547063    2.567913   -0.385931
