25

N      1.979811   -2.261045   -1.257561
C      1.976570   -0.994028   -0.603323
C      2.979196   -0.065637   -0.908437
C      2.992543    1.185845   -0.288116
C      2.003221    1.516745    0.639688
C      0.999514    0.596276    0.951904
C      0.977960   -0.669577    0.339721
C     -0.141283   -1.633879    0.660319
C     -1.255726   -1.587098   -0.393463
C     -1.948145   -0.256469   -0.410689
C     -1.672062    0.803338   -1.248079
C     -2.503599    1.824079   -0.835394
O     -3.229049    1.423084    0.185227
C     -2.915801    0.179838    0.470108
H      3.747815   -0.312727   -1.630071
H      3.768567    1.900787   -0.529196
H      2.011706    2.489070    1.115049
H      0.233135    0.873798    1.665176
H      0.262364   -2.667898    0.713517
H     -0.568860   -1.414327    1.663698
H     -2.002694   -2.376725   -0.162505
H     -0.839219   -1.807580   -1.400184
H     -0.944544    0.835602   -2.048378
H     -2.557924    2.812210   -1.272081
H     -3.353496   -0.393679    1.276448
