27

N     -1.990079   -2.306211   -0.580953
C     -2.657477   -1.127806   -0.134737
C     -4.029224   -0.982746   -0.361214
C     -4.687136    0.172707    0.061955
C     -3.960854    1.174943    0.706549
N     -2.627264    1.019576    0.920027
C     -1.957943   -0.101065    0.529529
C     -0.475957   -0.184993    0.772439
C      0.300696    0.301208   -0.454633
C      1.783224    0.217180   -0.209417
C      2.469202    1.299302    0.367258
C      3.840710    1.206952    0.624333
C      4.533594    0.032616    0.317276
C      3.855293   -1.053064   -0.243637
C      2.483842   -0.964965   -0.502376
H     -4.584609   -1.762471   -0.867275
H     -5.748801    0.292153   -0.111287
H     -4.456576    2.078506    1.035252
H     -0.213170    0.445540    1.650370
H     -0.187539   -1.230515    1.017925
H      0.032128   -0.315932   -1.340281
H      0.015808    1.351567   -0.685883
H      1.942092    2.211458    0.618409
H      4.365731    2.044666    1.064858
H      5.594810   -0.037670    0.518108
H      4.391568   -1.964354   -0.474795
H      1.967933   -1.816582   -0.928540
