27

N     -0.776081   -0.796777    1.913419
C     -1.607377   -0.185275    0.929516
C     -2.428884    0.885800    1.292079
C     -3.237705    1.499521    0.335333
C     -3.213247    1.033866   -0.979636
N     -2.407678   -0.007238   -1.318462
C     -1.612201   -0.634114   -0.407063
C     -0.716328   -1.751828   -0.876070
C      0.549336   -1.215409   -1.558166
C      1.437415   -0.475978   -0.590368
C      2.303441   -1.185374    0.258378
C      3.095856   -0.502341    1.186186
C      3.024341    0.890416    1.277868
C      2.159129    1.602614    0.442829
C      1.366091    0.923841   -0.487294
H     -2.438629    1.244780    2.313608
H     -3.875406    2.329888    0.609568
H     -3.831945    1.502635   -1.733049
H     -0.440897   -2.428689   -0.038750
H     -1.277527   -2.369364   -1.610274
H      0.267538   -0.556216   -2.408844
H      1.112574   -2.070699   -1.991028
H      2.359451   -2.265576    0.204640
H      3.762174   -1.053249    1.837287
H      3.636432    1.417291    1.998388
H      2.099731    2.680592    0.519177
H      0.690397    1.486883   -1.119271
