27

N      0.825879    1.818685    0.996067
C      1.622237    0.897589    0.254147
C      2.402632    1.362657   -0.808031
C      3.176692    0.468919   -1.548480
C      3.158977   -0.886352   -1.217571
N      2.393503   -1.324850   -0.183448
C      1.632888   -0.477627    0.564936
C      0.779099   -1.052936    1.665802
C     -0.513771   -1.670542    1.116296
C     -1.422224   -0.628149    0.516124
C     -2.250536    0.148749    1.343136
C     -3.061475    1.145144    0.791000
C     -3.046091    1.377245   -0.587109
C     -2.218580    0.614273   -1.415486
C     -1.407215   -0.383999   -0.867845
H      2.407256    2.415262   -1.061965
H      3.782457    0.822654   -2.372675
H      3.750913   -1.591527   -1.785461
H      0.539425   -0.287170    2.434740
H      1.358167   -1.848886    2.182033
H     -0.267139   -2.451424    0.363306
H     -1.045609   -2.184992    1.946125
H     -2.262839   -0.013976    2.413756
H     -3.698581    1.740461    1.432177
H     -3.672424    2.150652   -1.012490
H     -2.202583    0.799251   -2.481751
H     -0.761060   -0.959109   -1.519542
