27

N     -0.520763    0.665175   -2.007965
C     -1.483997    0.520606   -0.966653
C     -2.310433    1.599159   -0.639157
C     -3.248453    1.473106    0.385748
C     -3.347476    0.264589    1.075862
N     -2.535663   -0.775211    0.748116
C     -1.615280   -0.688118   -0.252740
C     -0.724568   -1.873891   -0.521845
C      0.430849   -1.954828    0.484815
C      1.384304   -0.796567    0.338419
C      1.258185    0.336252    1.160622
C      2.116007    1.427387    0.992290
C      3.101255    1.397582    0.001580
C      3.228489    0.277517   -0.824590
C      2.371745   -0.815373   -0.660693
H     -2.224187    2.535559   -1.175997
H     -3.890729    2.304853    0.644701
H     -4.067358    0.153639    1.875625
H     -1.333491   -2.799603   -0.434542
H     -0.326248   -1.854187   -1.559178
H      0.025572   -1.996401    1.520006
H      0.982848   -2.905836    0.320479
H      0.490655    0.377816    1.923606
H      2.014110    2.297945    1.627222
H      3.763496    2.243718   -0.128386
H      3.988250    0.257929   -1.595169
H      2.472882   -1.672816   -1.314467
