27

N      2.259508   -0.325693    1.990284
C      2.770868   -0.269860    0.660411
C      4.132219   -0.029589    0.453000
C      4.638054    0.038196   -0.845664
C      3.771356   -0.132723   -1.925984
N      2.449791   -0.365966   -1.708634
C      1.926893   -0.449360   -0.453269
C      0.448741   -0.677909   -0.294639
C     -0.291542    0.655160   -0.152508
C     -1.770394    0.424474    0.005163
C     -2.600808    0.347751   -1.125606
C     -3.969398    0.100808   -0.978535
C     -4.515713   -0.080691    0.295056
C     -3.693588   -0.019681    1.423688
C     -2.324506    0.227066    1.281151
H      4.797216    0.107760    1.296466
H      5.690800    0.225180   -1.013525
H      4.148440   -0.077349   -2.938383
H      0.065062   -1.220944   -1.186431
H      0.254304   -1.319718    0.592402
H     -0.101917    1.286042   -1.049125
H      0.096892    1.210490    0.729587
H     -2.188296    0.477378   -2.118572
H     -4.605891    0.046698   -1.852277
H     -5.574918   -0.273045    0.407023
H     -4.116603   -0.167065    2.408984
H     -1.696570    0.262590    2.162892
