27

N      1.923667    0.766909   -2.403699
C      2.626156    0.435222   -1.208015
C      3.972841    0.786601   -1.077629
C      4.663904    0.475946    0.094087
C      3.995447   -0.182502    1.127082
N      2.685650   -0.518089    0.985693
C      1.986034   -0.239352   -0.149719
C      0.530897   -0.613852   -0.217951
C     -0.350090    0.562103    0.213650
C     -1.805569    0.185268    0.145405
C     -2.439873   -0.398456    1.254923
C     -3.783715   -0.777813    1.178580
C     -4.499489   -0.586556   -0.006547
C     -3.871456   -0.019352   -1.118876
C     -2.527810    0.361455   -1.046855
H      4.482873    1.302590   -1.881459
H      5.706344    0.746190    0.202260
H      4.516970   -0.424862    2.043315
H      0.344872   -1.481335    0.453061
H      0.265999   -0.931389   -1.250214
H     -0.158972    1.438393   -0.444343
H     -0.087489    0.865380    1.251414
H     -1.893842   -0.560558    2.176077
H     -4.269268   -1.223306    2.037211
H     -5.539132   -0.881942   -0.064361
H     -4.424878    0.122094   -2.038219
H     -2.050068    0.791214   -1.918693
