27

N     -1.990078   -2.306214   -0.580951
C     -2.657476   -1.127806   -0.134738
C     -4.029225   -0.982747   -0.361213
C     -4.687137    0.172705    0.061957
C     -3.960855    1.174944    0.706549
N     -2.627262    1.019581    0.920020
C     -1.957944   -0.101066    0.529533
C     -0.475958   -0.184994    0.772440
C      0.300696    0.301208   -0.454632
C      1.783224    0.217181   -0.209416
C      2.469202    1.299302    0.367260
C      3.840710    1.206953    0.624333
C      4.533594    0.032617    0.317274
C      3.855293   -1.053065   -0.243640
C      2.483841   -0.964965   -0.502373
H     -4.584608   -1.762469   -0.867279
H     -5.748803    0.292152   -0.111287
H     -4.456575    2.078504    1.035255
H     -0.213171    0.445541    1.650369
H     -0.187539   -1.230518    1.017924
H      0.032127   -0.315930   -1.340282
H      0.015809    1.351567   -0.685886
H      1.942092    2.211459    0.618407
H      4.365731    2.044667    1.064860
H      5.594810   -0.037669    0.518108
H      4.391568   -1.964355   -0.474795
H      1.967933   -1.816583   -0.928541
