27

N     -1.333946    0.161569   -1.758634
C     -1.802428    0.247446   -0.414684
C     -2.550928    1.358646   -0.016555
C     -3.004568    1.459129    1.298861
C     -2.700563    0.443120    2.205437
N     -1.969740   -0.630700    1.804874
C     -1.518857   -0.763759    0.526046
C     -0.677454   -1.964535    0.176732
C      0.777164   -1.789429    0.633166
C      1.470811   -0.681349   -0.117225
C      1.548543    0.609559    0.432975
C      2.153275    1.645665   -0.285046
C      2.680129    1.402394   -1.556404
C      2.600527    0.122984   -2.113237
C      1.995273   -0.915843   -1.399243
H     -2.778559    2.145554   -0.724681
H     -3.583877    2.317461    1.613575
H     -3.042112    0.509494    3.229692
H     -1.102803   -2.854494    0.688984
H     -0.712152   -2.180348   -0.912914
H      1.322812   -2.743189    0.463650
H      0.807012   -1.595504    1.728200
H      1.132758    0.814861    1.411724
H      2.209624    2.638346    0.142507
H      3.146572    2.205941   -2.111513
H      3.003903   -0.062848   -3.100235
H      1.929582   -1.900172   -1.846052
