27

N      1.987622    2.351898   -0.386501
C      2.658311    1.126645   -0.099969
C      4.014883    1.143755    0.236846
C      4.675313   -0.049912    0.530075
C      3.966613   -1.251265    0.485780
N      2.647660   -1.252198    0.156328
C      1.976924   -0.105567   -0.146438
C      0.510146   -0.184617   -0.469927
C     -0.333290    0.049831    0.786632
C     -1.800495   -0.030309    0.461106
C     -2.496708    1.115779    0.041672
C     -3.852259    1.033363   -0.291906
C     -4.518472   -0.193102   -0.218675
C     -3.829167   -1.340233    0.184300
C     -2.473543   -1.262295    0.518754
H      4.556372    2.080705    0.274700
H      5.725226   -0.043825    0.792866
H      4.464218   -2.183782    0.716016
H      0.250006    0.563782   -1.250178
H      0.281443   -1.190279   -0.886736
H     -0.099362    1.048359    1.217425
H     -0.076080   -0.710336    1.557267
H     -1.989580    2.070224   -0.028236
H     -4.385405    1.919754   -0.610556
H     -5.567321   -0.255421   -0.478453
H     -4.344478   -2.290727    0.234204
H     -1.948578   -2.160227    0.820549
