27

N     -1.012798    0.985334   -1.703465
C     -1.693129    0.593101   -0.513358
C     -2.438854    1.538482    0.196345
C     -3.099071    1.169031    1.368446
C     -3.003054   -0.147501    1.820218
N     -2.272399   -1.055763    1.121043
C     -1.622666   -0.730033   -0.031409
C     -0.798216   -1.786882   -0.720753
C      0.567343   -1.970537   -0.045160
C      1.432541   -0.744400   -0.186926
C      2.150000   -0.518475   -1.373446
C      2.918527    0.640248   -1.521792
C      2.970598    1.583113   -0.491459
C      2.253009    1.369637    0.688628
C      1.484468    0.211770    0.841786
H     -2.504526    2.559585   -0.157940
H     -3.677412    1.896605    1.923004
H     -3.506251   -0.447351    2.729638
H     -0.662369   -1.555229   -1.799172
H     -1.348327   -2.751402   -0.671434
H      1.083456   -2.838094   -0.511096
H      0.424694   -2.223740    1.028683
H      2.108620   -1.236198   -2.183397
H      3.470220    0.809385   -2.437456
H      3.563828    2.480701   -0.608994
H      2.288828    2.103561    1.483276
H      0.922937    0.065052    1.756189
