27

N     -1.248753    0.505009   -1.636553
C     -1.794625    0.168601   -0.363013
C     -2.691341    1.044987    0.254544
C     -3.222748    0.731918    1.505863
C     -2.847172   -0.458713    2.128693
N     -1.972351   -1.300490    1.517350
C     -1.441695   -1.028938    0.292169
C     -0.444700   -1.995019   -0.294798
C      0.952092   -1.806480    0.312104
C      1.546195   -0.470006   -0.052528
C      2.162158   -0.287071   -1.301825
C      2.675052    0.964212   -1.657510
C      2.570661    2.041349   -0.773107
C      1.951834    1.869502    0.468114
C      1.438917    0.619761    0.828439
H     -2.974160    1.969579   -0.232923
H     -3.916913    1.406771    1.989687
H     -3.247952   -0.712649    3.100832
H     -0.786455   -3.030111   -0.077685
H     -0.395469   -1.903932   -1.401318
H      0.900403   -1.920465    1.417515
H      1.616676   -2.616041   -0.060810
H      2.239039   -1.111149   -2.000284
H      3.149515    1.099946   -2.620772
H      2.965827    3.009838   -1.051091
H      1.865712    2.705931    1.149555
H      0.950253    0.503657    1.787971
