27

N     -1.626430   -0.799583    1.270348
C     -1.844831    0.154816    0.233780
C     -2.497516    1.354815    0.529636
C     -2.706281    2.301117   -0.473924
C     -2.255348    2.035579   -1.767263
N     -1.620091    0.865249   -2.040060
C     -1.407821   -0.083402   -1.085385
C     -0.655973   -1.334086   -1.462684
C      0.858799   -1.092676   -1.508449
C      1.418319   -0.780297   -0.144106
C      1.607690    0.552889    0.258334
C      2.084802    0.840187    1.540751
C      2.371954   -0.198668    2.430377
C      2.179671   -1.526798    2.040006
C      1.701294   -1.818636    0.758886
H     -2.840143    1.555834    1.536950
H     -3.210264    3.232622   -0.251045
H     -2.406538    2.761789   -2.554613
H     -0.888237   -2.171053   -0.769397
H     -0.991998   -1.656896   -2.471759
H      1.354714   -2.004445   -1.907035
H      1.087027   -0.268779   -2.220280
H      1.376802    1.367878   -0.416542
H      2.227864    1.868553    1.846349
H      2.739775    0.025535    3.423272
H      2.397082   -2.330261    2.731810
H      1.545678   -2.851284    0.472042
