218
Angew SI 4B1; cmcporFeCl sulfonyl Fe(IV)-aminyl reference; core then Fe-bound N/S anchor
O   12.08765900  5.76506000  2.68804000
O   1.51858300  15.17495300  5.46645600
O   6.48896500  0.97810700  5.65047800
O  -0.18191100  8.22302000  8.96930400
N   6.60152200  7.57096000  3.93561900
N   4.89343200  9.02941400  7.23698700
N   6.67567700  3.11724600  4.84384200
H   6.19130000  4.00404000  4.87034000
N   6.67795600  6.94328500  6.68840600
N   10.51246200  5.95687500  4.33823700
H   9.99475100  6.64037100  4.88236500
N   4.64076400  9.53714600  4.48609100
N   2.59588700  13.18317700  5.84757000
H   3.51334300  12.76380300  5.78735400
C   4.51394100  9.61421500  9.43745500
H   4.65218700  9.64025300  10.50792300
N   1.08017500  8.78767400  7.14466100
H   1.75031800  8.40903000  6.48519200
C   3.88001600  9.91044300  7.31310100
C   6.54210000  8.13730200  2.68097000
C   3.50344200  10.19541800  4.89699100
C   11.40285000  6.46862000  3.41471500
C   3.11857000  10.37448200  6.21384900
C   5.67683200  9.13747000  2.29351900
C   4.86835300  8.87064300 -0.06274800
C   1.81355700  11.00762300  6.54135800
C   7.41030600  5.87566800  6.21541200
C   7.79008900  5.66806400  4.90338300
C   6.36088300  10.66010400  0.40228000
C   6.03043000  2.10079200  5.52202200
C   8.63118500  4.48079300  4.58920700
C   8.05066200  3.20101700  4.56801400
C   4.71006900  9.71454300  3.15232100
C   2.51031900  14.47252000  5.37192600
C  -0.40411800  10.70859400  7.48245100
H  -1.15815100  10.06335700  7.91048200
C   7.41725300  7.42675400  1.78218200
H   7.56242700  7.67683900  0.74097400
C   7.80794300  5.03335200  7.31211800
H   8.38666000  4.12593800  7.21571800
C   3.75425800  14.97499800  4.69278800
H   4.15266700  15.85803200  5.18599000
C  -0.01251700  5.43479200  7.46207600
C   11.38739700  7.95745300  3.36221100
H   10.88575800  8.44209100  4.19414800
C   8.83740500  2.08815600  4.27165300
H   8.38857200  1.10463200  4.26704900
C   6.28521600  11.06532200 -0.93733400
C   0.81691900  10.16935800  7.07814300
C   4.01120100  7.63009900  0.06949100
H   3.69246200  7.37711500  1.08265700
C   7.96267300  6.41196800  2.49227200
H   8.65580700  5.65382800  2.15693000
C   4.79810700  9.27736900 -1.40160100
C   4.76030700  2.57608000  6.14118600
H   4.32792000  3.46769700  5.69091700
C   7.33085500  5.61386900  8.43930000
H   7.41992400  5.27706500  9.46183000
C   6.12014900  7.39980700  10.39520100
C   5.14261700  6.46620600  12.42443100
C   2.64335800  7.33246900  11.27743100
H   2.86166400  8.38082200  11.07039500
H   1.64104600  7.13482200  10.88714900
C   2.90746000  7.96195300 -0.95986300
H   2.25544700  7.10910400 -1.17890100
H   2.29842000  8.82465100 -0.67255000
C   3.90322500  8.27562900 -2.09964800
H   3.48392400  8.59983000 -3.05408900
C   5.50461500  10.38223000 -1.86355800
H   5.44260200  10.70335500 -2.90037000
C   2.69639400  14.32878000  2.39883500
H   2.33683100  13.42154000  2.89278000
H   3.04056800  14.04957100  1.39524900
H   1.84737900  15.01305900  2.29568300
C   7.20922200  11.68423200  1.12355700
H   7.63747100  11.36412000  2.07529600
C   12.53208600  8.70329400  2.72134500
H   12.84790000  9.62661800  3.20001300
H   13.32949300  8.08412700  2.31977600
C   7.32366400  7.39479100  12.51259600
C   3.66920900  6.37207000  10.60767000
H   3.53009000  6.25855300  9.53120500
C   7.25672900  7.69858200  11.14553900
C   4.74168300  14.09719500  3.97020600
H   4.57886200  13.02185200  3.93319300
H   5.78464900  14.38140500  4.04355500
C   4.62833800  2.51350600  7.66587200
C   10.34506100  9.91123000  2.05648100
H   9.28609300  9.63959500  1.96259900
H   10.59799800  10.58218500  1.22646700
H   10.47173700  10.46795100  2.98846600
C   0.58058600  7.89722900  8.07166000
C   6.26490200  13.43593400 -0.28563800
H   6.72470500  14.41992200 -0.42497300
H   5.23592800  13.49306600 -0.65161600
C   5.73580100  1.91047200  8.50574800
H   6.20335900  1.05518500  8.01399200
H   5.32747200  1.57976400  9.46825300
H   6.51164600  2.65827900  8.71055300
C   6.27489500  6.76625400  13.17358400
H   6.33615500  6.52109900  14.23116400
C   1.03095700  6.49472900  7.82977800
H   1.99003200  6.39348200  7.32480800
C   0.41853600  4.41104800  6.43103900
H   0.23459000  4.78298400  5.41657300
H  -0.14503900  3.47871100  6.55823500
H   1.48454600  4.17680000  6.50782300
C   11.08543400  7.87891800  0.73251100
H   11.70093400  6.97799800  0.74680700
H   11.39405400  8.50367200 -0.11438400
H   10.04365800  7.58092300  0.56580900
C   6.35147800  12.97976200  1.20010600
H   5.37217000  12.79403600  1.64749000
H   6.85314800  13.73498200  1.81462400
C   4.41457700  16.20024400  2.50367400
H   3.65144400  16.97114500  2.34721800
H   4.83289200  15.93183500  1.52522300
H   5.21854600  16.63730400  3.10594100
C   9.65191000  7.19712600  10.82192000
H   9.38899200  6.34551100  10.19006100
H   10.61139200  7.58343200  10.46376900
C   9.71737700  6.83951800  12.33587700
H   10.71912500  7.01347900  12.74215000
H   9.45183700  5.79820600  12.53901400
C   0.63645800  5.42005600  8.81109500
H   1.37386500  4.65499500  9.03504000
H   0.03759900  5.75126800  9.65504500
C   8.90327300  9.07085100  12.08166000
H   8.19731300  9.87786800  12.29971600
H   9.92689800  9.46105200  12.11236500
C   3.97220300  3.71420500  8.30951300
H   4.72998900  4.45193400  8.59775100
H   3.42676400  3.41770200  9.21303700
H   3.27471700  4.21527500  7.63243700
C   7.44667000  6.53373700  3.83516300
C   3.62843500  10.29996400  8.67793600
H   2.86854800  11.00101500  8.99220400
C   5.25319200  8.76819900  8.53845600
C   5.65197300  9.55428500  0.86474300
C   3.60061900  10.49977700  2.68003700
H   3.43272200  10.77905700  1.64982200
C   2.82455600  10.75938700  3.76331100
H   1.89143000  11.30233600  3.81121900
C   9.99688300  4.64715500  4.31047600
C   6.64564800  6.81006200  8.03021700
C   1.57212900  12.38679300  6.38950500
C   10.18877900  2.27420300  4.00012500
H   10.80126700  1.40775800  3.76977200
C   6.02914300  7.70193400  8.94058000
C   3.82170100  14.97988200  3.17547300
C   5.05523000  6.78836500  11.06323400
C   0.34471300  12.91780800  6.79389600
H   0.16345900  13.97636500  6.67923700
C   7.08566600  12.34649200 -1.03802300
H   7.40141700  12.63185200 -2.04328700
C  -0.61576200  12.07278800  7.33724700
H  -1.56474900  12.49528100  7.65329500
C   10.78096000  3.53225600  4.01266200
H   11.82961200  3.66312800  3.78607500
C   11.21244500  8.67050400  2.01734600
C   8.19564600  12.05801700 -0.00369500
H   8.84446100  11.22718000 -0.29480100
H   8.80633900  12.93644100  0.23445300
C   8.58239200  8.32517000  10.76616500
H   8.58604600  8.90733800  9.84490600
C   2.75527900  6.97825200  12.78792100
H   1.80161000  6.61130800  13.18086800
H   3.06430300  7.82849600  13.40235200
C   4.69781300  6.93771700 -2.16502700
H   5.68829400  7.07752100 -2.60638600
H   4.15883500  6.20813400 -2.77778700
C   4.75805700  6.48710400 -0.67562800
H   5.77856400  6.35666000 -0.30735500
H   4.23099200  5.53965800 -0.52611800
C  -1.47356600  5.82436600  7.36226600
H  -1.74800700  6.56656500  8.11529300
H  -2.10375400  4.93873400  7.50530200
H  -1.69690000  6.23835500  6.37145600
C   3.80855100  1.61096700  6.79576200
H   2.74614900  1.80906400  6.68107200
H   4.09483200  0.56372200  6.75300900
C   3.81677300  5.84116600  12.80447400
H   3.82465600  5.24101600  13.71667800
C   3.47747400  5.11365700  11.48496800
H   2.45302800  4.72441800  11.45489300
H   4.18444300  4.31294700  11.24882100
C   8.69812300  7.82748000  12.97577800
H   8.81250000  7.96024900  14.05359600
Fe  5.74142600  8.28081100  5.59032900
Cl  3.98963000  6.73756400  5.40756200
N   7.10786300  9.50224800  5.59202400
S   8.51788200  9.47113300  6.38294800
C   7.66072500  12.33301400  4.80303400
H   7.04350300  11.46206400  4.58021400
H   7.62866000  12.98689100  3.92402400
C   9.10443600  11.92672200  5.01225500
C   9.54635400  10.75969700  5.65587200
C   10.09124200  12.79683000  4.52972900
C   10.91190600  10.51465000  5.83545500
C   11.44754400  12.55845400  4.70420900
C   11.86346400  11.41104400  5.37062100
H   9.77305300  13.68816100  3.99544500
H   11.22543400  9.60247100  6.33085800
H   12.17550200  13.26326000  4.31448000
H   12.91838600  11.20476200  5.51952600
C   7.06869200  13.08358600  5.98161500
C   6.10235200  12.48804200  6.79040100
C   7.43381900  14.40753800  6.23521500
C   5.49135100  13.20852800  7.81451500
C   6.82427300  15.13144700  7.25451400
C   5.84285500  14.53495800  8.04342800
H   5.83577200  11.45096700  6.61524300
H   8.19129100  14.88354800  5.61629100
H   4.74083200  12.72746000  8.43384600
H   7.11229200  16.16380200  7.43109500
H   5.35986700  15.09938900  8.83524600
O   8.25982000  9.82633400  7.77828500
O   9.25461500  8.22837400  6.11567700
