34

C     -1.524894   -2.143188   -1.970704
C     -1.097100   -1.478340   -0.656046
C      0.305082   -0.846813   -0.793067
C      0.834538   -0.314352    0.546787
C      2.222926    0.252846    0.380410
C      2.379950    1.613668    0.063843
C      3.654778    2.153864   -0.125428
C      4.783844    1.340502   -0.011194
C      4.640908   -0.016563    0.287625
C      3.367722   -0.567005    0.478731
N      3.248178   -1.958548    0.766565
C     -2.136529   -0.465012   -0.207859
C     -2.437363    0.665604   -0.992840
C     -3.387482    1.595144   -0.559742
C     -4.046252    1.408758    0.657535
C     -3.756125    0.292134    1.444678
C     -2.806785   -0.640762    1.016618
H     -1.538321   -1.409715   -2.804611
H     -2.538920   -2.584612   -1.863097
H     -0.818835   -2.960229   -2.231818
H     -1.023501   -2.293547    0.098884
H      0.284920   -0.022712   -1.539369
H      1.010756   -1.620460   -1.169351
H      0.155948    0.476607    0.934226
H      0.841137   -1.129464    1.302430
H      1.513887    2.256191   -0.038074
H      3.767027    3.203528   -0.364419
H      5.770212    1.760725   -0.159503
H      5.521303   -0.642089    0.366591
H     -1.937353    0.830702   -1.938205
H     -3.612501    2.461380   -1.168424
H     -4.781135    2.129926    0.991164
H     -4.266472    0.149516    2.388451
H     -2.593551   -1.497683    1.643290
