34

C      0.135355    1.216188   -0.735076
C     -0.673021   -0.009640   -0.280039
C     -0.203053   -0.542120    1.100986
C      0.884071   -1.629159    1.015324
C      2.209270   -1.099204    0.519779
C      2.978717   -0.279951    1.364900
C      4.200868    0.238504    0.929672
C      4.669320   -0.055538   -0.351857
C      3.917145   -0.869465   -1.201685
C      2.690885   -1.394072   -0.775606
N      1.940622   -2.212022   -1.670701
C     -2.150066    0.342153   -0.249310
C     -2.651529    1.273893    0.680780
C     -4.011327    1.598092    0.694748
C     -4.883363    1.000901   -0.218356
C     -4.397114    0.078810   -1.148112
C     -3.038001   -0.249381   -1.166566
H      0.075695    2.034131    0.014012
H      1.200719    0.958210   -0.888080
H     -0.259305    1.592574   -1.703226
H     -0.514477   -0.807968   -1.038769
H      0.140968    0.292771    1.750172
H     -1.066716   -1.008344    1.625958
H      1.037137   -2.050781    2.032852
H      0.519329   -2.472176    0.390865
H      2.629197   -0.040913    2.361767
H      4.785036    0.869644    1.586845
H      5.615984    0.347928   -0.687289
H      4.287343   -1.090742   -2.194955
H     -1.990460    1.746958    1.395804
H     -4.389000    2.313422    1.413880
H     -5.935756    1.253448   -0.206205
H     -5.073796   -0.381736   -1.856297
H     -2.680679   -0.964413   -1.897045
