34

C     -1.628334    2.166286   -1.778771
C     -1.220058    0.753520   -1.342010
C      0.250754    0.729249   -0.873139
C      0.743027   -0.696245   -0.582137
C      2.194871   -0.682110   -0.171082
C      2.526490   -0.558857    1.189633
C      3.864305   -0.512314    1.590765
C      4.883390   -0.577682    0.638617
C      4.567389   -0.684652   -0.717869
C      3.229915   -0.731717   -1.129520
N      2.933956   -0.824462   -2.521403
C     -2.166512    0.230782   -0.274728
C     -2.282104    0.872830    0.974033
C     -3.148481    0.371392    1.949887
C     -3.906955   -0.772745    1.692694
C     -3.800550   -1.418215    0.458732
C     -2.935670   -0.921275   -0.520967
H     -1.002995    2.495701   -2.635913
H     -2.690838    2.173367   -2.103912
H     -1.500810    2.894319   -0.949751
H     -1.291770    0.111291   -2.248817
H      0.375857    1.358934    0.034804
H      0.888587    1.166776   -1.673034
H      0.133168   -1.148628    0.230039
H      0.604952   -1.335610   -1.480799
H      1.747887   -0.497050    1.940129
H      4.110944   -0.421895    2.640768
H      5.918877   -0.540128    0.951442
H      5.363712   -0.726786   -1.450473
H     -1.702258    1.759307    1.195214
H     -3.231113    0.870189    2.906895
H     -4.576725   -1.159541    2.449823
H     -4.387994   -2.305552    0.261134
H     -2.864914   -1.438477   -1.469648
