34

C     -0.156874    1.186057   -0.886299
C     -0.644887   -0.185716   -0.393080
C     -0.080475   -0.539070    1.009850
C      1.242598   -1.325750    0.971859
C      2.403811   -0.501379    0.467313
C      2.933374    0.510424    1.287844
C      3.996601    1.300191    0.843221
C      4.543875    1.088549   -0.423241
C      4.029809    0.086018   -1.248539
C      2.964268   -0.711027   -0.812866
N      2.453783   -1.718494   -1.683241
C     -2.163360   -0.209271   -0.386185
C     -2.862792   -1.032258   -1.287955
C     -4.260976   -1.049904   -1.291597
C     -4.974815   -0.246199   -0.399616
C     -4.292117    0.578192    0.497682
C     -2.894329    0.600023    0.505668
H      0.941539    1.194589   -1.021860
H     -0.428761    1.988361   -0.167896
H     -0.616476    1.420645   -1.870408
H     -0.281890   -0.944896   -1.121100
H      0.036217    0.376138    1.630827
H     -0.810709   -1.186606    1.544948
H      1.107437   -2.253122    0.375724
H      1.478486   -1.662252    2.005146
H      2.519530    0.688718    2.272727
H      4.396131    2.077747    1.481381
H      5.366948    1.702167   -0.766020
H      4.459244   -0.069844   -2.230318
H     -2.328219   -1.660682   -1.989282
H     -4.791448   -1.686830   -1.987622
H     -6.057037   -0.261459   -0.404519
H     -4.846301    1.201498    1.187506
H     -2.382186    1.245442    1.207954
