34

C     -1.389019   -2.844584    0.446320
C     -1.088370   -1.372680    0.756904
C      0.343342   -1.001304    0.314182
C      0.736995    0.416451    0.754697
C      2.155817    0.724522    0.343535
C      2.399312    1.316467   -0.908271
C      3.706964    1.582374   -1.323191
C      4.784063    1.251222   -0.498820
C      4.556713    0.648519    0.740701
C      3.250093    0.377912    1.164995
N      3.045907   -0.252955    2.427471
C     -2.132635   -0.469661    0.122727
C     -2.944066    0.344065    0.934455
C     -3.899674    1.188103    0.360701
C     -4.055567    1.229860   -1.026587
C     -3.255960    0.427535   -1.843523
C     -2.298886   -0.418382   -1.275388
H     -0.689501   -3.502422    1.005046
H     -1.279650   -3.055397   -0.638650
H     -2.424778   -3.097111    0.759557
H     -1.132145   -1.270056    1.864807
H      0.439557   -1.088190   -0.790218
H      1.057214   -1.723489    0.769081
H      0.626773    0.515225    1.856304
H      0.049305    1.159814    0.295675
H      1.575443    1.570580   -1.563979
H      3.885382    2.042470   -2.286513
H      5.796125    1.456871   -0.822768
H      5.398066    0.387648    1.370530
H     -2.836355    0.329211    2.011802
H     -4.519147    1.811339    0.992626
H     -4.795595    1.884417   -1.468580
H     -3.377070    0.461473   -2.918545
H     -1.688651   -1.029846   -1.927084
