34

C     -1.762143   -2.665638   -0.051397
C     -1.326047   -1.262451    0.389330
C      0.181795   -1.052113    0.132634
C      0.687849    0.278689    0.708762
C      2.171720    0.426234    0.477738
C      2.629528    1.048775   -0.696810
C      3.999199    1.168840   -0.946621
C      4.924678    0.660331   -0.033218
C      4.482941    0.025742    1.130189
C      3.112625   -0.099616    1.389090
N      2.687659   -0.766265    2.575899
C     -2.173087   -0.201755   -0.292996
C     -2.166892   -0.054940   -1.694208
C     -2.942542    0.934616   -2.305344
C     -3.730589    1.786791   -1.528645
C     -3.744585    1.651298   -0.138658
C     -2.970817    0.663486    0.478016
H     -1.216780   -3.435780    0.534875
H     -2.850220   -2.801433    0.128410
H     -1.552274   -2.830072   -1.129580
H     -1.486893   -1.214716    1.490125
H      0.395805   -1.091069   -0.957869
H      0.745793   -1.882236    0.613152
H      0.461711    0.331381    1.795745
H      0.152727    1.126700    0.228417
H      1.924680    1.439885   -1.420351
H      4.343216    1.653569   -1.851166
H      5.985053    0.753257   -0.229365
H      5.207250   -0.372899    1.829528
H     -1.562060   -0.702937   -2.314902
H     -2.931811    1.041212   -3.382383
H     -4.329959    2.552558   -2.003831
H     -4.354792    2.313186    0.462218
H     -2.992738    0.577371    1.557183
