34

C      0.083837   -1.314089    0.595649
C      0.660435    0.086712    0.333970
C      0.103187    0.715476   -0.972080
C     -1.160571    1.570403   -0.765092
C     -2.369941    0.750551   -0.380594
C     -2.980599   -0.065500   -1.349414
C     -4.090623   -0.847496   -1.020471
C     -4.604277   -0.822971    0.277136
C     -4.009662   -0.015822    1.249450
C     -2.896695    0.771615    0.930516
N     -2.304689    1.576018    1.948161
C      2.176562    0.009363    0.292284
C      2.836488   -0.679748   -0.744198
C      4.232323   -0.753290   -0.768436
C      4.983562   -0.144961    0.239739
C      4.340328    0.537488    1.274946
C      2.944453    0.614414    1.304194
H      0.288702   -1.995718   -0.257074
H      0.539197   -1.746380    1.512444
H     -1.010497   -1.272464    0.755850
H      0.361764    0.730409    1.191049
H     -0.086129   -0.067997   -1.738345
H      0.869819    1.395761   -1.406082
H     -1.386282    2.096367   -1.718494
H     -0.952317    2.368911   -0.021668
H     -2.593838   -0.097252   -2.360580
H     -4.552596   -1.473799   -1.772663
H     -5.463753   -1.430290    0.529998
H     -4.413598   -0.004527    2.254091
H      2.270630   -1.157545   -1.533866
H      4.731773   -1.282933   -1.569382
H      6.064138   -0.203288    0.219427
H      4.923785    1.006803    2.056514
H      2.465081    1.145777    2.116848
