34

C     -1.519414    0.208028   -2.795378
C     -1.100011   -0.509228   -1.505805
C      0.306528   -0.055066   -1.059595
C      0.826663   -0.868604    0.134835
C      2.219296   -0.426130    0.511407
C      2.385929    0.599533    1.458486
C      3.665076    1.046905    1.799752
C      4.789005    0.483384    1.192608
C      4.636637   -0.525637    0.238663
C      3.359065   -0.980305   -0.110043
N      3.230015   -1.999874   -1.098657
C     -2.138253   -0.299095   -0.416760
C     -2.820408   -1.403381    0.126093
C     -3.768793   -1.222776    1.137393
C     -4.046108    0.059049    1.617641
C     -3.375457    1.163485    1.087613
C     -2.426236    0.988925    0.076250
H     -0.815204   -0.042922   -3.617186
H     -1.521676    1.310164   -2.658069
H     -2.536586   -0.118861   -3.100647
H     -1.037294   -1.592667   -1.755053
H      0.297231    1.025709   -0.798150
H      1.011611   -0.186451   -1.910295
H      0.822443   -1.951898   -0.113970
H      0.148610   -0.737048    1.006125
H      1.524027    1.054082    1.931560
H      3.784687    1.833844    2.533191
H      5.778742    0.832339    1.457476
H      5.513161   -0.951794   -0.233259
H     -2.617208   -2.405669   -0.229756
H     -4.288345   -2.078004    1.549889
H     -4.780274    0.196425    2.400951
H     -3.590558    2.156262    1.461268
H     -1.916900    1.858218   -0.318578
