34

C     -0.064020   -1.266402    0.735428
C      0.341031    0.215331    0.675522
C      0.543251    0.709324   -0.782803
C     -0.722867    1.309515   -1.421196
C     -1.795705    0.278592   -1.683471
C     -1.612866   -0.651391   -2.722294
C     -2.579460   -1.626883   -2.979168
C     -3.738909   -1.684477   -2.204192
C     -3.935359   -0.766250   -1.170404
C     -2.972922    0.215271   -0.904321
N     -3.196956    1.130877    0.165542
C      1.599951    0.428646    1.497701
C      1.550994    1.182116    2.684963
C      2.705699    1.373021    3.450111
C      3.918340    0.812985    3.041455
C      3.979095    0.059530    1.866954
C      2.827790   -0.134756    1.098123
H     -1.044905   -1.432658    0.250465
H      0.690489   -1.907117    0.231523
H     -0.155537   -1.591977    1.793900
H     -0.485983    0.800940    1.135136
H      0.945522   -0.105577   -1.423857
H      1.307979    1.518016   -0.791875
H     -0.439146    1.770470   -2.392577
H     -1.099058    2.142499   -0.790100
H     -0.718364   -0.621499   -3.332230
H     -2.428793   -2.339459   -3.779794
H     -4.486006   -2.441607   -2.404369
H     -4.836927   -0.819586   -0.572971
H      0.620346    1.622347    3.020575
H      2.659808    1.955086    4.361494
H      4.810708    0.961997    3.635539
H      4.919001   -0.375030    1.551961
H      2.893779   -0.721893    0.190942
