34

C      0.468624    2.035465   -0.024411
C     -0.549027    1.406088   -0.991413
C      0.100853    0.419326   -1.994113
C      0.454573   -0.983196   -1.450140
C      1.631673   -0.998439   -0.497021
C      2.879783   -0.507868   -0.926659
C      3.979961   -0.510868   -0.065868
C      3.856476   -1.022082    1.226147
C      2.636228   -1.546051    1.655950
C      1.526956   -1.549114    0.801721
N      0.309867   -2.133524    1.259790
C     -1.781486    0.820753   -0.315596
C     -2.977172    0.724455   -1.052469
C     -4.122276    0.160670   -0.482781
C     -4.088216   -0.320541    0.826945
C     -2.908469   -0.239933    1.568700
C     -1.760083    0.323583    1.004409
H     -0.036599    2.788504    0.617341
H      0.950674    1.284463    0.628937
H      1.265778    2.553887   -0.598714
H     -0.907399    2.263659   -1.605405
H     -0.617482    0.270431   -2.830251
H      0.993014    0.892962   -2.455275
H     -0.450491   -1.441276   -1.001648
H      0.720358   -1.628721   -2.315028
H      3.006133   -0.124321   -1.930631
H      4.931479   -0.120897   -0.403593
H      4.710754   -1.024847    1.890743
H      2.554860   -1.959169    2.653635
H     -3.021389    1.084487   -2.073015
H     -5.035970    0.093972   -1.059160
H     -4.975208   -0.758400    1.266230
H     -2.882159   -0.617510    2.582773
H     -0.864617    0.364048    1.606496
