34

C     -0.386931   -0.979495    1.881894
C     -1.164229   -1.205900    0.573527
C     -0.294448   -1.856078   -0.533281
C      0.624429   -0.910330   -1.338412
C      1.803080   -0.383289   -0.552041
C      1.879770    0.989335   -0.252861
C      2.953945    1.496692    0.482193
C      3.972731    0.645075    0.911484
C      3.926576   -0.714292    0.595622
C      2.854145   -1.232802   -0.140059
N      2.857220   -2.616175   -0.485181
C     -1.934792    0.009630    0.075087
C     -1.572710    1.331309    0.411177
C     -2.290169    2.415621   -0.102790
C     -3.372455    2.199746   -0.957501
C     -3.740101    0.897999   -1.301488
C     -3.026114   -0.190011   -0.791570
H      0.461466   -0.282501    1.751613
H      0.016876   -1.945108    2.254184
H     -1.066302   -0.570886    2.660170
H     -1.930303   -1.969014    0.841147
H      0.296134   -2.689169   -0.097963
H     -0.984236   -2.333154   -1.263860
H      0.026095   -0.077510   -1.766263
H      1.020135   -1.471830   -2.212287
H      1.108214    1.670013   -0.588141
H      2.998026    2.552584    0.715900
H      4.804884    1.040632    1.479395
H      4.730454   -1.364803    0.916906
H     -0.741086    1.537677    1.068648
H     -2.004887    3.425746    0.161517
H     -3.925364    3.041351   -1.354287
H     -4.577590    0.731107   -1.966508
H     -3.322464   -1.192170   -1.075970
