34

C     -0.189018    0.864311   -1.256223
C     -0.664109    0.170709    0.030887
C      0.027788   -1.204143    0.242178
C      1.289102   -1.138929    1.123019
C      2.417851   -0.367546    0.481968
C      2.699025    0.941003    0.914675
C      3.724550    1.678862    0.317791
C      4.480308    1.119625   -0.714210
C      4.213817   -0.179929   -1.151341
C      3.188232   -0.927274   -0.560006
N      2.940381   -2.253637   -1.021100
C     -2.174754    0.018950   -0.004610
C     -2.792659   -0.841154   -0.933639
C     -4.184678   -0.966153   -0.965205
C     -4.974173   -0.234088   -0.075470
C     -4.373177    0.625382    0.847173
C     -2.981292    0.754220    0.883387
H     -0.718463    1.833056   -1.382231
H     -0.389522    0.232144   -2.147242
H      0.896575    1.078138   -1.217840
H     -0.394670    0.836989    0.880703
H     -0.675171   -1.894945    0.759230
H      0.266177   -1.679363   -0.734139
H      1.634123   -2.175194    1.329916
H      1.026070   -0.701075    2.111121
H      2.117902    1.394278    1.708157
H      3.931722    2.686497    0.654245
H      5.273682    1.693407   -1.175507
H      4.805935   -0.606721   -1.951223
H     -2.196640   -1.416239   -1.630907
H     -4.651522   -1.630814   -1.680583
H     -6.051763   -0.331921   -0.101682
H     -4.986422    1.193523    1.534686
H     -2.535209    1.428032    1.604172
