33

C     -2.137758    0.774488    1.273911
Si    -2.236475   -0.091011   -0.379202
C     -2.884563   -1.826392   -0.130398
C     -3.454566    0.845335   -1.440273
C     -0.568253   -0.082927   -1.262463
C      0.309106   -1.312286   -0.976408
C      0.957772   -1.310913    0.417574
C      2.027657   -0.250262    0.548289
C      1.739331    0.953760    1.214710
C      2.709360    1.953326    1.324692
C      3.976855    1.762813    0.771868
C      4.278043    0.571472    0.108192
C      3.312325   -0.435602   -0.007837
N      3.647731   -1.643903   -0.686902
H     -1.547134    0.169780    1.989694
H     -1.664669    1.769057    1.142376
H     -3.162593    0.907388    1.676899
H     -3.899671   -1.779048    0.314241
H     -2.211130   -2.381755    0.554060
H     -2.934529   -2.347004   -1.108634
H     -3.550546    0.342489   -2.424395
H     -4.443367    0.866131   -0.937870
H     -3.092953    1.883484   -1.588773
H     -0.786274   -0.066878   -2.351188
H     -0.028447    0.856428   -1.023672
H     -0.292329   -2.237557   -1.099183
H      1.108410   -1.359400   -1.747252
H      0.182418   -1.190424    1.200914
H      1.414340   -2.308103    0.597157
H      0.763568    1.120920    1.649470
H      2.477520    2.877088    1.838916
H      4.726745    2.538499    0.858292
H      5.264076    0.431006   -0.316803
