33

C     -1.843541   -0.001800    1.804869
Si    -2.260794    0.204092   -0.004861
C     -3.481308    1.609516   -0.151448
C     -3.079776   -1.354808   -0.631412
C     -0.732502    0.651984   -1.018220
C      0.016532   -0.554354   -1.606952
C      0.835118   -1.349750   -0.576797
C      2.035197   -0.575121   -0.080330
C      1.985734    0.061479    1.172351
C      3.077367    0.800021    1.636116
C      4.229638    0.911242    0.856146
C      4.293671    0.283243   -0.389644
C      3.204576   -0.458294   -0.863211
N      3.298204   -1.092837   -2.136870
H     -2.783499   -0.084714    2.387924
H     -1.272678    0.882341    2.155142
H     -1.244292   -0.920486    1.959040
H     -3.764796    1.743512   -1.215516
H     -4.386750    1.377044    0.445799
H     -3.016996    2.542695    0.228237
H     -4.015322   -1.532244   -0.062500
H     -3.319379   -1.240256   -1.708422
H     -2.397004   -2.217605   -0.490604
H     -1.085761    1.278592   -1.864201
H     -0.054949    1.281937   -0.405945
H      0.697590   -0.188360   -2.405397
H     -0.704933   -1.235379   -2.105567
H      1.184908   -2.291250   -1.052524
H      0.188265   -1.662547    0.267627
H      1.102382   -0.012246    1.791484
H      3.029339    1.287132    2.601481
H      5.074081    1.483855    1.217425
H      5.191675    0.373366   -0.988041
