33

C     -1.760233    1.178342    1.439992
Si    -2.241726    0.348358   -0.163413
C     -3.175610   -1.226537    0.212134
C     -3.383941    1.504647   -1.082487
C     -0.734708    0.029493   -1.254467
C     -0.082607   -1.347716   -1.052057
C      0.731763   -1.472881    0.246055
C      1.994785   -0.642106    0.209914
C      2.035787    0.595272    0.876345
C      3.187157    1.385683    0.834127
C      4.309589    0.950603    0.127514
C      4.283913   -0.276856   -0.538188
C      3.134483   -1.075476   -0.502321
N      3.136755   -2.326269   -1.187252
H     -1.209165    0.469954    2.089116
H     -2.677670    1.509424    1.968236
H     -1.124691    2.061014    1.222606
H     -4.094721   -0.981284    0.782641
H     -2.538563   -1.902723    0.818240
H     -3.453936   -1.727640   -0.737556
H     -2.850586    2.451898   -1.303435
H     -4.275012    1.718729   -0.457402
H     -3.704345    1.029992   -2.032543
H     -1.086870    0.087554   -2.306001
H      0.003706    0.845104   -1.111908
H     -0.862927   -2.137417   -1.072026
H      0.583802   -1.550607   -1.918105
H      1.005814   -2.540089    0.391165
H      0.104514   -1.202714    1.119485
H      1.176882    0.950316    1.428883
H      3.208669    2.337116    1.349709
H      5.200426    1.564542    0.096191
H      5.159265   -0.607728   -1.083067
