33

C     -2.790136   -0.492018   -2.177032
Si    -2.255788    0.145644   -0.505881
C     -3.439797    1.492769    0.017581
C     -2.353029   -1.265915    0.713565
C     -0.512208    0.838509   -0.685700
C      0.049457    1.478086    0.596124
C      0.709334    0.476611    1.559807
C      1.983897   -0.110895    0.997198
C      1.969317   -1.404195    0.444592
C      3.133115   -1.956766   -0.096245
C      4.322821   -1.226442   -0.091118
C      4.352087    0.058642    0.455285
C      3.190934    0.621342    0.998804
N      3.249577    1.933048    1.555134
H     -2.101645   -1.299202   -2.501124
H     -2.762607    0.336127   -2.914575
H     -3.822631   -0.891688   -2.107920
H     -4.476992    1.100248   -0.007225
H     -3.353084    2.351748   -0.678893
H     -3.199565    1.824242    1.048177
H     -1.536251   -1.988803    0.513084
H     -3.331031   -1.777151    0.601753
H     -2.270252   -0.875291    1.747856
H      0.158680    0.044553   -1.070727
H     -0.569307    1.622832   -1.469881
H      0.802182    2.242998    0.306744
H     -0.755323    2.022994    1.133201
H     -0.003011   -0.328331    1.825311
H      0.942048    1.000565    2.511889
H      1.054778   -1.983656    0.427454
H      3.111975   -2.952061   -0.521025
H      5.223120   -1.656494   -0.510655
H      5.279332    0.617950    0.456285
