33

C     -4.258301   -1.137521   -0.339960
Si    -2.742255   -0.058355   -0.195628
C     -2.600411    0.998544   -1.729228
C     -2.919597    1.041126    1.303997
C     -1.232086   -1.159715   -0.021104
C      0.053819   -0.338994    0.101368
C      1.275065   -1.252888    0.245409
C      2.538065   -0.435444    0.364848
C      3.260427   -0.104596   -0.795065
C      4.415157    0.677983   -0.710754
C      4.854542    1.146409    0.528959
C      4.137601    0.837668    1.687384
C      2.979365    0.054458    1.612979
N      2.256686   -0.232897    2.808281
H     -4.163177   -1.790415   -1.231715
H     -5.158753   -0.498010   -0.443679
H     -4.352711   -1.765095    0.569867
H     -3.534180    1.582557   -1.861303
H     -2.443241    0.347108   -2.613183
H     -1.743904    1.695333   -1.624670
H     -2.058431    1.737734    1.360373
H     -2.951048    0.414967    2.219085
H     -3.859042    1.625340    1.222915
H     -1.177672   -1.818466   -0.913854
H     -1.365938   -1.791404    0.882770
H      0.178159    0.293404   -0.804820
H     -0.013370    0.323939    0.991373
H      1.343027   -1.924635   -0.638809
H      1.157147   -1.905831    1.137441
H      2.927938   -0.451652   -1.765692
H      4.967849    0.924385   -1.608159
H      5.748413    1.753501    0.591731
H      4.480854    1.211464    2.643977
