33

C      1.820967   -1.807937   -0.460709
Si     2.235715    0.012981   -0.398617
C      3.336774    0.396199   -1.857101
C      3.186619    0.377049    1.168771
C      0.684583    1.078817   -0.544084
C      0.043368    1.456077    0.801065
C     -0.715546    0.304429    1.480561
C     -1.980055   -0.063030    0.737116
C     -1.994622   -1.192854   -0.099664
C     -3.147782   -1.533492   -0.811263
C     -4.298358   -0.751646   -0.695751
C     -4.299085    0.372733    0.132648
C     -3.148119    0.722528    0.849023
N     -3.177548    1.873160    1.690925
H      1.298595   -2.114988    0.466491
H      1.175699   -2.009944   -1.339973
H      2.759365   -2.391961   -0.553828
H      2.793363    0.173831   -2.798284
H      3.617580    1.469178   -1.836484
H      4.253051   -0.226736   -1.802716
H      4.128568   -0.208711    1.171260
H      3.425448    1.459348    1.214274
H      2.576491    0.092033    2.050209
H     -0.048251    0.575829   -1.207980
H      0.992155    2.018574   -1.049426
H      0.823189    1.838744    1.492707
H     -0.658595    2.300653    0.630050
H     -0.981862    0.616062    2.513544
H     -0.052486   -0.576861    1.594544
H     -1.113713   -1.811224   -0.203059
H     -3.148845   -2.404706   -1.453522
H     -5.190527   -1.017428   -1.247918
H     -5.196137    0.973293    0.217721
