33

C     -3.725248   -0.166133   -0.834949
Si    -2.342398    0.100157    0.392363
C     -2.030282    1.932971    0.568386
C     -2.879087   -0.571985    2.048882
C     -0.810597   -0.847471   -0.159227
C     -0.192089   -0.320017   -1.465790
C      0.865057    0.777356   -1.251035
C      2.130012    0.237848   -0.619933
C      3.014772   -0.524831   -1.403179
C      4.183690   -1.049697   -0.846175
C      4.482813   -0.820257    0.497682
C      3.614132   -0.064605    1.288062
C      2.440265    0.466194    0.739612
N      1.573911    1.233277    1.572742
H     -4.648521    0.321464   -0.460398
H     -3.448173    0.276109   -1.813420
H     -3.905555   -1.253744   -0.957567
H     -1.169577    2.101345    1.246812
H     -1.820100    2.373320   -0.427497
H     -2.932459    2.417331    0.994776
H     -3.091582   -1.656774    1.956070
H     -3.794574   -0.042682    2.383938
H     -2.068739   -0.415693    2.790191
H     -0.070211   -0.856765    0.665687
H     -1.132550   -1.898316   -0.318651
H      0.279636   -1.170266   -2.005187
H     -0.987450    0.068522   -2.137041
H      1.123910    1.211098   -2.241492
H      0.443069    1.611102   -0.657612
H      2.797324   -0.713467   -2.447356
H      4.857932   -1.635681   -1.457346
H      5.388627   -1.228158    0.927359
H      3.854044    0.108451    2.329761
