33

C     -4.272178    0.303265   -1.113713
Si    -2.734849   -0.266193   -0.221435
C     -2.529417   -2.104998   -0.477718
C     -2.923342    0.091007    1.602314
C     -1.256292    0.658027   -0.916955
C      0.045401    0.238915   -0.229878
C      1.240455    1.004141   -0.807515
C      2.519253    0.584213   -0.124884
C      3.278137   -0.469047   -0.664705
C      4.448774   -0.895088   -0.031430
C      4.868053   -0.282219    1.150927
C      4.115153    0.755211    1.706042
C      2.940749    1.188859    1.078995
N      2.181703    2.238841    1.674790
H     -4.404342    1.394170   -0.962038
H     -4.170379    0.089920   -2.197534
H     -5.154196   -0.235989   -0.711476
H     -2.365794   -2.311470   -1.555235
H     -1.659376   -2.468538    0.106163
H     -3.445351   -2.628822   -0.135500
H     -2.047445   -0.307765    2.153525
H     -2.992664    1.187021    1.758505
H     -3.846222   -0.395565    1.979115
H     -1.195308    0.446450   -2.005731
H     -1.427802    1.745965   -0.772343
H     -0.028181    0.445207    0.860137
H      0.207478   -0.851536   -0.375519
H      1.084659    2.098246   -0.686591
H      1.314455    0.808089   -1.900123
H      2.961854   -0.961784   -1.575907
H      5.029497   -1.703733   -0.456133
H      5.774331   -0.614732    1.640418
H      4.443184    1.219928    2.627481
