33

C      2.929893    0.657823    1.629837
Si     2.246954   -0.279590    0.164122
C      3.468903   -1.611745   -0.303382
C      2.085414    0.881525   -1.290983
C      0.602072   -1.113514    0.566754
C     -0.252574   -0.367247    1.603855
C     -0.936401    0.898409    1.061220
C     -2.034388    0.574949    0.073031
C     -1.792091    0.702107   -1.306113
C     -2.788292    0.385722   -2.233296
C     -4.036351   -0.060277   -1.795247
C     -4.291877   -0.190224   -0.428392
C     -3.299651    0.123608    0.508234
N     -3.588575   -0.014030    1.897909
H      3.017214   -0.025966    2.498910
H      3.931923    1.059228    1.374494
H      2.252747    1.499048    1.883287
H      3.601964   -2.307474    0.550326
H      4.443794   -1.147116   -0.556913
H      3.086414   -2.171862   -1.181187
H      3.096164    1.210402   -1.608113
H      1.592097    0.353019   -2.132174
H      1.491428    1.772463   -1.007677
H      0.847322   -2.112864    0.984203
H      0.033993   -1.281895   -0.371187
H      0.373800   -0.097597    2.480135
H     -1.030614   -1.064197    1.983620
H     -1.373361    1.459247    1.915397
H     -0.184373    1.576821    0.610083
H     -0.832015    1.045567   -1.665784
H     -2.591849    0.486109   -3.292940
H     -4.806581   -0.304775   -2.515288
H     -5.263105   -0.535675   -0.096741
