33

C     -4.280602   -0.873490    0.774435
Si    -2.738908   -0.285675   -0.098193
C     -2.906913    1.537916   -0.466256
C     -2.549677   -1.229098   -1.699203
C     -1.260381   -0.591690    1.017321
C      0.044806   -0.133019    0.362919
C      1.239821   -0.387681    1.287300
C      2.522065    0.066853    0.633926
C      3.267790   -0.844153   -0.134599
C      4.441356   -0.436268   -0.774374
C      4.876705    0.885592   -0.662451
C      4.136995    1.804593    0.085575
C      2.959780    1.405417    0.730003
N      2.214415    2.366872    1.474059
H     -5.162638   -0.697993    0.125006
H     -4.403144   -0.314023    1.724449
H     -4.190995   -1.957510    0.992191
H     -3.829664    1.710557   -1.057158
H     -2.966548    2.102783    0.486539
H     -2.028665    1.883924   -1.048500
H     -3.466106   -1.102766   -2.311281
H     -1.676716   -0.839334   -2.261406
H     -2.398107   -2.305389   -1.477685
H     -1.211607   -1.679122    1.238748
H     -1.422375   -0.039410    1.967416
H     -0.016591    0.953683    0.136177
H      0.197339   -0.687100   -0.589075
H      1.301691   -1.472862    1.524485
H      1.093350    0.144886    2.252121
H      2.938969   -1.870767   -0.239738
H      5.011877   -1.145144   -1.360478
H      5.785223    1.199625   -1.159929
H      4.477455    2.829791    0.160875
