33

C      3.579792   -1.271861   -0.339156
Si     2.356707    0.139977   -0.323199
C      2.915447    1.425517   -1.555703
C      2.343325    0.913590    1.376492
C      0.658915   -0.482752   -0.850816
C      0.025534   -1.473190    0.142023
C     -0.830944   -0.798332    1.227802
C     -2.108764   -0.213139    0.667271
C     -3.159524   -1.077535    0.311354
C     -4.346450   -0.569613   -0.222808
C     -4.498347    0.805374   -0.408298
C     -3.463926    1.676320   -0.059376
C     -2.270534    1.177682    0.476984
N     -1.233234    2.092754    0.823026
H      3.581433   -1.747447   -1.341284
H      3.296009   -2.022147    0.426541
H      4.593724   -0.882791   -0.113239
H      3.924911    1.791283   -1.276886
H      2.200530    2.273761   -1.553302
H      2.951626    0.974887   -2.568697
H      1.575619    1.712615    1.416646
H      3.340139    1.353129    1.585070
H      2.123727    0.137956    2.138092
H     -0.005682    0.384163   -1.039253
H      0.802756   -0.999278   -1.823367
H      0.814525   -2.084460    0.629857
H     -0.612215   -2.186508   -0.424414
H     -1.099048   -1.564837    1.987232
H     -0.240376   -0.033019    1.767137
H     -3.057829   -2.147247    0.447543
H     -5.149069   -1.243284   -0.493877
H     -5.418452    1.196766   -0.822694
H     -3.590328    2.741666   -0.206701
