33

C      5.624525    0.646265    0.375093
C      4.182499    0.659576    0.786223
O      3.851416    1.356491    1.783986
C      3.148003   -0.120397    0.053670
C      3.481946   -0.909188   -1.063072
C      2.497908   -1.627513   -1.744933
C      1.166367   -1.578494   -1.325474
N      0.181255   -2.309945   -2.052368
C      0.811442   -0.809069   -0.200366
C     -0.623324   -0.709044    0.257933
C     -1.350078    0.414668   -0.487032
C     -2.780857    0.512858   -0.030898
C     -3.121947    1.325279    1.063488
C     -4.446768    1.389645    1.506569
C     -5.436500    0.637397    0.867814
C     -5.102373   -0.183859   -0.212623
C     -3.778796   -0.251175   -0.658942
C      1.804307   -0.075715    0.471853
H      6.023153   -0.388274    0.431378
H      6.227982    1.291774    1.048417
H      5.724697    1.030764   -0.661476
H      4.500980   -0.972892   -1.419876
H      2.772917   -2.222468   -2.607066
H     -1.147213   -1.675383    0.090411
H     -0.657407   -0.511617    1.352428
H     -0.829986    1.381363   -0.305865
H     -1.317710    0.222812   -1.582279
H     -2.362737    1.905831    1.572945
H     -4.705516    2.020085    2.347441
H     -6.461151    0.687339    1.212848
H     -5.868467   -0.771134   -0.702194
H     -3.531123   -0.898607   -1.491116
H      1.522559    0.532629    1.323083
