33

C      2.336740    2.123300    0.972741
C      2.726698    1.487689   -0.328503
O      3.615800    2.047120   -1.026488
C      2.096530    0.228272   -0.807090
C      2.362677   -0.243516   -2.104559
C      1.748321   -1.404016   -2.579111
C      0.858757   -2.115352   -1.770035
N      0.223338   -3.280335   -2.292034
C      0.593819   -1.673707   -0.459337
C     -0.410214   -2.383834    0.420696
C     -1.842807   -1.897492    0.155673
C     -2.008414   -0.437351    0.495191
C     -1.931764    0.539590   -0.512574
C     -2.012714    1.896475   -0.185682
C     -2.168763    2.287844    1.146686
C     -2.242817    1.322807    2.154821
C     -2.159886   -0.035360    1.832710
C      1.216343   -0.504413    0.011383
H      1.238456    2.286003    1.000472
H      2.838616    3.107185    1.091484
H      2.639558    1.468847    1.816597
H      3.035955    0.292732   -2.761585
H      1.956670   -1.744499   -3.585802
H     -0.360985   -3.479663    0.243521
H     -0.157563   -2.232480    1.493397
H     -2.111410   -2.083043   -0.907520
H     -2.545584   -2.498101    0.773098
H     -1.791832    0.251102   -1.547034
H     -1.947591    2.644896   -0.964757
H     -2.228040    3.338792    1.398353
H     -2.357663    1.627451    3.186990
H     -2.202213   -0.773021    2.624464
H      0.991983   -0.163924    1.013838
