33

C      3.660000    2.015525    1.114188
C      2.487316    1.680387    0.241957
O      1.861548    2.626911   -0.308865
C      2.049578    0.275874    0.017583
C      2.715080   -0.804043    0.626944
C      2.280047   -2.114451    0.419658
C      1.176421   -2.373812   -0.396456
N      0.743864   -3.721030   -0.573669
C      0.502444   -1.310009   -1.026434
C     -0.729452   -1.552469   -1.869123
C     -1.993595   -1.682262   -1.007088
C     -2.296796   -0.405861   -0.263887
C     -2.929565    0.662104   -0.921457
C     -3.161640    1.865414   -0.248064
C     -2.757650    2.013426    1.081664
C     -2.120250    0.958510    1.740322
C     -1.888227   -0.247104    1.071565
C      0.943741    0.007180   -0.810415
H      3.473323    1.660597    2.149335
H      3.822549    3.114110    1.143886
H      4.577529    1.536255    0.713219
H      3.569686   -0.644731    1.270396
H      2.800840   -2.931965    0.902638
H     -0.863857   -0.729527   -2.605437
H     -0.600021   -2.482104   -2.464011
H     -1.878672   -2.528570   -0.294851
H     -2.852493   -1.934528   -1.666314
H     -3.235294    0.564163   -1.955759
H     -3.649914    2.685198   -0.758896
H     -2.934885    2.946725    1.600249
H     -1.801182    1.076710    2.767750
H     -1.379304   -1.050993    1.588999
H      0.408833    0.824368   -1.279627
