33

C      5.473496    1.494469    0.022921
C      3.982975    1.637001   -0.058782
O      3.480459    2.779360    0.123784
C      3.096018    0.477002   -0.346677
C      3.622472   -0.811292   -0.556367
C      2.775959   -1.890733   -0.816134
C      1.392491   -1.707357   -0.877277
N      0.552626   -2.832352   -1.127989
C      0.844212   -0.423955   -0.687214
C     -0.648192   -0.199005   -0.714159
C     -1.255021   -0.441761    0.671014
C     -2.743106   -0.218922    0.643176
C     -3.273165    1.059697    0.884472
C     -4.654161    1.271843    0.825672
C     -5.513057    0.213465    0.516502
C     -4.992076   -1.058136    0.261442
C     -3.611726   -1.274667    0.319190
C      1.700838    0.655382   -0.410284
H      5.947212    2.474028    0.247117
H      5.740489    0.782764    0.831957
H      5.870817    1.126652   -0.946196
H      4.687580   -0.994991   -0.516400
H      3.199158   -2.876176   -0.966730
H     -0.867442    0.842604   -1.038253
H     -1.123788   -0.873112   -1.459627
H     -0.785450    0.243832    1.410797
H     -1.037416   -1.481716    1.000502
H     -2.617621    1.890194    1.115822
H     -5.058234    2.257662    1.016358
H     -6.581549    0.379665    0.470091
H     -5.657642   -1.875446    0.015477
H     -3.219801   -2.262458    0.110176
H      1.272642    1.636459   -0.242379
