33

C      5.496548    1.317403   -0.657732
C      4.037676    1.485434   -0.354251
O      3.576559    2.655895   -0.263524
C      3.134629    0.318373   -0.160215
C      3.615247   -1.001147   -0.253469
C      2.752937   -2.085072   -0.078016
C      1.399667   -1.876230    0.198379
N      0.540420   -3.003472    0.356061
C      0.899644   -0.564462    0.312821
C     -0.563678   -0.305404    0.577728
C     -1.351941   -0.274507   -0.735116
C     -2.810983   -0.017820   -0.470283
C     -3.685865   -1.089513   -0.225084
C     -5.034739   -0.847563    0.053458
C     -5.516524    0.463647    0.098812
C     -4.649272    1.535512   -0.130179
C     -3.299662    1.298043   -0.409057
C      1.769806    0.522194    0.119261
H      5.621997    0.757424   -1.608014
H      5.992956    0.768126    0.169442
H      5.988802    2.307389   -0.766460
H      4.655779   -1.205018   -0.466841
H      3.139650   -3.093208   -0.161634
H     -0.976199   -1.089972    1.249005
H     -0.685639    0.665693    1.107022
H     -1.232196   -1.242947   -1.269162
H     -0.944080    0.520496   -1.398015
H     -3.322898   -2.109687   -0.248002
H     -5.705826   -1.676532    0.237638
H     -6.560510    0.649237    0.315840
H     -5.022070    2.550758   -0.088124
H     -2.635973    2.137603   -0.575316
H      1.375734    1.529330    0.185896
