33

C      5.499219    1.349087   -0.361894
C      4.028144    1.517762   -0.124973
O      3.553024    2.686130   -0.121152
C      3.129073    0.353728    0.102777
C      3.625139   -0.963365    0.105882
C      2.766722   -2.045028    0.311754
C      1.401853   -1.835972    0.523366
N      0.547588   -2.961879    0.714173
C      0.885647   -0.525603    0.541112
C     -0.589202   -0.268350    0.734082
C     -1.326038   -0.323278   -0.607531
C     -2.796540   -0.068045   -0.414371
C     -3.299082    1.243547   -0.449466
C     -4.660610    1.481662   -0.236970
C     -5.526412    0.415297    0.021302
C     -5.031419   -0.890801    0.071688
C     -3.670599   -1.133378   -0.140235
C      1.752590    0.557816    0.317320
H      5.986159    2.336626   -0.509747
H      5.666749    0.735999   -1.272060
H      5.968096    0.854855    0.514595
H      4.675022   -1.167371   -0.055134
H      3.165703   -3.051807    0.302533
H     -1.020282   -1.017038    1.434061
H     -0.740608    0.730552    1.200270
H     -1.176845   -1.319903   -1.078593
H     -0.899911    0.436123   -1.300019
H     -2.637025    2.079389   -0.639290
H     -5.043903    2.493358   -0.269052
H     -6.579685    0.601460    0.186866
H     -5.701663   -1.715107    0.278480
H     -3.297828   -2.148985   -0.089149
H      1.346924    1.562520    0.309375
