33

C      5.290012    0.409531   -1.985602
C      3.794288    0.302986   -1.995456
O      3.174316    0.683516   -3.025829
C      3.035852   -0.234417   -0.833067
C      3.695057   -0.668927    0.332040
C      2.968120   -1.161790    1.417353
C      1.574325   -1.236265    1.361292
N      0.858523   -1.728757    2.492186
C      0.894237   -0.822732    0.199257
C     -0.612728   -0.859562    0.119910
C     -1.214018    0.430328    0.686044
C     -2.716449    0.392474    0.607955
C     -3.466951   -0.159518    1.659675
C     -4.861095   -0.224039    1.571422
C     -5.513684    0.252008    0.430829
C     -4.772881    0.789624   -0.625407
C     -3.378562    0.856045   -0.541289
C      1.630965   -0.312700   -0.883595
H      5.615200    1.075601   -1.159192
H      5.656988    0.835000   -2.943991
H      5.738912   -0.597255   -1.854405
H      4.772593   -0.626740    0.415311
H      3.492593   -1.483812    2.308479
H     -1.004416   -1.737369    0.678809
H     -0.932339   -0.984949   -0.938478
H     -0.896420    0.561177    1.744075
H     -0.829292    1.304571    0.115517
H     -2.972546   -0.540440    2.544822
H     -5.435337   -0.646360    2.385892
H     -6.592681    0.200120    0.363559
H     -5.278867    1.151766   -1.511017
H     -2.815401    1.266215   -1.370503
H      1.101686    0.025280   -1.766596
