33

C      3.273750    2.050119   -1.943962
C      2.229334    0.988969   -1.766623
O      1.538918    0.655748   -2.768216
C      1.990446    0.331878   -0.452935
C      2.731845    0.688256    0.688888
C      2.482469    0.074058    1.917693
C      1.492194   -0.904435    2.032612
N      1.247329   -1.499965    3.304968
C      0.746156   -1.285950    0.900947
C     -0.370806   -2.299952    1.004279
C     -1.676775   -1.661395    1.498946
C     -2.197997   -0.631652    0.528671
C     -1.925957    0.733016    0.726754
C     -2.361730    1.680294   -0.204557
C     -3.068064    1.273183   -1.339595
C     -3.337397   -0.082495   -1.546680
C     -2.901474   -1.033542   -0.618913
C      1.000145   -0.660805   -0.332373
H      3.295032    2.404237   -2.996738
H      3.046579    2.915908   -1.287340
H      4.274241    1.640575   -1.691724
H      3.502888    1.445307    0.642774
H      3.058704    0.366484    2.786753
H     -0.544445   -2.787456    0.019573
H     -0.077053   -3.111645    1.704086
H     -2.439148   -2.459953    1.629391
H     -1.517461   -1.205624    2.500754
H     -1.366068    1.060728    1.593995
H     -2.147265    2.729649   -0.048863
H     -3.403125    2.007613   -2.060522
H     -3.879404   -0.397076   -2.429105
H     -3.104701   -2.082239   -0.797164
H      0.408841   -0.941839   -1.195774
