33

C      5.483049    1.400705   -0.318390
C      4.035705    1.502612    0.060359
O      3.583035    2.631319    0.394945
C      3.134335    0.318293    0.050624
C      3.605694   -0.955977   -0.316637
C      2.744796   -2.055042   -0.329559
C      1.402335   -1.907602    0.027388
N      0.543718   -3.045627   -0.011580
C      0.912246   -0.645148    0.414527
C     -0.540358   -0.446438    0.773764
C     -1.371362   -0.159099   -0.480326
C     -2.819674    0.037489   -0.121752
C     -3.690934   -1.063228   -0.063530
C     -5.028755   -0.883563    0.301907
C     -5.502718    0.392053    0.620669
C     -4.638548    1.489730    0.578615
C     -3.299981    1.314526    0.213708
C      1.780407    0.460178    0.409981
H      5.574692    1.039232   -1.363994
H      6.003895    0.700225    0.367461
H      5.975906    2.393721   -0.246167
H      4.637690   -1.111616   -0.600465
H      3.124016   -3.026126   -0.622923
H     -0.640414    0.401064    1.487757
H     -0.934036   -1.348759    1.290648
H     -1.273756   -1.003123   -1.198322
H     -0.981947    0.751721   -0.986861
H     -3.333640   -2.058169   -0.299026
H     -5.697227   -1.733892    0.341381
H     -6.538110    0.529185    0.904589
H     -5.005060    2.476051    0.832215
H     -2.638265    2.171693    0.194126
H      1.393267    1.433613    0.686754
