33

C     -5.537784    1.234698    0.053429
C     -4.081147    1.318783    0.399520
O     -3.653373    2.378523    0.933185
C     -3.142356    0.195423    0.131361
C     -3.585302   -1.001516   -0.461900
C     -2.689861   -2.042298   -0.715311
C     -1.340271   -1.913457   -0.378624
N     -0.446830   -2.987496   -0.665058
C     -0.877466   -0.731194    0.231228
C      0.580530   -0.548171    0.576692
C      1.352992    0.008608   -0.622964
C      2.806729    0.189581   -0.278394
C      3.715205   -0.866373   -0.461964
C      5.059407   -0.707704   -0.110492
C      5.503126    0.500319    0.434706
C      4.602452    1.550460    0.633311
C      3.257377    1.396030    0.283257
C     -1.781036    0.318813    0.468960
H     -5.657414    1.078782   -1.039150
H     -6.008730    0.394781    0.605782
H     -6.059875    2.174698    0.332763
H     -4.621753   -1.140208   -0.738186
H     -3.047921   -2.952642   -1.180006
H      0.680007    0.148807    1.438309
H      1.023122   -1.516996    0.895794
H      0.914714    0.983891   -0.930455
H      1.255778   -0.684131   -1.487881
H      3.381982   -1.810632   -0.874715
H      5.756422   -1.522576   -0.257548
H      6.543561    0.621028    0.707425
H      4.945853    2.483145    1.061853
H      2.567646    2.214040    0.450940
H     -1.415781    1.234983    0.917598
