33

C     -5.578247   -0.264417   -1.042426
C     -4.106436   -0.460891   -1.251739
O     -3.698436   -0.731142   -2.414210
C     -3.130274   -0.345972   -0.134118
C     -3.550326   -0.046375    1.175317
C     -2.620750    0.067151    2.210814
C     -1.258705   -0.120391    1.963810
N     -0.331786    0.018503    3.038693
C     -0.816821   -0.437465    0.664558
C      0.650842   -0.613416    0.358608
C      1.298601    0.735210    0.030753
C      2.762176    0.559425   -0.272362
C      3.187341    0.292202   -1.584566
C      4.544600    0.096452   -1.858690
C      5.483799    0.156173   -0.825349
C      5.066865    0.407620    0.484761
C      3.710599    0.603960    0.763291
C     -1.756182   -0.534522   -0.376426
H     -6.128623   -0.391854   -1.999010
H     -5.959136   -1.012980   -0.316535
H     -5.771442    0.759966   -0.660768
H     -4.595495    0.106934    1.407517
H     -2.962324    0.306376    3.210301
H      0.776686   -1.305214   -0.503735
H      1.168908   -1.082314    1.223522
H      0.785602    1.194261   -0.843271
H      1.174188    1.431404    0.889390
H      2.468533    0.234034   -2.392598
H      4.867894   -0.105047   -2.871781
H      6.533738    0.003119   -1.039016
H      5.794316    0.446922    1.285225
H      3.399274    0.788581    1.784083
H     -1.408977   -0.756293   -1.378585
