34

N     -3.338796   -2.119351   -1.156404
C     -3.486655   -0.909741   -0.415834
C     -4.706640   -0.224585   -0.465469
C     -4.878019    0.961349    0.252172
C     -3.831203    1.468684    1.023935
C     -2.610152    0.791741    1.080492
C     -2.424072   -0.404008    0.363992
C     -1.087226   -1.107424    0.417691
C     -0.231536   -0.835417   -0.832087
C      0.165844    0.642103   -1.022530
C      1.114355    1.188588    0.058319
C      2.438049    0.467368    0.073610
C      2.712774   -0.497971    1.057416
C      3.933000   -1.180782    1.052691
C      4.885054   -0.907649    0.066777
C      4.618022    0.048132   -0.917193
C      3.398893    0.732951   -0.916603
H     -5.523675   -0.611273   -1.061737
H     -5.822882    1.487587    0.209712
H     -3.965298    2.388622    1.578223
H     -1.808842    1.202788    1.681309
H     -1.256409   -2.202820    0.498839
H     -0.530358   -0.823632    1.334970
H      0.682337   -1.465154   -0.787202
H     -0.793960   -1.164062   -1.732479
H      0.656596    0.747302   -2.014644
H     -0.746987    1.273909   -1.055707
H      1.297776    2.265479   -0.148017
H      0.630995    1.146877    1.056479
H      1.983163   -0.724092    1.824688
H      4.139823   -1.923199    1.812622
H      5.828758   -1.437608    0.064339
H      5.355082    0.257149   -1.681725
H      3.202189    1.468139   -1.687131
