34

N     -2.104071    1.511222   -1.630256
C     -2.922525    0.785944   -0.715864
C     -4.227112    0.447153   -1.095243
C     -5.054301   -0.261219   -0.221045
C     -4.582672   -0.635004    1.038234
C     -3.282474   -0.302068    1.426417
C     -2.437809    0.411569    0.557273
C     -1.028843    0.736195    1.002209
C     -0.109343   -0.497022    0.965429
C      0.165951   -1.036793   -0.451891
C      1.047347   -0.119348   -1.317086
C      2.431869    0.048356   -0.745071
C      2.777808    1.219364   -0.049127
C      4.056268    1.360903    0.499215
C      4.995958    0.335890    0.359682
C      4.658210   -0.833487   -0.327084
C      3.380668   -0.979534   -0.876519
H     -4.601284    0.733293   -2.070318
H     -6.061692   -0.520501   -0.520111
H     -5.224765   -1.184518    1.714443
H     -2.931695   -0.602014    2.406293
H     -1.068623    1.107165    2.049583
H     -0.591893    1.565854    0.410288
H     -0.572217   -1.309583    1.566683
H      0.849896   -0.248761    1.466764
H     -0.795762   -1.216284   -0.977817
H      0.664448   -2.026381   -0.359813
H      1.132002   -0.567963   -2.330751
H      0.560978    0.867526   -1.458585
H      2.057531    2.018724    0.073058
H      4.317804    2.264578    1.034395
H      5.984860    0.446878    0.785348
H      5.385855   -1.627812   -0.432122
H      3.129626   -1.892321   -1.402551
