34

N     -3.078882    2.564081   -0.093285
C     -3.763016    1.313784   -0.045555
C     -5.088590    1.277981    0.403987
C     -5.775768    0.063861    0.474423
C     -5.140340   -1.121737    0.100341
C     -3.817595   -1.096071   -0.349835
C     -3.119363    0.120939   -0.439863
C     -1.681197    0.120051   -0.897584
C     -0.733505    0.002891    0.301105
C      0.730665    0.000024   -0.152519
C      1.678041   -0.117334    1.046057
C      3.112073   -0.118705    0.588549
C      3.747778   -1.325767    0.252230
C      5.069722   -1.322060   -0.203934
C      5.761717   -0.115030   -0.336626
C      5.131551    1.090910   -0.017277
C      3.809726    1.091757    0.439242
H     -5.586282    2.191976    0.703208
H     -6.799877    0.041453    0.824007
H     -5.672046   -2.062461    0.162392
H     -3.336519   -2.025993   -0.627189
H     -1.460829    1.049825   -1.465796
H     -1.507791   -0.730842   -1.592975
H     -0.951079   -0.940231    0.849875
H     -0.903099    0.859312    0.990556
H      0.901273   -0.857154   -0.841098
H      0.947790    0.943114   -0.701569
H      1.507428    0.731853    1.744058
H      1.461441   -1.054099    1.605504
H      3.219603   -2.267026    0.341769
H      5.556560   -2.254784   -0.457888
H      6.784371   -0.113817   -0.691072
H      5.666237    2.025574   -0.126778
H      3.329800    2.033723    0.674459
