34

N      3.008297    2.514816    1.055693
C      3.724214    1.377921    0.577683
C      5.022139    1.548238    0.080796
C      5.738743    0.452978   -0.407204
C      5.160303   -0.817753   -0.405541
C      3.865529   -0.997737    0.088559
C      3.138939    0.093496    0.596518
C      1.730179   -0.119308    1.094453
C      0.718712    0.109296   -0.033987
C     -0.716179   -0.105242    0.460621
C     -1.727317    0.123194   -0.667783
C     -3.131952   -0.089794   -0.170392
C     -3.854371    0.976360    0.391442
C     -5.147105    0.769312    0.882972
C     -5.722856   -0.502956    0.826146
C     -5.005224   -1.571425    0.281386
C     -3.712220   -1.368796   -0.211278
H      5.475257    2.531682    0.068910
H      6.741208    0.590261   -0.791556
H      5.714379   -1.664028   -0.790690
H      3.428189   -1.988511    0.073889
H      1.516287    0.569186    1.940699
H      1.621705   -1.154725    1.486632
H      0.931310   -0.598179   -0.866002
H      0.823578    1.147868   -0.418607
H     -0.822093   -1.144308    0.844193
H     -0.928306    0.602114    1.292887
H     -1.621708    1.157706   -1.062833
H     -1.516498   -0.574880   -1.507827
H     -3.416103    1.965029    0.449845
H     -5.701255    1.594579    1.311141
H     -6.722984   -0.661772    1.208211
H     -5.449574   -2.557646    0.243987
H     -3.163224   -2.206976   -0.622386
