34

N      2.195973    1.537728    1.501380
C      2.959464    0.563997    0.793613
C      4.284961    0.858975    0.451997
C      5.059549   -0.074881   -0.239512
C      4.514066   -1.309822   -0.593494
C      3.192434   -1.613948   -0.257570
C      2.400090   -0.684003    0.439238
C      0.966503   -1.038409    0.767507
C      0.052884   -0.967484   -0.468587
C     -0.136257    0.454477   -1.032669
C     -0.965844    1.386116   -0.132136
C     -2.382371    0.900778    0.041426
C     -3.319915    1.071384   -0.991028
C     -4.628268    0.601825   -0.839215
C     -5.008411   -0.043750    0.340568
C     -4.080439   -0.221929    1.370258
C     -2.771241    0.246560    1.222971
H      4.716310    1.814611    0.722829
H      6.083447    0.159039   -0.501081
H      5.115469   -2.032338   -1.129957
H      2.784174   -2.576008   -0.542061
H      0.564365   -0.407560    1.586008
H      0.942962   -2.079901    1.156011
H      0.480310   -1.608913   -1.269768
H     -0.935030   -1.406340   -0.214537
H     -0.637734    0.375727   -2.021903
H      0.855483    0.918886   -1.218360
H     -0.473508    1.514876    0.853523
H     -0.988986    2.395337   -0.597835
H     -3.036357    1.566035   -1.911804
H     -5.347018    0.736783   -1.637111
H     -6.021182   -0.407622    0.456028
H     -4.375002   -0.725237    2.282047
H     -2.060880    0.095012    2.026168
