34

N     -3.163078   -2.262397   -1.438936
C     -3.410336   -1.039098   -0.749108
C     -4.659327   -0.834198   -0.150523
C     -4.927655    0.355966    0.529421
C     -3.949342    1.348203    0.614277
C     -2.700063    1.153400    0.019493
C     -2.416635   -0.039517   -0.669295
C     -1.050379   -0.241581   -1.283581
C     -0.146004   -1.137457   -0.418912
C      0.185206   -0.556199    0.970218
C      1.047508    0.717311    0.936154
C      2.403526    0.472169    0.324862
C      3.399645   -0.193486    1.058975
C      4.650345   -0.442061    0.485204
C      4.914216   -0.031906   -0.824439
C      3.927470    0.626948   -1.562867
C      2.675563    0.878066   -0.992890
H     -5.423684   -1.598811   -0.211630
H     -5.894552    0.509018    0.991137
H     -4.158518    2.269257    1.142864
H     -1.952862    1.932731    0.099322
H     -1.167704   -0.715997   -2.281710
H     -0.556912    0.734237   -1.474134
H      0.795098   -1.340966   -0.972680
H     -0.643622   -2.120785   -0.275816
H     -0.755569   -0.341403    1.520076
H      0.720708   -1.334478    1.556489
H      1.186481    1.074723    1.979636
H      0.515838    1.532279    0.402436
H      3.206056   -0.520261    2.073199
H      5.414453   -0.954415    1.055367
H      5.882454   -0.225977   -1.267485
H      4.132062    0.941686   -2.578020
H      1.919613    1.384997   -1.579172
