34

N      3.052649    1.914309    1.760128
C      3.749620    0.986657    0.931119
C      5.064929    0.634406    1.257299
C      5.764017   -0.283531    0.469943
C      5.150729   -0.857948   -0.645079
C      3.838375   -0.512479   -0.978772
C      3.128650    0.421379   -0.203565
C      1.701381    0.754194   -0.564073
C      0.728030   -0.164707    0.182191
C     -0.725307    0.164039   -0.177411
C     -1.698335   -0.754906    0.568669
C     -3.121473   -0.422606    0.208094
C     -3.735666   -1.038811   -0.895213
C     -5.046840   -0.704740   -1.248560
C     -5.749241    0.251961   -0.510494
C     -5.140188    0.879348    0.579837
C     -3.829191    0.548266    0.936636
H      5.545304    1.069549    2.124773
H      6.780084   -0.553543    0.727257
H      5.691493   -1.574434   -1.249847
H      3.374292   -0.974456   -1.841510
H      1.483502    1.816459   -0.319065
H      1.553491    0.639987   -1.660769
H      0.872192   -0.042372    1.278463
H      0.943700   -1.222759   -0.086095
H     -0.870502    0.040538   -1.273618
H     -0.940517    1.222268    0.090645
H     -1.553256   -0.643714    1.665948
H     -1.483961   -1.815949    0.312432
H     -3.199055   -1.774964   -1.480943
H     -5.517191   -1.185099   -2.096795
H     -6.763510    0.510318   -0.786112
H     -5.682777    1.624909    1.146592
H     -3.365429    1.048429    1.777896
