34

N      3.148346    2.255705   -1.459186
C      3.403377    1.043250   -0.753229
C      4.638185    0.404466   -0.918977
C      4.913787   -0.783171   -0.237525
C      3.956987   -1.338572    0.613883
C      2.722015   -0.708120    0.786489
C      2.431528    0.488770    0.107605
C      1.080086    1.141428    0.287815
C      0.129136    0.853521   -0.887320
C     -0.230160   -0.635210   -1.065727
C     -1.060822   -1.229859    0.084467
C     -2.403121   -0.558370    0.225515
C     -2.625540    0.383803    1.244372
C     -3.865194    1.020998    1.355924
C     -4.889063    0.725133    0.451937
C     -4.674659   -0.207771   -0.566268
C     -3.436385   -0.846962   -0.681874
H      5.385825    0.828600   -1.577577
H      5.869623   -1.273447   -0.369824
H      4.171715   -2.259761    1.140003
H      1.991297   -1.156064    1.447878
H      1.216324    2.241242    0.371159
H      0.615726    0.825759    1.245293
H     -0.799318    1.448384   -0.753678
H      0.598912    1.213961   -1.827761
H      0.698350   -1.232326   -1.187631
H     -0.801319   -0.746137   -2.013180
H     -0.494215   -1.182736    1.037586
H     -1.222849   -2.310144   -0.122036
H     -1.840477    0.627188    1.949075
H     -4.031517    1.745720    2.142415
H     -5.847755    1.219795    0.539446
H     -5.467515   -0.434368   -1.267331
H     -3.281311   -1.564704   -1.477932
