34

N     -2.170223   -2.136177   -0.519905
C     -2.954717   -0.970565   -0.279229
C     -4.224766   -1.114194    0.292612
C     -5.018331    0.008243    0.538877
C     -4.547426    1.281430    0.214569
C     -3.281528    1.435670   -0.356185
C     -2.471000    0.314779   -0.610726
C     -1.097187    0.520788   -1.209671
C     -0.093871    1.077200   -0.184283
C      0.246706    0.101086    0.959021
C      1.079680   -1.116704    0.522826
C      2.437432   -0.722696   -0.000142
C      2.687283   -0.694645   -1.382913
C      3.941540   -0.306735   -1.864098
C      4.952622    0.057866   -0.970836
C      4.710642    0.036885    0.405453
C      3.457636   -0.349789    0.891025
H     -4.598126   -2.098283    0.547216
H     -5.999090   -0.109135    0.981415
H     -5.163392    2.150464    0.406589
H     -2.930641    2.431084   -0.599494
H     -0.706934   -0.408497   -1.672015
H     -1.183709    1.253100   -2.041792
H     -0.511349    2.006683    0.260450
H      0.835546    1.377111   -0.712816
H     -0.689448   -0.253890    1.439972
H      0.810624    0.657514    1.739181
H      1.215648   -1.782362    1.402797
H      0.529046   -1.715089   -0.231651
H      1.911028   -0.967526   -2.086950
H      4.128976   -0.286641   -2.929889
H      5.922667    0.358507   -1.345089
H      5.493551    0.322135    1.096206
H      3.281113   -0.357617    1.959525
