34

N      1.910979    2.102185    1.098016
C      2.824904    1.167986    0.528788
C      4.110156    1.058726    1.073622
C      5.029072    0.154360    0.536993
C      4.669086   -0.646226   -0.548090
C      3.389109   -0.545119   -1.098984
C      2.452944    0.361402   -0.569870
C      1.069200    0.428866   -1.177518
C      0.201042   -0.778034   -0.780839
C     -0.157438   -0.832228    0.717323
C     -1.138296    0.262387    1.172144
C     -2.481692    0.141496    0.499168
C     -2.822296    0.989814   -0.568359
C     -4.060725    0.858959   -1.204241
C     -4.965268   -0.119166   -0.782086
C     -4.632202   -0.969525    0.275799
C     -3.394587   -0.842604    0.914171
H      4.397985    1.676112    1.915430
H      6.020978    0.074213    0.962674
H      5.382188   -1.347109   -0.962528
H      3.125517   -1.175595   -1.939335
H      1.172205    0.432194   -2.284574
H      0.555286    1.378417   -0.924784
H      0.740780   -1.712945   -1.046618
H     -0.727252   -0.772437   -1.390223
H      0.768645   -0.764775    1.326853
H     -0.606480   -1.825837    0.934962
H     -1.280280    0.171925    2.271050
H     -0.704936    1.269099    1.001186
H     -2.128381    1.747363   -0.910859
H     -4.318306    1.514588   -2.025976
H     -5.923154   -0.219470   -1.275879
H     -5.332382   -1.728504    0.600072
H     -3.146401   -1.510516    1.729776
