34

N     -3.138827    1.014099   -2.404431
C     -3.790207    0.610552   -1.201760
C     -5.130076    0.207347   -1.253631
C     -5.786312   -0.206876   -0.092151
C     -5.105633   -0.224792    1.126745
C     -3.768291    0.176041    1.188573
C     -3.100367    0.609511    0.029813
C     -1.646730    1.006401    0.114955
C     -0.741282   -0.197199   -0.168261
C      0.738232    0.194475   -0.083374
C      1.643371   -1.009039   -0.366495
C      3.092882   -0.612387   -0.280786
C      3.762577   -0.124242   -1.415448
C      5.099944    0.274694   -1.326387
C      5.773907    0.198506   -0.104358
C      5.110388   -0.272927    1.031812
C      3.773039   -0.672893    0.947202
H     -5.663045    0.211041   -2.196261
H     -6.821690   -0.518977   -0.137916
H     -5.613640   -0.552892    2.024409
H     -3.252298    0.147151    2.140428
H     -1.430684    1.822116   -0.608811
H     -1.424731    1.408142    1.128353
H     -0.953476   -0.998504    0.573932
H     -0.959382   -0.591683   -1.185304
H      0.957352    0.587777    0.934127
H      0.949973    0.996117   -0.825368
H      1.431618   -1.818689    0.366344
H      1.424096   -1.413744   -1.379197
H      3.248954   -0.051499   -2.366162
H      5.612829    0.646218   -2.204109
H      6.808580    0.508909   -0.036860
H      5.631358   -0.325206    1.979089
H      3.267573   -1.027548    1.836965
