34

N      3.116621    1.925488    1.824392
C      3.382075    0.818461    0.965621
C      4.662181    0.672034    0.417757
C      4.948703   -0.404460   -0.424785
C      3.957544   -1.340933   -0.723875
C      2.677187   -1.203873   -0.181367
C      2.375095   -0.125593    0.669434
C      0.976934    0.019136    1.225337
C      0.148087    1.066377    0.460853
C     -0.106102    0.719969   -1.019902
C     -0.995053   -0.516298   -1.238920
C     -2.381807   -0.328585   -0.678351
C     -3.315239    0.473762   -1.356007
C     -4.594439    0.667562   -0.825589
C     -4.949445    0.065863    0.384760
C     -4.025500   -0.730163    1.067184
C     -2.745391   -0.927107    0.540175
H      5.436684    1.394031    0.644634
H      5.939694   -0.512577   -0.846381
H      4.180948   -2.173685   -1.378180
H      1.920682   -1.937977   -0.428012
H      1.040174    0.327630    2.291138
H      0.452386   -0.959062    1.229378
H      0.674034    2.044374    0.504842
H     -0.821901    1.209292    0.982816
H      0.863075    0.565260   -1.539805
H     -0.586987    1.596343   -1.506637
H     -0.515402   -1.420565   -0.810040
H     -1.074801   -0.701635   -2.332172
H     -3.050856    0.949095   -2.292528
H     -5.309975    1.285853   -1.352067
H     -5.939636    0.217696    0.794524
H     -4.300665   -1.193410    2.005876
H     -2.038902   -1.542305    1.082917
