34

N      3.206342   -0.930618    2.221408
C      3.820259   -0.289199    1.105500
C      5.162979   -0.560889    0.816013
C      5.783140    0.042931   -0.280373
C      5.063386    0.918028   -1.096161
C      3.722880    1.195597   -0.815142
C      3.090857    0.606344    0.293945
C      1.633377    0.895418    0.558557
C      0.743250   -0.144585   -0.130477
C     -0.740059    0.140067    0.130948
C     -1.629885   -0.899722   -0.558202
C     -3.083258   -0.610307   -0.294188
C     -3.802570    0.243222   -1.147596
C     -5.143827    0.537081   -0.882434
C     -5.772382   -0.010078    0.239582
C     -5.059526   -0.848860    1.100782
C     -3.718111   -1.145336    0.839362
H      5.726212   -1.244256    1.439229
H      6.820908   -0.171588   -0.500663
H      5.543552    1.379404   -1.949446
H      3.176435    1.869437   -1.463563
H      1.376749    1.910975    0.183799
H      1.437087    0.897296    1.652803
H      0.934995   -0.123197   -1.226261
H      0.996093   -1.158112    0.252139
H     -0.993914    1.153152   -0.252744
H     -0.931375    0.118970    1.226837
H     -1.375982   -1.916862   -0.186191
H     -1.438212   -0.890789   -1.653925
H     -3.324546    0.681046   -2.015212
H     -5.694978    1.191850   -1.544996
H     -6.810150    0.219425    0.444079
H     -5.545436   -1.266666    1.973023
H     -3.174291   -1.789182    1.519566
