34

N     -2.188331   -0.574469   -2.161292
C     -2.961783   -0.181118   -1.030339
C     -4.264959   -0.675179   -0.895093
C     -5.048646   -0.306835    0.200541
C     -4.534656    0.558198    1.167734
C     -3.235473    1.056631    1.042286
C     -2.434351    0.695266   -0.055787
C     -1.024807    1.236725   -0.148224
C     -0.070593    0.544631    0.840786
C      0.184717   -0.944259    0.534260
C      1.016647   -1.194138   -0.735613
C      2.409585   -0.628353   -0.626799
C      3.384645   -1.291593    0.137025
C      4.670752   -0.755845    0.256276
C      4.991081    0.445651   -0.381660
C      4.025412    1.114157   -1.139104
C      2.738281    0.581736   -1.261553
H     -4.671828   -1.346682   -1.640877
H     -6.055169   -0.692286    0.299760
H     -5.143049    0.842292    2.016649
H     -2.851452    1.724991    1.803202
H     -0.627524    1.174118   -1.181605
H     -1.049123    2.321221    0.095644
H     -0.494048    0.624382    1.865647
H      0.893231    1.095789    0.860179
H     -0.784225   -1.479661    0.443690
H      0.714308   -1.395297    1.401648
H      0.498006   -0.786474   -1.627420
H      1.088944   -2.291626   -0.897572
H      3.147442   -2.221019    0.639832
H      5.418608   -1.271276    0.844915
H      5.986685    0.859572   -0.287413
H      4.273599    2.046426   -1.629742
H      1.998072    1.114325   -1.845628
