32

C      5.000286   -0.609474    1.753049
O      4.501916   -0.580240    0.419564
C      3.208932   -0.166307    0.066522
C      2.267667    0.266493    1.019795
C      0.990966    0.668974    0.617135
C      0.634088    0.648562   -0.740084
C     -0.750027    1.069487   -1.168212
C     -1.792573    0.064274   -0.718983
C     -1.665393   -1.263012   -1.173733
C     -2.580673   -2.242497   -0.789978
C     -3.645248   -1.913128    0.044372
C     -3.806021   -0.600524    0.488114
C     -2.897723    0.404261    0.110444
S     -3.203397    2.060852    0.664139
N     -1.914112    2.591743    1.683629
O     -3.324364    2.975644   -0.522066
O     -4.485588    2.122510    1.446280
C      1.572842    0.213320   -1.688923
C      2.849267   -0.188883   -1.285775
H      4.986678    0.412125    2.188236
H      4.389092   -1.297972    2.374058
H      6.046928   -0.976550    1.740955
H      2.511313    0.293429    2.073035
H      0.278138    0.990379    1.364828
H     -0.806468    1.160499   -2.274805
H     -0.930821    2.085554   -0.772446
H     -0.847283   -1.542513   -1.826196
H     -2.463683   -3.259635   -1.141166
H     -4.354223   -2.675168    0.341544
H     -4.650880   -0.371602    1.123966
H      1.317160    0.181374   -2.740724
H      3.563203   -0.521974   -2.028440
