32

C      5.104461    0.768534    1.441651
O      4.550472    0.195306    0.261858
C      3.194997    0.267285   -0.092107
C      2.240148    0.926903    0.704882
C      0.900373    0.970519    0.308402
C      0.492695    0.360310   -0.887953
C     -0.957050    0.397008   -1.304048
C     -1.811155   -0.462928   -0.392908
C     -1.499914   -1.833776   -0.300365
C     -2.235213   -2.680947    0.527907
C     -3.300906   -2.178408    1.269322
C     -3.643505   -0.829490    1.175895
C     -2.918752    0.042203    0.343959
S     -3.452846    1.729278    0.230685
N     -2.218430    2.782149    0.823255
O     -4.694171    1.940969    1.051574
O     -3.764967    2.065243   -1.200491
C      1.445635   -0.300048   -1.679674
C      2.785115   -0.343248   -1.282831
H      4.634528    0.318685    2.341672
H      4.951771    1.868497    1.439726
H      6.193781    0.561137    1.468461
H      2.521930    1.406357    1.632311
H      0.179353    1.474684    0.938020
H     -1.275604    1.455251   -1.322865
H     -1.074607    0.026280   -2.345565
H     -0.677347   -2.248439   -0.870076
H     -1.977541   -3.730127    0.594376
H     -3.869954   -2.837680    1.912134
H     -4.485360   -0.470709    1.753004
H      1.152810   -0.784961   -2.602599
H      3.509253   -0.855839   -1.903381
