32

C      5.006280    1.713078    0.918501
O      4.286604    0.516513    0.639774
C      2.975356    0.478864    0.142818
C      2.386053   -0.769563   -0.084999
C      1.080922   -0.860707   -0.576123
C      0.335119    0.302074   -0.831915
C     -1.063732    0.211066   -1.389505
C     -1.954798   -0.694057   -0.561903
C     -2.257067   -1.970726   -1.074338
C     -3.054880   -2.860043   -0.355394
C     -3.559904   -2.494050    0.888939
C     -3.269772   -1.237171    1.419465
C     -2.474004   -0.320763    0.709762
S     -2.130208    1.246741    1.467139
N     -3.164811    1.493609    2.829805
O     -0.704808    1.277477    1.939601
O     -2.369414    2.368800    0.497583
C      0.933872    1.555736   -0.627358
C      2.239369    1.645960   -0.135702
H      5.124154    2.312535   -0.008847
H      4.475323    2.306414    1.692646
H      6.013361    1.449562    1.301509
H      2.944765   -1.674780    0.116521
H      0.652800   -1.838768   -0.755159
H     -0.987293   -0.164835   -2.432977
H     -1.530452    1.211552   -1.482409
H     -1.868247   -2.284493   -2.035363
H     -3.277806   -3.837761   -0.762817
H     -4.174537   -3.188161    1.447611
H     -3.666515   -0.987039    2.393952
H      0.387330    2.466297   -0.839394
H      2.666940    2.626639    0.021859
