32

C      5.141881   -1.444360   -0.237655
O      4.258285   -0.433770   -0.712371
C      3.003483   -0.152250   -0.152039
C      2.235290    0.869613   -0.720744
C      0.977140    1.186294   -0.201468
C      0.458029    0.469989    0.889928
C     -0.886835    0.825979    1.473524
C     -1.979800    0.855008    0.423401
C     -2.447586    2.111550   -0.008017
C     -3.437503    2.209842   -0.985089
C     -3.973546    1.057553   -1.552765
C     -3.522435   -0.197864   -1.145575
C     -2.530772   -0.322260   -0.156706
S     -1.993645   -1.954821    0.285021
N     -3.079484   -3.136993   -0.356566
O     -1.964026   -2.118317    1.777894
O     -0.625826   -2.207057   -0.281881
C      1.238256   -0.539086    1.477322
C      2.496572   -0.855439    0.956983
H      6.056906   -1.449622   -0.864591
H      5.432232   -1.234666    0.813506
H      4.656129   -2.440467   -0.308904
H      2.617711    1.424167   -1.568336
H      0.408338    1.989459   -0.652398
H     -1.171760    0.134007    2.290484
H     -0.789913    1.819295    1.963330
H     -2.039959    3.023938    0.409819
H     -3.786129    3.182990   -1.306128
H     -4.738058    1.136494   -2.314979
H     -3.949513   -1.073911   -1.614341
H      0.869535   -1.089491    2.333995
H      3.067000   -1.645806    1.425286
