32

C      5.007106   -1.437030    1.216969
O      4.046644   -1.581175    0.175755
C      2.916064   -0.764952    0.023036
C      2.051585   -1.019636   -1.047274
C      0.909963   -0.237256   -1.240807
C      0.604850    0.806723   -0.351577
C     -0.610253    1.673421   -0.571417
C     -1.878802    0.857313   -0.722827
C     -2.423698    0.717558   -2.014104
C     -3.577761   -0.035692   -2.226287
C     -4.204698   -0.667118   -1.155952
C     -3.680683   -0.547670    0.131105
C     -2.522614    0.212693    0.370803
S     -1.906078    0.291802    2.032885
N     -3.086902   -0.315730    3.139576
O     -1.599894    1.710844    2.418693
O     -0.665799   -0.546938    2.151853
C      1.484566    1.079340    0.708516
C      2.626151    0.295948    0.901562
H      4.520775   -1.571269    2.206273
H      5.486119   -0.436843    1.158762
H      5.790285   -2.213415    1.097792
H      2.268176   -1.826895   -1.735466
H      0.264146   -0.447633   -2.083784
H     -0.736159    2.411933    0.244780
H     -0.428516    2.284622   -1.482122
H     -1.949668    1.189848   -2.865829
H     -3.983924   -0.133708   -3.224807
H     -5.097399   -1.255789   -1.323965
H     -4.183414   -1.060258    0.939876
H      1.283102    1.893561    1.393530
H      3.276731    0.524877    1.734454
