32

C      5.424635    0.924642    0.637582
O      4.211320    0.935585    1.382667
C      3.015239    0.339160    0.956688
C      2.904807   -0.338269   -0.272577
C      1.689728   -0.916100   -0.652518
C      0.568256   -0.829418    0.187816
C     -0.748648   -1.438409   -0.225868
C     -1.769743   -0.366516   -0.553892
C     -1.458596    0.546072   -1.581054
C     -2.345491    1.564986   -1.926928
C     -3.563049    1.684574   -1.262712
C     -3.904087    0.778270   -0.258730
C     -3.027154   -0.259467    0.103660
S     -3.557368   -1.408722    1.345590
N     -2.514387   -1.318684    2.719467
O     -4.957934   -1.090230    1.788916
O     -3.540690   -2.802605    0.784010
C      0.679785   -0.150573    1.410993
C      1.894610    0.426771    1.790308
H      6.205677    1.467031    1.208667
H      5.278327    1.435009   -0.337791
H      5.763746   -0.120325    0.475468
H      3.750196   -0.422410   -0.941644
H      1.624056   -1.428008   -1.604585
H     -1.076963   -2.114200    0.584831
H     -0.617346   -2.082103   -1.122767
H     -0.518875    0.471108   -2.114370
H     -2.087397    2.263362   -2.712582
H     -4.249753    2.476649   -1.532375
H     -4.863144    0.887688    0.229876
H     -0.175177   -0.062545    2.067995
H      1.965419    0.947679    2.736791
