32

C      5.510532   -0.291493    0.219728
O      4.347174   -0.158889    1.029922
C      3.076431    0.179172    0.541335
C      2.832077    0.422740   -0.823643
C      1.546830    0.756309   -1.261284
C      0.487447    0.854397   -0.345061
C     -0.903913    1.198973   -0.815832
C     -1.830814    0.003700   -0.709223
C     -1.488291   -1.160247   -1.425182
C     -2.288057   -2.300822   -1.363073
C     -3.449372   -2.296879   -0.595438
C     -3.822256   -1.148483    0.103002
C     -3.033333    0.014352    0.051535
S     -3.605028    1.453275    0.915809
N     -2.484069    1.882100    2.157989
O     -4.940742    1.185323    1.551125
O     -3.756951    2.595114   -0.049428
C      0.732696    0.607659    1.014499
C      2.017610    0.274333    1.451416
H      5.735475    0.671308   -0.285890
H      6.371566   -0.564275    0.863591
H      5.361682   -1.093615   -0.533719
H      3.626844    0.355316   -1.553859
H      1.378566    0.934395   -2.316162
H     -0.886426    1.534161   -1.875717
H     -1.252074    2.069252   -0.230071
H     -0.591410   -1.186217   -2.031853
H     -2.006060   -3.189901   -1.912261
H     -4.068407   -3.183570   -0.548135
H     -4.737421   -1.170703    0.679612
H     -0.071862    0.666859    1.735290
H      2.191557    0.086358    2.503366
