32

C      5.127884   -0.448436    1.395568
O      4.553214    0.053998    0.193601
C      3.193426    0.359135    0.033430
C      2.254661    0.192084    1.069209
C      0.909770    0.510439    0.859422
C      0.480895    1.001710   -0.383374
C     -0.974280    1.329557   -0.609703
C     -1.821566    0.072426   -0.639542
C     -1.518859   -0.901871   -1.611023
C     -2.248430   -2.087714   -1.687834
C     -3.299930   -2.317617   -0.804976
C     -3.634157   -1.357347    0.149935
C     -2.915007   -0.152599    0.242869
S     -3.438567    1.045099    1.441081
N     -2.188407    1.304310    2.604427
O     -3.768456    2.338851    0.751199
O     -4.666631    0.562187    2.160951
C      1.417820    1.164309   -1.416196
C      2.762425    0.845953   -1.205853
H      6.215964   -0.599336    1.241748
H      4.667500   -1.423737    1.660283
H      4.983044    0.279659    2.221484
H      2.552926   -0.184714    2.037952
H      0.201331    0.367465    1.664496
H     -1.109177    1.864785   -1.574769
H     -1.285492    2.041752    0.176195
H     -0.707401   -0.744044   -2.310852
H     -1.997352   -2.830011   -2.434525
H     -3.864543   -3.239113   -0.865956
H     -4.465190   -1.557800    0.813035
H      1.108538    1.534052   -2.385894
H      3.474049    0.976568   -2.011296
