32

C      5.476995   -0.510013    0.610120
O      4.303317   -0.198514    1.353658
C      3.064791    0.124320    0.779530
C      1.991036    0.408774    1.630731
C      0.736865    0.735467    1.107919
C      0.538090    0.785220   -0.280405
C     -0.820918    1.123186   -0.841758
C     -1.813243    0.005420   -0.586652
C     -1.516863   -1.269138   -1.108525
C     -2.378258   -2.345965   -0.901549
C     -3.555822   -2.168048   -0.180702
C     -3.882925   -0.909988    0.325225
C     -3.031409    0.190964    0.125079
S     -3.545293    1.770839    0.744936
N     -2.433070    2.326684    1.943873
O     -4.908429    1.668957    1.370267
O     -3.612107    2.759368   -0.385067
C      1.612395    0.496916   -1.137217
C      2.866869    0.170076   -0.613644
H      6.306309   -0.724518    1.314801
H      5.303272   -1.408651   -0.018774
H      5.765658    0.352663   -0.026825
H      2.129210    0.373963    2.703990
H     -0.080452    0.943105    1.785591
H     -1.135632    2.088387   -0.404655
H     -0.759858    1.292613   -1.938834
H     -0.608338   -1.431269   -1.675461
H     -2.131488   -3.320895   -1.301808
H     -4.222751   -3.005463   -0.020682
H     -4.811578   -0.799077    0.869103
H      1.479432    0.521240   -2.211705
H      3.674195   -0.046622   -1.299707
