32

C      5.096534    1.482487   -0.601095
O      4.241802    0.364802   -0.819272
C      2.997188    0.186626   -0.197225
C      2.472602    1.114419    0.722216
C      1.225397    0.892968    1.313509
C      0.473663   -0.246606    0.984445
C     -0.858742   -0.494257    1.647273
C     -1.952931   -0.797883    0.642915
C     -2.384749   -2.132945    0.520504
C     -3.373707   -2.483988   -0.397645
C     -3.944628   -1.511288   -1.213286
C     -3.529511   -0.183433   -1.114012
C     -2.539554    0.195785   -0.190482
S     -2.049443    1.900697   -0.146282
N     -3.171055    2.869864   -1.035613
O     -0.691007    2.051909   -0.768950
O     -2.020956    2.408550    1.267064
C      1.010876   -1.182704    0.085092
C      2.257908   -0.960692   -0.505243
H      4.581591    2.420590   -0.897845
H      6.009465    1.367096   -1.220440
H      5.395495    1.531711    0.467275
H      3.020751    2.007778    0.988328
H      0.842802    1.617307    2.021846
H     -0.731488   -1.342903    2.354085
H     -1.161893    0.360848    2.283139
H     -1.949566   -2.910988    1.135697
H     -3.694449   -3.514515   -0.479855
H     -4.708321   -1.787122   -1.929084
H     -3.983188    0.546863   -1.770090
H      0.464774   -2.084413   -0.161158
H      2.654340   -1.686565   -1.203910
