32

C      5.333519    0.304157   -0.221592
O      4.185181    1.145997   -0.217261
C      2.913363    0.747899    0.220633
C      1.870377    1.679142    0.168514
C      0.584353    1.330625    0.589886
C      0.316737    0.032698    1.056235
C     -1.062489   -0.341341    1.539767
C     -2.135668   -0.025750    0.516604
C     -2.957221    1.095103    0.745905
C     -3.950676    1.452656   -0.164847
C     -4.138028    0.702546   -1.322260
C     -3.333201   -0.408492   -1.573700
C     -2.330253   -0.792897   -0.666475
S     -1.332617   -2.202623   -1.074251
N     -2.038483   -3.076349   -2.388240
O      0.038618   -1.748724   -1.486099
O     -1.229052   -3.136690    0.097530
C      1.367852   -0.895397    1.132475
C      2.653918   -0.546000    0.710404
H      6.198634    0.873093   -0.619379
H      5.569510   -0.025031    0.812409
H      5.157882   -0.577830   -0.873138
H      2.058893    2.680469   -0.197540
H     -0.202028    2.073600    0.550637
H     -1.250195    0.212210    2.485455
H     -1.118288   -1.411219    1.822040
H     -2.825539    1.701963    1.633363
H     -4.573635    2.317088    0.025678
H     -4.906295    0.985249   -2.030444
H     -3.495016   -0.963554   -2.487658
H      1.191398   -1.894847    1.510300
H      3.438448   -1.287749    0.771186
