32

C      5.486227    0.388377    0.443795
O      4.274148    0.559085    1.171204
C      3.026705    0.068712    0.757429
C      1.913946    0.310343    1.570933
C      0.649421   -0.156915    1.202622
C      0.479072   -0.878318    0.010989
C     -0.889950   -1.368197   -0.391552
C     -1.792378   -0.214182   -0.782784
C     -1.380118    0.611697   -1.847048
C     -2.154366    1.698470   -2.251844
C     -3.358773    1.973729   -1.610307
C     -3.799917    1.156051   -0.569889
C     -3.037656    0.052386   -0.147852
S     -3.694028   -0.975961    1.139000
N     -2.659114   -0.927891    2.521063
O     -5.058079   -0.494843    1.548202
O     -3.816206   -2.389394    0.643177
C      1.592824   -1.119437   -0.809252
C      2.857646   -0.651693   -0.440333
H      6.314041    0.874523    0.999438
H      5.717320   -0.692369    0.335091
H      5.401610    0.863934   -0.556165
H      2.029899    0.865803    2.493001
H     -0.197534    0.049492    1.843264
H     -0.817952   -2.063978   -1.255679
H     -1.293053   -1.967371    0.445237
H     -0.448588    0.415488   -2.363645
H     -1.819009    2.328458   -3.065628
H     -3.957919    2.818234   -1.925741
H     -4.746755    1.386339   -0.099819
H      1.482953   -1.666742   -1.737251
H      3.695585   -0.853830   -1.093337
