31

N     -3.434653   -1.542777    1.282342
C     -2.939063   -0.391357    0.602705
C     -3.412655    0.874241    0.969037
C     -2.933375    2.018533    0.327063
C     -1.977780    1.904296   -0.684262
C     -1.501033    0.645510   -1.058515
C     -1.979277   -0.515191   -0.424413
C     -1.409403   -1.861975   -0.807650
C     -0.297647   -2.307146    0.153290
C      0.885599   -1.375303    0.107042
C      1.843606   -1.493457   -0.933175
C      2.922724   -0.594939   -1.019847
C      3.010043    0.410916   -0.061942
O      3.919432    1.348917    0.036774
C      3.614154    2.092180    1.085756
C      2.457253    1.619159    1.696395
C      2.087003    0.533013    0.939149
C      1.008322   -0.338304    1.059653
H     -4.150258    0.972098    1.755755
H     -3.300443    2.994791    0.616258
H     -1.602426    2.792431   -1.175952
H     -0.749280    0.576181   -1.835194
H     -1.013359   -1.834220   -1.846833
H     -2.218094   -2.624152   -0.803156
H      0.031318   -3.330901   -0.128706
H     -0.697629   -2.374189    1.188697
H      1.746337   -2.275077   -1.676218
H      3.656694   -0.678184   -1.810624
H      4.191790    2.946579    1.412014
H      1.960741    2.018547    2.570806
H      0.281358   -0.210218    1.852299
