31

N      3.383341   -2.025610   -0.152260
C      2.928823   -0.675392   -0.212398
C      3.520607    0.281943    0.620385
C      3.084427    1.608603    0.589309
C      2.054075    1.985700   -0.273920
C      1.459113    1.038076   -1.110536
C      1.892475   -0.299809   -1.093541
C      1.197640   -1.319054   -1.967499
C      0.126147   -2.100578   -1.193735
C     -0.984181   -1.200863   -0.716006
C     -2.019311   -0.814466   -1.606506
C     -3.031412    0.069326   -1.189486
C     -2.975269    0.553869    0.113977
O     -3.802505    1.385375    0.697810
C     -3.369121    1.579903    1.930827
C     -2.210785    0.844671    2.160481
C     -1.977380    0.189499    0.974525
C     -0.961292   -0.684754    0.599670
H      4.317072   -0.003124    1.296360
H      3.543119    2.344100    1.237460
H      1.712651    3.012611   -0.291825
H      0.651426    1.344846   -1.763761
H      0.732523   -0.822704   -2.847742
H      1.945213   -2.034479   -2.372733
H     -0.297736   -2.883227   -1.859768
H      0.591971   -2.630701   -0.334361
H     -2.033581   -1.192633   -2.621044
H     -3.823490    0.369172   -1.863040
H     -3.856590    2.224211    2.650094
H     -1.625286    0.800414    3.069250
H     -0.172686   -0.944925    1.295073
