31

N      3.005684   -2.524968    0.378150
C      2.756297   -1.121728    0.423034
C      3.293749   -0.365972    1.471940
C      3.053280    1.008091    1.545194
C      2.273948    1.634334    0.570795
C      1.735462    0.889027   -0.481083
C      1.974491   -0.494074   -0.570104
C      1.336882   -1.289910   -1.686148
C      0.038920   -1.973199   -1.232280
C     -1.013919   -0.967870   -0.843200
C     -1.791205   -0.328766   -1.843778
C     -2.738755    0.652140   -1.498354
C     -2.877772    0.976567   -0.152111
O     -3.685811    1.858901    0.381877
C     -3.483226    1.847106    1.687563
C     -2.501942    0.918418    2.018731
C     -2.127782    0.368199    0.815616
C     -1.183439   -0.608573    0.513290
H      3.895312   -0.844698    2.234506
H      3.468466    1.587175    2.359894
H      2.082911    2.697863    0.632804
H      1.121397    1.388335   -1.220531
H      2.047669   -2.065290   -2.044590
H      1.125727   -0.633541   -2.559142
H     -0.345180   -2.602092   -2.064611
H      0.250389   -2.660534   -0.384105
H     -1.654563   -0.586913   -2.886463
H     -3.334528    1.144424   -2.255772
H     -4.013116    2.477541    2.388900
H     -2.119271    0.683762    3.003173
H     -0.590073   -1.063756    1.296805
