31

N     -2.737627    1.179685   -2.258379
C     -3.289513    0.595926   -1.080127
C     -4.638967    0.814910   -0.777639
C     -5.199400    0.266802    0.378569
C     -4.412979   -0.499260    1.241193
C     -3.065206   -0.723528    0.947635
C     -2.492547   -0.190357   -0.220432
C     -1.027322   -0.418160   -0.499987
C     -0.184139    0.721662    0.079208
C      1.275879    0.494802   -0.203149
C      1.850985    0.975190   -1.408564
C      3.207214    0.739861   -1.699803
C      3.954739    0.015950   -0.775606
O      5.220103   -0.315696   -0.849850
C      5.517314   -1.002966    0.238848
C      4.398876   -1.124894    1.056997
C      3.403237   -0.458694    0.382026
C      2.065602   -0.245915    0.704856
H     -5.253912    1.414234   -1.437388
H     -6.242713    0.440282    0.608592
H     -4.847141   -0.917114    2.140315
H     -2.466849   -1.312148    1.632206
H     -0.703409   -1.384006   -0.052405
H     -0.855308   -0.497962   -1.595617
H     -0.349021    0.788679    1.177424
H     -0.505188    1.690485   -0.363007
H      1.247127    1.527084   -2.118101
H      3.653541    1.105551   -2.615271
H      6.497457   -1.408493    0.450954
H      4.329881   -1.631134    2.010725
H      1.649285   -0.640776    1.623477
