31

N     -2.712840   -2.194238   -1.156509
C     -3.265536   -0.942478   -0.754940
C     -4.648925   -0.836088   -0.566819
C     -5.213034    0.374954   -0.158800
C     -4.397052    1.484988    0.067974
C     -3.015263    1.388599   -0.117337
C     -2.436404    0.179947   -0.542387
C     -0.938844    0.090139   -0.704201
C     -0.284371   -0.395469    0.592513
C      1.207988   -0.488791    0.428189
C      1.797105   -1.684226   -0.060098
C      3.188345   -1.772462   -0.250386
C      3.957579   -0.650874    0.045071
O      5.256543   -0.517294   -0.062151
C      5.564537    0.709936    0.318612
C      4.418429    1.405799    0.689227
C      3.394279    0.506921    0.505254
C      2.022158    0.632219    0.706159
H     -5.288008   -1.694305   -0.733106
H     -6.282847    0.451541   -0.013399
H     -4.835136    2.420515    0.391071
H     -2.395592    2.256511    0.072070
H     -0.685461   -0.600123   -1.538288
H     -0.528077    1.087803   -0.976319
H     -0.693573   -1.391472    0.871401
H     -0.528660    0.306058    1.420729
H      1.177363   -2.541042   -0.293474
H      3.645101   -2.681434   -0.619393
H      6.571427    1.104963    0.334439
H      4.350233    2.426062    1.042852
H      1.598540    1.563342    1.062049
