31

N     -3.661197   -1.215751    0.818530
C     -2.995359   -0.102011    0.227316
C     -3.370909    1.194329    0.599730
C     -2.725265    2.301561    0.044371
C     -1.700400    2.119291   -0.885909
C     -1.320353    0.829630   -1.265691
C     -1.965916   -0.293796   -0.718706
C     -1.501556   -1.680246   -1.102869
C     -0.528796   -2.264793   -0.068641
C      0.740865   -1.458264    0.020873
C      1.770309   -1.643803   -0.938088
C      2.937000   -0.858535   -0.898931
C      3.039283    0.104860    0.100248
O      4.025327    0.941431    0.311077
C      3.704305    1.681347    1.357724
C      2.456720    1.311920    1.849768
C      2.048337    0.291867    1.023369
C      0.881813   -0.467389    1.018970
H     -4.161557    1.344470    1.324227
H     -3.017273    3.301521    0.338079
H     -1.196528    2.978128   -1.310112
H     -0.513730    0.706118   -1.977923
H     -1.014633   -1.663133   -2.102938
H     -2.379421   -2.355255   -1.195765
H     -0.279909   -3.308268   -0.360236
H     -1.023210   -2.320485    0.925844
H      1.661550   -2.389439   -1.715714
H      3.725879   -0.993623   -1.627212
H      4.333148    2.462206    1.763827
H      1.927301    1.734591    2.693388
H      0.104174   -0.288481    1.751393
