31

N      2.776955    2.219712    0.984782
C      3.291086    1.121724    0.233965
C      4.671068    0.884862    0.228961
C      5.197926   -0.193217   -0.486227
C      4.347953   -1.043235   -1.196463
C      2.969265   -0.814795   -1.197615
C      2.427530    0.275468   -0.494450
C      0.933012    0.483358   -0.483246
C      0.298750   -0.225739    0.716968
C     -1.190612   -0.014750    0.728494
C     -1.744411    1.116562    1.382703
C     -3.132949    1.343253    1.371335
C     -3.935253    0.431242    0.691976
O     -5.238070    0.454274    0.554928
C     -5.582292   -0.597493   -0.167041
C     -4.456823   -1.337039   -0.515655
C     -3.406195   -0.654322    0.050722
C     -2.037883   -0.911943    0.040036
H      5.336464    1.534800    0.783436
H      6.265284   -0.372808   -0.485693
H      4.757285   -1.882303   -1.744123
H      2.323046   -1.489228   -1.745963
H      0.698661    1.569758   -0.448897
H      0.489950    0.088390   -1.424420
H      0.739665    0.163499    1.661073
H      0.524250   -1.314215    0.670847
H     -1.099447    1.818823    1.896050
H     -3.562843    2.201833    1.870388
H     -6.600775   -0.837313   -0.441449
H     -4.418762   -2.245850   -1.101535
H     -1.641833   -1.773307   -0.483701
