31

N      3.455820   -1.482608    1.035711
C      2.929613   -0.292467    0.452649
C      3.314179    0.949765    0.971488
C      2.802861    2.129681    0.425966
C      1.904004    2.074568   -0.640809
C      1.516285    0.839775   -1.166981
C      2.027862   -0.355660   -0.631023
C      1.552584   -1.681598   -1.180072
C      0.423147   -2.281013   -0.329980
C     -0.806591   -1.410308   -0.342665
C     -1.706327   -1.466330   -1.438620
C     -2.828459   -0.619223   -1.489376
C     -3.016747    0.274411   -0.439179
O     -3.980554    1.149756   -0.292779
C     -3.766983    1.792793    0.841631
C     -2.615695    1.316982    1.460659
C     -2.150248    0.336717    0.616468
C     -1.031669   -0.486967    0.703605
H      4.007158    1.001277    1.801962
H      3.100942    3.087308    0.832848
H      1.503478    2.989492   -1.057857
H      0.807126    0.814825   -1.985298
H      1.205174   -1.564539   -2.230371
H      2.401324   -2.398248   -1.211155
H      0.776865   -2.436547    0.712728
H      0.165330   -3.284623   -0.732610
H     -1.530737   -2.159396   -2.251841
H     -3.518488   -0.655574   -2.322147
H     -4.406016    2.577853    1.222972
H     -2.184024    1.646535    2.396437
H     -0.351213   -0.406637    1.542471
