28

N     -2.253661   -2.173525   -2.718979
S     -1.158096   -1.748838   -1.451072
O     -1.008092   -2.942966   -0.552267
O      0.168829   -1.403284   -2.064076
C     -1.777350   -0.355041   -0.544043
C     -2.847326    0.370580   -1.096635
C     -3.366778    1.488355   -0.443845
C     -2.822525    1.904811    0.767654
C     -1.756042    1.205403    1.331314
C     -1.218022    0.070586    0.693696
C     -0.045170   -0.626540    1.354429
C      1.259681   -0.339547    0.653878
C      1.668159    0.984781    0.414254
C      2.891477    1.244612   -0.210531
C      3.725699    0.187406   -0.586600
Cl     5.260121    0.515584   -1.370460
C      3.338698   -1.131450   -0.329944
C      2.116087   -1.394880    0.294896
H     -3.283563    0.079404   -2.042416
H     -4.191133    2.036094   -0.882137
H     -3.224562    2.775263    1.269950
H     -1.344342    1.556811    2.269512
H      0.059543   -0.297206    2.411093
H     -0.243143   -1.714897    1.415210
H      1.040506    1.815857    0.709634
H      3.191390    2.267773   -0.397972
H      3.984903   -1.952938   -0.611890
H      1.834713   -2.422209    0.489968
