28

N      1.089363    0.025092    3.210056
S      2.386739   -0.545633    2.222864
O      2.432703   -2.047311    2.260385
O      3.678245   -0.015200    2.779832
C      2.164818    0.002217    0.551064
C      3.135744    0.855360   -0.002726
C      3.041118    1.281377   -1.327578
C      1.981024    0.856343   -2.123498
C      1.004439    0.013596   -1.593914
C      1.064893   -0.410562   -0.251860
C     -0.041329   -1.315139    0.255245
C     -1.390879   -0.654044    0.122392
C     -1.722954    0.444850    0.932319
C     -2.967606    1.067901    0.801302
C     -3.890045    0.600973   -0.140395
Cl    -5.450535    1.384954   -0.304573
C     -3.565617   -0.489993   -0.953053
C     -2.321598   -1.115230   -0.824412
H      3.978387    1.190666    0.587208
H      3.797768    1.936065   -1.740528
H      1.915146    1.180169   -3.154220
H      0.191090   -0.306563   -2.233514
H      0.089030   -1.605359    1.313771
H     -0.011330   -2.262912   -0.325122
H     -1.016480    0.822534    1.659342
H     -3.212672    1.914296    1.430189
H     -4.275315   -0.853134   -1.685456
H     -2.084147   -1.955311   -1.465123
