28

N     -1.273102   -1.420320    2.701525
S     -2.451994   -1.586617    1.450118
O     -3.817467   -1.423663    2.057151
O     -2.360794   -2.958617    0.843606
C     -2.184250   -0.361728    0.196219
C     -3.195915    0.588009   -0.031307
C     -3.063736    1.546595   -1.035956
C     -1.924056    1.567691   -1.835094
C     -0.906309    0.638055   -1.624451
C     -1.005703   -0.324245   -0.600354
C      0.147945   -1.292329   -0.424151
C      1.435915   -0.560366   -0.138936
C      1.616778    0.101405    1.087103
C      2.803892    0.792155    1.348145
C      3.819163    0.830068    0.387159
Cl     5.307245    1.698613    0.715715
C      3.645329    0.177059   -0.837273
C      2.459185   -0.514604   -1.101323
H     -4.099080    0.587307    0.564337
H     -3.852283    2.269566   -1.200794
H     -1.828211    2.306150   -2.620640
H     -0.030750    0.672033   -2.261138
H     -0.016734   -2.016234    0.394714
H      0.239899   -1.898821   -1.351358
H      0.837007    0.087967    1.836828
H      2.932257    1.299068    2.296038
H      4.427272    0.206103   -1.585388
H      2.338497   -1.010300   -2.056493
