28

N     -1.462407   -0.955639    2.905160
S     -2.620900   -1.170330    1.642124
O     -3.980558   -0.818264    2.177789
O     -2.638267   -2.608418    1.206051
C     -2.214395   -0.133933    0.261927
C     -3.131193    0.864680   -0.111552
C     -2.889521    1.679579   -1.217541
C     -1.733573    1.505659   -1.973500
C     -0.808516    0.524350   -1.618952
C     -1.018342   -0.294677   -0.492078
C      0.039422   -1.329862   -0.162430
C      1.380485   -0.682201    0.078549
C      1.590215    0.105190    1.223036
C      2.827749    0.717835    1.441414
C      3.865239    0.551635    0.518539
Cl     5.416734    1.322405    0.793290
C      3.663253   -0.227501   -0.625149
C      2.426675   -0.841497   -0.846371
H     -4.044914    1.013774    0.448256
H     -3.605974    2.442352   -1.494189
H     -1.553075    2.132530   -2.837240
H      0.081676    0.405547   -2.224404
H     -0.209116   -1.932387    0.730257
H      0.099066   -2.049844   -1.007456
H      0.794502    0.249756    1.941543
H      2.978060    1.322907    2.326419
H      4.462488   -0.356628   -1.343833
H      2.285188   -1.437019   -1.739659
