28

N     -1.606150    2.836758    2.516462
S     -0.810985    2.080302    1.180911
O      0.611922    1.799057    1.570972
O     -0.841893    3.037517    0.023726
C     -1.625652    0.561084    0.760039
C     -2.561804    0.039086    1.669913
C     -3.221554   -1.161570    1.408108
C     -2.952868   -1.864863    0.237397
C     -2.022795   -1.370612   -0.676359
C     -1.347937   -0.157786   -0.436668
C     -0.334657    0.306657   -1.464137
C      1.086017    0.102926   -0.999435
C      2.011620    1.158378   -1.072298
C      3.336095    0.965911   -0.668168
C      3.753323   -0.285351   -0.204179
Cl     5.415544   -0.524602    0.302150
C      2.845732   -1.347691   -0.151711
C      1.520536   -1.158675   -0.554828
H     -2.783056    0.555749    2.593869
H     -3.939999   -1.549975    2.118501
H     -3.462928   -2.798678    0.038777
H     -1.824614   -1.942813   -1.574418
H     -0.461369   -0.251723   -2.417090
H     -0.528197    1.365088   -1.728100
H      1.707271    2.132923   -1.433218
H      4.037168    1.789259   -0.718307
H      3.166617   -2.320950    0.197200
H      0.834613   -1.995405   -0.519108
