28

N     -0.603812    3.185309    0.978665
S     -1.965743    2.658308    0.056237
O     -1.850031    3.160886   -1.355352
O     -3.209564    3.239288    0.668554
C     -2.049146    0.887055    0.053248
C     -3.173777    0.274106    0.633532
C     -3.318953   -1.113121    0.619229
C     -2.348727   -1.910377    0.018411
C     -1.223152   -1.324248   -0.559458
C     -1.042028    0.072651   -0.536129
C      0.214189    0.634394   -1.172923
C      1.453943    0.075951   -0.519367
C      1.785597    0.441065    0.796125
C      2.926353   -0.086014    1.408808
C      3.744124   -0.983334    0.714708
Cl     5.174071   -1.644949    1.485566
C      3.418775   -1.354741   -0.593756
C      2.278520   -0.829325   -1.209233
H     -3.950986    0.868598    1.095082
H     -4.191606   -1.570244    1.067759
H     -2.468501   -2.985968   -0.000326
H     -0.483609   -1.964854   -1.024034
H      0.271124    1.736806   -1.116874
H      0.197713    0.386131   -2.256480
H      1.158057    1.127587    1.348567
H      3.172007    0.201780    2.423090
H      4.047192   -2.051306   -1.133982
H      2.037970   -1.131433   -2.220913
