28

N     -2.896247   -2.113083   -1.711431
S     -1.553384   -1.714660   -0.698421
O     -1.354786   -2.845790    0.269771
O     -0.333744   -1.563687   -1.561900
C     -1.863998   -0.196430    0.166066
C     -2.943983    0.597093   -0.259003
C     -3.229019    1.811439    0.365103
C     -2.436818    2.257498    1.419060
C     -1.355783    1.491182    1.853104
C     -1.051407    0.259082    1.242269
C      0.151625   -0.509143    1.752836
C      1.328225   -0.420461    0.812879
C      2.002398   -1.587176    0.412511
C      3.110068   -1.507098   -0.436756
C      3.565604   -0.261776   -0.880243
Cl     4.955601   -0.163666   -1.945548
C      2.916435    0.905685   -0.467140
C      1.808400    0.829246    0.381854
H     -3.570371    0.283743   -1.083040
H     -4.064429    2.410633    0.026378
H     -2.657461    3.202418    1.898710
H     -0.749159    1.866322    2.668259
H      0.477248   -0.113373    2.739395
H     -0.132959   -1.561593    1.949739
H      1.666328   -2.559786    0.749733
H      3.614393   -2.413253   -0.747330
H      3.271651    1.872725   -0.799697
H      1.325576    1.743908    0.701477
