28

N     -2.813424   -1.682481    2.492729
S     -1.490575   -0.740772    1.899883
O     -1.261470    0.389455    2.862373
O     -0.271082   -1.615679    1.842622
C     -1.855689   -0.119353    0.278348
C     -2.958164   -0.662249   -0.404694
C     -3.286338   -0.231827   -1.690161
C     -2.515634    0.742348   -2.318154
C     -1.413053    1.289952   -1.663388
C     -1.065060    0.875391   -0.363053
C      0.159025    1.499069    0.277866
C      1.338016    0.558086    0.295235
C      2.052149    0.341880    1.486578
C      3.161954   -0.508254    1.500846
C      3.579669   -1.136577    0.323670
Cl     4.972424   -2.202607    0.343857
C      2.890423   -0.907868   -0.871182
C      1.780133   -0.058565   -0.888990
H     -3.568888   -1.429340    0.051568
H     -4.138607   -0.659340   -2.202557
H     -2.769805    1.071355   -3.317540
H     -0.824032    2.038779   -2.178667
H     -0.092500    1.854449    1.296616
H      0.465426    2.413799   -0.274718
H      1.745665    0.823594    2.406714
H      3.697321   -0.675826    2.426708
H      3.216196   -1.384091   -1.787163
H      1.265921    0.116671   -1.825345
