28

N     -2.762518   -2.031073   -2.281011
S     -1.498635   -1.671383   -1.157875
O     -1.400458   -2.817454   -0.191867
O     -0.210533   -1.534756   -1.918161
C     -1.849262   -0.157423   -0.301238
C     -2.876095    0.662417   -0.801448
C     -3.187553    1.874871   -0.186356
C     -2.474829    2.292713    0.933827
C     -1.447162    1.499945    1.443428
C     -1.117839    0.269201    0.842885
C      0.025183   -0.528800    1.438559
C      1.275401   -0.452683    0.597767
C      1.812473    0.792126    0.223433
C      2.986780    0.856314   -0.532383
C      3.644967   -0.318984   -0.907224
Cl     5.118168   -0.236238   -1.855605
C      3.131523   -1.560047   -0.518428
C      1.957489   -1.627884    0.237642
H     -3.439648    0.371259   -1.677360
H     -3.981323    2.494542   -0.583365
H     -2.715550    3.236208    1.406576
H     -0.901412    1.853376    2.309710
H      0.277417   -0.151144    2.453309
H     -0.294299   -1.577581    1.597935
H      1.322822    1.712461    0.515171
H      3.386000    1.819880   -0.822390
H      3.642032   -2.472411   -0.799301
H      1.576864   -2.597453    0.533769
