28

N     -0.566188    3.307388   -0.539979
S     -1.955143    2.451722   -1.107517
O     -3.179475    3.259898   -0.779766
O     -1.877783    2.287641   -2.599379
C     -2.043855    0.857404   -0.336426
C     -3.153493    0.575221    0.479851
C     -3.303125   -0.677445    1.074930
C     -2.352590   -1.671185    0.858359
C     -1.242023   -1.412106    0.055914
C     -1.056174   -0.147343   -0.536124
C      0.183251    0.062174   -1.384103
C      1.439275   -0.174401   -0.582592
C      2.241371   -1.301982   -0.828700
C      3.396957   -1.523928   -0.073440
C      3.760175   -0.624688    0.934186
Cl     5.209309   -0.905895    1.881625
C      2.964979    0.497475    1.187405
C      1.808977    0.722143    0.433947
H     -3.915615    1.322923    0.654814
H     -4.164136   -0.880516    1.698698
H     -2.476031   -2.645664    1.313052
H     -0.517774   -2.202069   -0.100770
H      0.245014    1.077986   -1.815390
H      0.135495   -0.632899   -2.250472
H      1.971490   -2.010873   -1.601530
H      4.007811   -2.395554   -0.271127
H      3.239992    1.194539    1.968692
H      1.199312    1.590034    0.646981
