28

N     -2.657769   -2.739201   -1.825922
S     -1.394089   -2.014058   -0.895602
O     -0.143874   -1.990001   -1.727644
O     -1.176564   -2.861111    0.325659
C     -1.838884   -0.357981   -0.439085
C     -2.942028    0.231010   -1.081654
C     -3.330885    1.536767   -0.783031
C     -2.621103    2.278919    0.156542
C     -1.519005    1.718502    0.801200
C     -1.110464    0.400133    0.520433
C      0.109518   -0.135028    1.243883
C      1.324433   -0.192765    0.351461
C      1.749386    0.946733   -0.354994
C      2.892111    0.894247   -1.158611
C      3.630529   -0.289436   -1.251750
Cl     5.063925   -0.353192   -2.260663
C      3.229246   -1.419938   -0.533448
C      2.087093   -1.370882    0.271335
H     -3.506093   -0.315475   -1.825140
H     -4.182829    1.975823   -1.286122
H     -2.922236    3.293606    0.383148
H     -0.977925    2.321249    1.520317
H     -0.120575   -1.126271    1.681953
H      0.360596    0.509163    2.114482
H      1.196761    1.874956   -0.285047
H      3.204596    1.775084   -1.704886
H      3.802336   -2.336223   -0.595972
H      1.793794   -2.254629    0.824143
