28

N     -1.656059    0.447568    2.923862
S     -2.743625   -0.314141    1.819119
O     -4.122428    0.237893    2.050890
O     -2.774163   -1.794918    2.073926
C     -2.228779   -0.007089    0.150300
C     -3.094699    0.715319   -0.689665
C     -2.766456    0.947242   -2.025384
C     -1.573161    0.454976   -2.546596
C     -0.697414   -0.260446   -1.730730
C     -0.995221   -0.486610   -0.372482
C      0.012962   -1.261053    0.453923
C      1.354536   -0.571097    0.465175
C      1.517775    0.646897    1.146103
C      2.756421    1.295181    1.146204
C      3.841534    0.734579    0.465056
Cl     5.394437    1.550176    0.464840
C      3.686198   -0.475663   -0.218361
C      2.448637   -1.126428   -0.220330
H     -4.035405    1.097867   -0.316527
H     -3.444523    1.502877   -2.660332
H     -1.325296    0.627563   -3.586003
H      0.223316   -0.636476   -2.159662
H     -0.303848   -1.399042    1.503822
H      0.102738   -2.283714    0.027184
H      0.685370    1.096937    1.670390
H      2.870703    2.233607    1.673684
H      4.522545   -0.911980   -0.749499
H      2.343905   -2.060022   -0.758906
