28

N     -2.549606   -2.605570   -1.950551
S     -1.334430   -1.960638   -0.903829
O     -1.147623   -2.923523    0.233822
O     -0.054720   -1.835491   -1.680098
C     -1.825056   -0.365380   -0.301104
C     -2.913732    0.270162   -0.923682
C     -3.336405    1.533631   -0.510909
C     -2.675292    2.186913    0.525205
C     -1.588246    1.579570    1.152688
C     -1.146346    0.302024    0.757164
C      0.055112   -0.286514    1.470084
C      1.303237   -0.237105    0.624203
C      2.089016   -1.390477    0.455941
C      3.261023   -1.342284   -0.304767
C      3.668758   -0.139625   -0.889903
Cl     5.139617   -0.081434   -1.843727
C      2.906617    1.018306   -0.707203
C      1.734022    0.973635    0.052667
H     -3.440002   -0.206244   -1.739565
H     -4.176639    2.009413   -1.000110
H     -3.002498    3.169305    0.840586
H     -1.085025    2.114088    1.949093
H     -0.173598   -1.319990    1.797237
H      0.262196    0.269932    2.410004
H      1.790981   -2.329470    0.905493
H      3.852119   -2.239581   -0.436615
H      3.223632    1.954011   -1.149805
H      1.162887    1.882340    0.193891
