      -----------------------------------------------------------      
     |                   =====================                   |     
     |                           x T B                           |     
     |                   =====================                   |     
     |                         S. Grimme                         |     
     |          Mulliken Center for Theoretical Chemistry        |     
     |                    University of Bonn                     |     
      -----------------------------------------------------------      

   * xtb version 6.7.1 (edcfbbe) compiled by 'runner@sat12-gn217-0cbadaec-b866-44ae-a866-732403219ae3-6E01A8DFFD18.local' on 2026-06-10

   xtb is free software: you can redistribute it and/or modify it under
   the terms of the GNU Lesser General Public License as published by
   the Free Software Foundation, either version 3 of the License, or
   (at your option) any later version.
   
   xtb is distributed in the hope that it will be useful,
   but WITHOUT ANY WARRANTY; without even the implied warranty of
   MERCHANTABILITY or FITNESS FOR A PARTICULAR PURPOSE.  See the
   GNU Lesser General Public License for more details.
   
   Cite this work as:
   * C. Bannwarth, E. Caldeweyher, S. Ehlert, A. Hansen, P. Pracht,
     J. Seibert, S. Spicher, S. Grimme, WIREs Comput. Mol. Sci., 2020, 11,
     e01493. DOI: 10.1002/wcms.1493
   
   for GFN2-xTB:
   * C. Bannwarth, S. Ehlert and S. Grimme., J. Chem. Theory Comput., 2019,
     15, 1652-1671. DOI: 10.1021/acs.jctc.8b01176
   for GFN1-xTB:
   * S. Grimme, C. Bannwarth, P. Shushkov, J. Chem. Theory Comput., 2017,
     13, 1989-2009. DOI: 10.1021/acs.jctc.7b00118
   for GFN0-xTB:
   * P. Pracht, E. Caldeweyher, S. Ehlert, S. Grimme, ChemRxiv, 2019, preprint.
     DOI: 10.26434/chemrxiv.8326202.v1
   for GFN-FF:
   * S. Spicher and S. Grimme, Angew. Chem. Int. Ed., 2020, 59, 15665-15673.
     DOI: 10.1002/anie.202004239
   
   for ALPB and GBSA implicit solvation:
   * S. Ehlert, M. Stahn, S. Spicher, S. Grimme, J. Chem. Theory Comput.,
     2021, 17, 4250-4261. DOI: 10.1021/acs.jctc.1c00471
   
   for ddCOSMO and CPCM-X implicit solvation:
   * M. Stahn, S. Ehlert, S. Grimme, J. Phys. Chem. A,
     2023, XX, XXXX-XXXX. DOI: 10.1021/acs.jpca.3c04382
   
   for DFT-D4:
   * E. Caldeweyher, C. Bannwarth and S. Grimme, J. Chem. Phys., 2017,
     147, 034112. DOI: 10.1063/1.4993215
   * E. Caldeweyher, S. Ehlert, A. Hansen, H. Neugebauer, S. Spicher,
     C. Bannwarth and S. Grimme, J. Chem. Phys., 2019, 150, 154122.
     DOI: 10.1063/1.5090222
   * E. Caldeweyher, J.-M. Mewes, S. Ehlert and S. Grimme, Phys. Chem. Chem. Phys.
     2020, 22, 8499-8512. DOI: 10.1039/D0CP00502A
   
   for sTDA-xTB:
   * S. Grimme and C. Bannwarth, J. Chem. Phys., 2016, 145, 054103.
     DOI: 10.1063/1.4959605
   
   in the mass-spec context:
   * V. Asgeirsson, C. Bauer and S. Grimme, Chem. Sci., 2017, 8, 4879.
     DOI: 10.1039/c7sc00601b
   * J. Koopman and S. Grimme, ACS Omega 2019, 4, 12, 15120-15133.
     DOI: 10.1021/acsomega.9b02011
   
   for metadynamics refer to:
   * S. Grimme, J. Chem. Theory Comput., 2019, 155, 2847-2862
     DOI: 10.1021/acs.jctc.9b00143
   
   for SPH calculations refer to:
   * S. Spicher and S. Grimme, J. Chem. Theory Comput., 2021, 17, 1701-1714
     DOI: 10.1021/acs.jctc.0c01306
   
   for ONIOM refer to:
   * C. Plett, A. Katbashev, S. Ehlert, S. Grimme, M. Bursch,
     Phys. Chem. Chem. Phys., 2023, 25, 17860-17868. DOI: 10.1039/D3CP02178E
   
   for DIPRO refer to:
   * J. Kohn, N. Gildemeister, S. Grimme, D. Fazzi, A. Hansen,
     J. Chem. Phys., 2023, just accepted.
   
   for PTB refer to:
   * S. Grimme, M. Mueller, A. Hansen, J. Chem. Phys., 2023, 158, 124111.
     DOI: 10.1063/5.0137838
   
   with help from (in alphabetical order)
   P. Atkinson, C. Bannwarth, F. Bohle, G. Brandenburg, E. Caldeweyher
   M. Checinski, S. Dohm, S. Ehlert, S. Ehrlich, I. Gerasimov, C. Hölzer
   A. Katbashev, J. Kohn, J. Koopman, C. Lavigne, S. Lehtola, F. März, M. Müller,
   F. Musil, H. Neugebauer, J. Pisarek, C. Plett, P. Pracht, F. Pultar,
   J. Seibert, P. Shushkov, S. Spicher, M. Stahn, M. Steiner, T. Strunk,
   J. Stückrath, T. Rose, and J. Unsleber
   
 * started run on 2026/07/31 at 15:24:31.571     
   ID    Z sym.   atoms
    1    7 N      1, 2, 24, 25, 53, 55, 110, 112, 215
    2    6 C      3-5, 7, 9-12, 14, 16-20, 22, 23, 26-28, 30, 32-35, 37,
                  39-43, 45, 46, 49-52, 54, 57, 58, 61, 65, 67, 68, 70, 71,
                  73, 77, 81, 86-89, 91, 92, 106-109, 111, 114, 115, 118,
                  122, 124, 125, 127, 128, 130, 134, 138, 143-146, 148, 149,
                  171-174, 176, 178, 182-185, 187, 189, 193-196, 198, 200,
                  204-207, 209, 211, 216-221, 223-229
    3    1 H      6, 8, 13, 15, 21, 29, 31, 36, 38, 44, 56, 59, 60, 62, 63,
                  69, 72, 74-76, 78-80, 90, 93-105, 113, 116, 117, 119, 120,
                  126, 129, 131-133, 135-137, 147, 150-166, 175, 177,
                  179-181, 186, 188, 190-192, 197, 199, 201-203, 208, 210,
                  212-214, 230-240
    4   26 Fe     47
    5   17 Cl     48
    6    8 O      64, 66, 82-85, 121, 123, 139-142, 167-170
    7   16 S      222

           -------------------------------------------------
          |                Calculation Setup                |
           -------------------------------------------------

          program call               : /Users/haywoodau3/Documents/genaisubstrate/.chem-env/bin/xtb /Users/haywoodau3/Documents/genaisubstrate/data/jacs_2025/stage3/pilot/reference-optimizations/1ad/start-0001/input-assembly.xyz --gfn 2 --alpb ether --opt --input /Users/haywoodau3/Documents/genaisubstrate/data/jacs_2025/stage3/pilot/reference-optimizations/1ad/start-0001/xcontrol
          coordinate file            : /Users/haywoodau3/Documents/genaisubstrate/data/jacs_2025/stage3/pilot/reference-optimizations/1ad/start-0001/input-assembly.xyz
          omp threads                :                     4


           -------------------------------------------------
          |                 G F N 2 - x T B                 |
           -------------------------------------------------

        Reference                      10.1021/acs.jctc.8b01176
      * Hamiltonian:
        H0-scaling (s, p, d)           1.850000    2.230000    2.230000
        zeta-weighting                 0.500000
      * Dispersion:
        s8                             2.700000
        a1                             0.520000
        a2                             5.000000
        s9                             5.000000
      * Repulsion:
        kExp                           1.500000    1.000000
        rExp                           1.000000
      * Coulomb:
        alpha                          2.000000
        third order                    shell-resolved
        anisotropic                    true
        a3                             3.000000
        a5                             4.000000
        cn-shift                       1.200000
        cn-exp                         4.000000
        max-rad                        5.000000

      * Solvation model:               ALPB
        Solvent                        ether
        Parameter file                 internal GFN2-xTB/ALPB
        Dielectric constant                4.3300E+00
        Reference state                gsolv [1 M gas/solution]
        Free energy shift                  4.9534E-03 Eh       3.1083E+00 kcal/mol
        Temperature                        2.9815E+02 K
        Density                            7.1300E-01 kg/L
        Solvent mass                       7.4120E+01 g/mol
        Interaction kernel             P16
        Born radius scaling (c1)           1.5847E+00
        Born radii integrator          GBOBC
        Born offset                        0.0000E+00 a0       0.0000E+00 AA
        H-bond correction              true
        Ion screening                  false
        Surface tension                    1.0000E-05 Eh       1.5569E+01 dyn/cm
        Grid points                               230 per atom

          ...................................................
          :                      SETUP                      :
          :.................................................:
          :  # basis functions                 681          :
          :  # atomic orbitals                 678          :
          :  # shells                          384          :
          :  # electrons                       713          :
          :  max. iterations                   250          :
          :  Hamiltonian                  GFN2-xTB          :
          :  restarted?                      false          :
          :  GBSA solvation                   true          :
          :  PC potential                    false          :
          :  electronic temp.          300.0000000     K    :
          :  accuracy                    1.0000000          :
          :  -> integral cutoff          0.2500000E+02      :
          :  -> integral neglect         0.1000000E-07      :
          :  -> SCF convergence          0.1000000E-05 Eh   :
          :  -> wf. convergence          0.1000000E-03 e    :
          :  Broyden damping             0.4000000          :
          :  net charge                          0          :
          :  unpaired electrons                  0          :
          ...................................................

 iter      E             dE          RMSdq      gap      omega  full diag
   1   -399.1215219 -0.399122E+03  0.466E+00    0.14       0.0  T
   2   -399.5662093 -0.444687E+00  0.288E+00    0.04       1.0  T
   3   -398.7256098  0.840599E+00  0.291E+00    0.15       1.0  T
   4   -399.2243302 -0.498720E+00  0.154E+00    0.54       1.0  T
   5   -399.0918793  0.132451E+00  0.176E+00    0.41       1.0  T
   6   -399.7869369 -0.695058E+00  0.519E-01    0.16       1.0  T
   7   -399.8691950 -0.822581E-01  0.269E-01    0.08       1.0  T
   8   -399.8666761  0.251894E-02  0.195E-01    0.07       1.0  T
   9   -399.8449458  0.217303E-01  0.255E-01    0.04       1.0  T
  10   -399.8713097 -0.263639E-01  0.139E-01    0.06       1.0  T
  11   -399.8764052 -0.509549E-02  0.407E-02    0.04       1.0  T
  12   -399.8768307 -0.425531E-03  0.168E-02    0.04       1.0  T
  13   -399.8767876  0.430563E-04  0.169E-02    0.04       1.0  T
  14   -399.8768477 -0.600618E-04  0.924E-03    0.04       1.0  T
  15   -399.8768450  0.269894E-05  0.774E-03    0.04       1.0  T
  16   -399.8768461 -0.107029E-05  0.740E-03    0.04       1.0  T
  17   -399.8768564 -0.103370E-04  0.513E-03    0.04       1.3  T
  18   -399.8768603 -0.393685E-05  0.258E-03    0.04       2.5  T
  19   -399.8768585  0.187387E-05  0.334E-03    0.04       1.9  T
  20   -399.8768621 -0.368333E-05  0.892E-04    0.04       7.2  T
  21   -399.8768624 -0.222349E-06  0.347E-04    0.04      18.6  T
  22   -399.8768624 -0.570549E-08  0.190E-04    0.04      33.9  T

   *** convergence criteria satisfied after 22 iterations ***

         #    Occupation            Energy/Eh            Energy/eV
      -------------------------------------------------------------
         1        2.0000           -1.0060310             -27.3755
       ...           ...                  ...                  ...
       351        2.0000           -0.3702368             -10.0747
       352        2.0000           -0.3625880              -9.8665
       353        2.0000           -0.3558796              -9.6840
       354        2.0000           -0.3489420              -9.4952
       355        2.0000           -0.3447853              -9.3821
       356        1.9886           -0.3307758              -9.0009
       357        0.7032           -0.3221196              -8.7653 (HOMO)
       358        0.3083           -0.3205669              -8.7231 (LUMO)
       359        0.0000           -0.3060915              -8.3292
       360                         -0.2982251              -8.1151
       361                         -0.2692155              -7.3257
       362                         -0.2641383              -7.1876
       ...                                ...                  ...
       678                          1.4408463              39.2074
      -------------------------------------------------------------
                  HL-Gap            0.0015527 Eh            0.0423 eV
             Fermi-level           -0.3239385 Eh           -8.8148 eV

 SCC (total)                   0 d,  0 h,  0 min,  1.940 sec
 SCC setup                      ...        0 min,  0.004 sec (  0.206%)
 Dispersion                     ...        0 min,  0.004 sec (  0.227%)
 classical contributions        ...        0 min,  0.001 sec (  0.039%)
 integral evaluation            ...        0 min,  0.024 sec (  1.232%)
 iterations                     ...        0 min,  1.550 sec ( 79.926%)
 molecular gradient             ...        0 min,  0.336 sec ( 17.318%)
 printout                       ...        0 min,  0.020 sec (  1.052%)

         :::::::::::::::::::::::::::::::::::::::::::::::::::::
         ::                     SUMMARY                     ::
         :::::::::::::::::::::::::::::::::::::::::::::::::::::
         :: total energy            -394.711219846487 Eh    ::
         :: total w/o Gsasa/hb      -394.601279683766 Eh    ::
         :: gradient norm              0.404869278228 Eh/a0 ::
         :: HOMO-LUMO gap              0.042251774964 eV    ::
         ::.................................................::
         :: SCC energy              -399.851242890974 Eh    ::
         :: -> isotropic ES            0.519048803176 Eh    ::
         :: -> anisotropic ES         -0.001072303459 Eh    ::
         :: -> anisotropic XC          0.171926029588 Eh    ::
         :: -> dispersion             -0.366587794765 Eh    ::
         :: -> Gsolv                  -0.159978006974 Eh    ::
         ::    -> Gelec               -0.050037844254 Eh    ::
         ::    -> Gsasa               -0.108593354285 Eh    ::
         ::    -> Ghb                 -0.006300246012 Eh    ::
         ::    -> Gshift               0.004953437577 Eh    ::
         :: repulsion energy           5.140023044487 Eh    ::
         :: add. restraining           0.000000000000 Eh    ::
         :: total charge              -0.000000000003 e     ::
         :::::::::::::::::::::::::::::::::::::::::::::::::::::

      ----------------------------------------------------------- 
     |                   =====================                   |
     |                        A N C O P T                        |
     |                   =====================                   |
     |               Approximate Normal Coordinate               |
     |                Rational Function Optimizer                |
      ----------------------------------------------------------- 
      ----------------------------------------------------------- 
     |                   =====================                   |
     |                        A N C O P T                        |
     |                   =====================                   |
     |               Approximate Normal Coordinate               |
     |                Rational Function Optimizer                |
      ----------------------------------------------------------- 

          ...................................................
          :                      SETUP                      :
          :.................................................:
          :   optimization level            normal          :
          :   max. optcycles                   720          :
          :   ANC micro-cycles                  20          :
          :   degrees of freedom               714          :
          :.................................................:
          :   RF solver                   davidson          :
          :   write xtbopt.log                true          :
          :   linear?                        false          :
          :   energy convergence         0.5000000E-05 Eh   :
          :   grad. convergence          0.1000000E-02 Eh/α :
          :   maxmium RF displ.          1.0000000          :
          :   Hlow (freq-cutoff)         0.1000000E-01      :
          :   Hmax (freq-cutoff)         5.0000000          :
          :   S6 in model hess.         20.0000000          :
          ...................................................

generating ANC from exact Hessian ...
Using Lindh-Hessian (1995)
 Shifting diagonal of input Hessian by    9.4140705380144265E-003
 Lowest  eigenvalues of input Hessian
    0.000000    0.000000    0.000000    0.000000    0.000000    0.000000
    0.010000    0.010353    0.011169    0.011896    0.014733    0.016081
    0.017981    0.018679    0.021508    0.024795    0.026806    0.028187
 Highest eigenvalues
    3.141047    3.147433    3.174219    3.209189    3.293099    3.297350


........................................................................
.............................. CYCLE    1 ..............................
........................................................................

 iter      E             dE          RMSdq      gap      omega  full diag
   1   -399.8768624 -0.399877E+03  0.668E-05    0.04       0.0  T
   2   -399.8768624  0.390344E-09  0.706E-05    0.04      91.4  T
   3   -399.8768624 -0.655916E-09  0.413E-05    0.04     156.4  T
     SCC iter.                  ...        0 min,  0.207 sec
     gradient                   ...        0 min,  0.325 sec
 * total energy  :  -394.7112199 Eh     change       -0.9006101E-08 Eh
   gradient norm :     0.4048798 Eh/α   predicted     0.0000000E+00 (-100.00%)
   displ. norm   :     0.5587625 α      lambda       -0.1674773E+00
   maximum displ.:     0.1939317 α      in ANC's #18, #16, #15, ...

........................................................................
.............................. CYCLE    2 ..............................
........................................................................

 iter      E             dE          RMSdq      gap      omega  full diag
   1   -400.1304357 -0.400130E+03  0.279E-01    0.08       0.0  T
   2   -399.6664574  0.463978E+00  0.106E+00    0.30       1.0  T
   3   -400.1425553 -0.476098E+00  0.257E-01    0.07       1.0  T
   4   -400.1478105 -0.525526E-02  0.163E-01    0.07       1.0  T
   5   -400.1482960 -0.485455E-03  0.106E-01    0.07       1.0  T
   6   -400.1518703 -0.357430E-02  0.355E-02    0.06       1.0  T
   7   -400.1519887 -0.118466E-03  0.221E-02    0.06       1.0  T
   8   -400.1520523 -0.635818E-04  0.102E-02    0.06       1.0  T
   9   -400.1520578 -0.550253E-05  0.619E-03    0.06       1.0  T
  10   -400.1520631 -0.524408E-05  0.353E-03    0.06       1.8  T
  11   -400.1520652 -0.213682E-05  0.231E-03    0.06       2.8  T
  12   -400.1520656 -0.423575E-06  0.181E-03    0.06       3.6  T
  13   -400.1520650  0.635682E-06  0.172E-03    0.06       3.7  T
  14   -400.1520658 -0.776523E-06  0.128E-03    0.06       5.1  T
  15   -400.1520660 -0.230496E-06  0.491E-04    0.06      13.1  T
  16   -400.1520659  0.693403E-07  0.618E-04    0.06      10.4  T
     SCC iter.                  ...        0 min,  1.141 sec
     gradient                   ...        0 min,  0.341 sec
 * total energy  :  -394.8395931 Eh     change       -0.1283732E+00 Eh
   gradient norm :     0.2014954 Eh/α   predicted    -0.1100085E+00 ( -14.31%)
   displ. norm   :     0.6601749 α      lambda       -0.1024491E+00
   maximum displ.:     0.2418693 α      in ANC's #18, #16, #14, ...

........................................................................
.............................. CYCLE    3 ..............................
........................................................................

 iter      E             dE          RMSdq      gap      omega  full diag
   1   -400.3178863 -0.400318E+03  0.214E-01    0.08       0.0  T
   2   -400.3035007  0.143856E-01  0.382E-01    0.03       1.0  T
   3   -400.3245934 -0.210927E-01  0.100E-01    0.06       1.0  T
   4   -400.3241175  0.475964E-03  0.717E-02    0.09       1.0  T
   5   -400.3240668  0.507108E-04  0.821E-02    0.05       1.0  T
   6   -400.3250250 -0.958279E-03  0.127E-02    0.07       1.0  T
   7   -400.3250358 -0.107505E-04  0.867E-03    0.07       1.0  T
   8   -400.3250455 -0.973324E-05  0.538E-03    0.07       1.2  T
   9   -400.3250499 -0.433146E-05  0.204E-03    0.07       3.2  T
  10   -400.3250501 -0.236699E-06  0.154E-03    0.07       4.2  T
  11   -400.3250502 -0.156572E-06  0.987E-04    0.07       6.5  T
  12   -400.3250503 -0.632150E-07  0.661E-04    0.07       9.8  T
     SCC iter.                  ...        0 min,  0.870 sec
     gradient                   ...        0 min,  0.324 sec
 * total energy  :  -394.9196052 Eh     change       -0.8001211E-01 Eh
   gradient norm :     0.1162381 Eh/α   predicted    -0.7354983E-01 (  -8.08%)
   displ. norm   :     0.7226497 α      lambda       -0.6445054E-01
   maximum displ.:     0.2932650 α      in ANC's #18, #16, #14, ...

........................................................................
.............................. CYCLE    4 ..............................
........................................................................

 iter      E             dE          RMSdq      gap      omega  full diag
   1   -400.3932823 -0.400393E+03  0.150E-01    0.08       0.0  T
   2   -400.3904371  0.284514E-02  0.191E-01    0.06       1.0  T
   3   -400.3945389 -0.410175E-02  0.870E-02    0.07       1.0  T
   4   -400.3945996 -0.606781E-04  0.573E-02    0.09       1.0  T
   5   -400.3947620 -0.162410E-03  0.437E-02    0.07       1.0  T
   6   -400.3950398 -0.277860E-03  0.770E-03    0.07       1.0  T
   7   -400.3950406 -0.756849E-06  0.532E-03    0.07       1.2  T
   8   -400.3950462 -0.560298E-05  0.228E-03    0.07       2.8  T
   9   -400.3950470 -0.815262E-06  0.115E-03    0.07       5.6  T
  10   -400.3950471 -0.134549E-06  0.661E-04    0.07       9.8  T
  11   -400.3950472 -0.197466E-07  0.447E-04    0.07      14.4  T
     SCC iter.                  ...        0 min,  0.762 sec
     gradient                   ...        0 min,  0.326 sec
 * total energy  :  -394.9731915 Eh     change       -0.5358625E-01 Eh
   gradient norm :     0.0829572 Eh/α   predicted    -0.4905416E-01 (  -8.46%)
   displ. norm   :     0.7677296 α      lambda       -0.4724231E-01
   maximum displ.:     0.3228162 α      in ANC's #18, #16, #14, ...

........................................................................
.............................. CYCLE    5 ..............................
........................................................................

 iter      E             dE          RMSdq      gap      omega  full diag
   1   -400.4190596 -0.400419E+03  0.118E-01    0.09       0.0  T
   2   -400.4190532  0.639199E-05  0.810E-02    0.07       1.0  T
   3   -400.4188161  0.237131E-03  0.791E-02    0.10       1.0  T
   4   -400.4193277 -0.511636E-03  0.457E-02    0.08       1.0  T
   5   -400.4195473 -0.219550E-03  0.269E-02    0.08       1.0  T
   6   -400.4196198 -0.725187E-04  0.615E-03    0.08       1.0  T
   7   -400.4196200 -0.195076E-06  0.334E-03    0.08       1.9  T
   8   -400.4196221 -0.214184E-05  0.136E-03    0.08       4.7  T
   9   -400.4196224 -0.283794E-06  0.741E-04    0.08       8.7  T
  10   -400.4196225 -0.661620E-07  0.392E-04    0.08      16.5  T
     SCC iter.                  ...        0 min,  0.702 sec
     gradient                   ...        0 min,  0.327 sec
 * total energy  :  -395.0123101 Eh     change       -0.3911865E-01 Eh
   gradient norm :     0.0559909 Eh/α   predicted    -0.3754368E-01 (  -4.03%)
   displ. norm   :     0.7732890 α      lambda       -0.3270319E-01
   maximum displ.:     0.3074056 α      in ANC's #18, #10, #16, ...

........................................................................
.............................. CYCLE    6 ..............................
........................................................................

 iter      E             dE          RMSdq      gap      omega  full diag
   1   -400.4277660 -0.400428E+03  0.112E-01    0.10       0.0  T
   2   -400.4270191  0.746921E-03  0.101E-01    0.07       1.0  T
   3   -400.4273696 -0.350468E-03  0.858E-02    0.10       1.0  T
   4   -400.4280761 -0.706529E-03  0.329E-02    0.09       1.0  T
   5   -400.4282057 -0.129590E-03  0.168E-02    0.08       1.0  T
   6   -400.4282327 -0.270377E-04  0.487E-03    0.09       1.3  T
   7   -400.4282329 -0.229380E-06  0.257E-03    0.09       2.5  T
   8   -400.4282340 -0.106575E-05  0.114E-03    0.09       5.6  T
   9   -400.4282343 -0.244297E-06  0.576E-04    0.09      11.2  T
  10   -400.4282343 -0.367837E-07  0.284E-04    0.09      22.7  T
     SCC iter.                  ...        0 min,  0.698 sec
     gradient                   ...        0 min,  0.324 sec
 * total energy  :  -395.0398714 Eh     change       -0.2756125E-01 Eh
   gradient norm :     0.0430681 Eh/α   predicted    -0.2612967E-01 (  -5.19%)
   displ. norm   :     0.7772471 α      lambda       -0.2357531E-01
   maximum displ.:     0.3203402 α      in ANC's #10, #14, #18, ...

........................................................................
.............................. CYCLE    7 ..............................
........................................................................

 iter      E             dE          RMSdq      gap      omega  full diag
   1   -400.4377016 -0.400438E+03  0.107E-01    0.10       0.0  T
   2   -400.4372153  0.486295E-03  0.887E-02    0.08       1.0  T
   3   -400.4371332  0.820471E-04  0.861E-02    0.10       1.0  T
   4   -400.4378975 -0.764269E-03  0.277E-02    0.10       1.0  T
   5   -400.4380024 -0.104918E-03  0.133E-02    0.09       1.0  T
   6   -400.4380187 -0.162937E-04  0.402E-03    0.10       1.6  T
   7   -400.4380190 -0.247792E-06  0.202E-03    0.09       3.2  T
   8   -400.4380195 -0.542037E-06  0.962E-04    0.09       6.7  T
   9   -400.4380197 -0.158043E-06  0.527E-04    0.09      12.2  T
     SCC iter.                  ...        0 min,  0.623 sec
     gradient                   ...        0 min,  0.324 sec
 * total energy  :  -395.0596958 Eh     change       -0.1982441E-01 Eh
   gradient norm :     0.0367270 Eh/α   predicted    -0.1890874E-01 (  -4.62%)
   displ. norm   :     0.7637440 α      lambda       -0.1688319E-01
   maximum displ.:     0.3156700 α      in ANC's #10, #5, #14, ...

........................................................................
.............................. CYCLE    8 ..............................
........................................................................

 iter      E             dE          RMSdq      gap      omega  full diag
   1   -400.4467471 -0.400447E+03  0.102E-01    0.11       0.0  T
   2   -400.4465441  0.203044E-03  0.728E-02    0.09       1.0  T
   3   -400.4458755  0.668551E-03  0.896E-02    0.11       1.0  T
   4   -400.4468405 -0.964984E-03  0.222E-02    0.10       1.0  T
   5   -400.4469095 -0.689463E-04  0.102E-02    0.10       1.0  T
   6   -400.4469196 -0.101014E-04  0.339E-03    0.10       1.9  T
   7   -400.4469199 -0.285660E-06  0.152E-03    0.10       4.2  T
   8   -400.4469201 -0.267680E-06  0.775E-04    0.10       8.3  T
   9   -400.4469202 -0.751317E-07  0.481E-04    0.10      13.4  T
     SCC iter.                  ...        0 min,  0.630 sec
     gradient                   ...        0 min,  0.325 sec
 * total energy  :  -395.0738424 Eh     change       -0.1414661E-01 Eh
   gradient norm :     0.0295915 Eh/α   predicted    -0.1336563E-01 (  -5.52%)
   displ. norm   :     0.7419325 α      lambda       -0.1206867E-01
   maximum displ.:     0.2927011 α      in ANC's #10, #5, #14, ...

........................................................................
.............................. CYCLE    9 ..............................
........................................................................

 iter      E             dE          RMSdq      gap      omega  full diag
   1   -400.4554308 -0.400455E+03  0.966E-02    0.11       0.0  T
   2   -400.4553832  0.476932E-04  0.608E-02    0.10       1.0  T
   3   -400.4545438  0.839403E-03  0.824E-02    0.12       1.0  T
   4   -400.4554589 -0.915196E-03  0.205E-02    0.11       1.0  T
   5   -400.4555115 -0.525689E-04  0.821E-03    0.11       1.0  T
   6   -400.4555179 -0.638380E-05  0.280E-03    0.11       2.3  T
   7   -400.4555181 -0.245970E-06  0.118E-03    0.11       5.5  T
   8   -400.4555183 -0.148345E-06  0.639E-04    0.11      10.1  T
   9   -400.4555183 -0.311232E-07  0.409E-04    0.11      15.8  T
     SCC iter.                  ...        0 min,  0.631 sec
     gradient                   ...        0 min,  0.338 sec
 * total energy  :  -395.0838227 Eh     change       -0.9980363E-02 Eh
   gradient norm :     0.0225857 Eh/α   predicted    -0.9356028E-02 (  -6.26%)
   displ. norm   :     0.7134580 α      lambda       -0.8325540E-02
   maximum displ.:     0.2676059 α      in ANC's #2, #5, #10, ...

........................................................................
.............................. CYCLE   10 ..............................
........................................................................

 iter      E             dE          RMSdq      gap      omega  full diag
   1   -400.4615897 -0.400462E+03  0.906E-02    0.12       0.0  T
   2   -400.4615896  0.177393E-06  0.541E-02    0.11       1.0  T
   3   -400.4611316  0.457983E-03  0.583E-02    0.13       1.0  T
   4   -400.4615751 -0.443498E-03  0.213E-02    0.12       1.0  T
   5   -400.4616336 -0.585541E-04  0.688E-03    0.12       1.0  T
   6   -400.4616374 -0.380801E-05  0.228E-03    0.12       2.8  T
   7   -400.4616377 -0.224962E-06  0.889E-04    0.12       7.3  T
   8   -400.4616377 -0.641965E-07  0.532E-04    0.12      12.1  T
     SCC iter.                  ...        0 min,  0.581 sec
     gradient                   ...        0 min,  0.325 sec
 * total energy  :  -395.0906210 Eh     change       -0.6798238E-02 Eh
   gradient norm :     0.0176373 Eh/α   predicted    -0.6281731E-02 (  -7.60%)
   displ. norm   :     0.6900400 α      lambda       -0.5709467E-02
   maximum displ.:     0.3233034 α      in ANC's #2, #5, #4, ...

........................................................................
.............................. CYCLE   11 ..............................
........................................................................

 iter      E             dE          RMSdq      gap      omega  full diag
   1   -400.4669198 -0.400467E+03  0.836E-02    0.13       0.0  T
   2   -400.4669271 -0.725218E-05  0.495E-02    0.12       1.0  T
   3   -400.4667349  0.192155E-03  0.398E-02    0.14       1.0  T
   4   -400.4669080 -0.173095E-03  0.166E-02    0.13       1.0  T
   5   -400.4669470 -0.389497E-04  0.723E-03    0.13       1.0  T
   6   -400.4669513 -0.431581E-05  0.181E-03    0.13       3.6  T
   7   -400.4669514 -0.110022E-06  0.734E-04    0.13       8.8  T
   8   -400.4669515 -0.362801E-07  0.457E-04    0.13      14.1  T
     SCC iter.                  ...        0 min,  0.557 sec
     gradient                   ...        0 min,  0.325 sec
 * total energy  :  -395.0952544 Eh     change       -0.4633385E-02 Eh
   gradient norm :     0.0147434 Eh/α   predicted    -0.4214038E-02 (  -9.05%)
   displ. norm   :     0.6809668 α      lambda       -0.4082483E-02
   maximum displ.:     0.3746894 α      in ANC's #2, #4, #5, ...

........................................................................
.............................. CYCLE   12 ..............................
........................................................................

 iter      E             dE          RMSdq      gap      omega  full diag
   1   -400.4667108 -0.400467E+03  0.840E-02    0.14       0.0  T
   2   -400.4667182 -0.741875E-05  0.497E-02    0.13       1.0  T
   3   -400.4665564  0.161721E-03  0.360E-02    0.15       1.0  T
   4   -400.4666857 -0.129266E-03  0.176E-02    0.14       1.0  T
   5   -400.4667322 -0.464473E-04  0.469E-03    0.14       1.4  T
   6   -400.4667337 -0.150101E-05  0.167E-03    0.14       3.9  T
   7   -400.4667338 -0.127613E-06  0.678E-04    0.14       9.5  T
   8   -400.4667338 -0.328674E-07  0.406E-04    0.14      15.9  T
     SCC iter.                  ...        0 min,  0.552 sec
     gradient                   ...        0 min,  0.324 sec
 * total energy  :  -395.0983646 Eh     change       -0.3110229E-02 Eh
   gradient norm :     0.0175009 Eh/α   predicted    -0.2987804E-02 (  -3.94%)
   displ. norm   :     0.6491684 α      lambda       -0.3188423E-02
   maximum displ.:     0.4013270 α      in ANC's #2, #4, #12, ...

........................................................................
.............................. CYCLE   13 ..............................
........................................................................

 iter      E             dE          RMSdq      gap      omega  full diag
   1   -400.4737093 -0.400474E+03  0.751E-02    0.15       0.0  T
   2   -400.4737200 -0.106433E-04  0.447E-02    0.14       1.0  T
   3   -400.4736289  0.911187E-04  0.266E-02    0.16       1.0  T
   4   -400.4737220 -0.931397E-04  0.764E-03    0.15       1.0  T
   5   -400.4737254 -0.342882E-05  0.735E-03    0.15       1.0  T
   6   -400.4737322 -0.672078E-05  0.139E-03    0.15       4.6  T
   7   -400.4737322 -0.202005E-07  0.654E-04    0.15       9.9  T
   8   -400.4737322 -0.368714E-07  0.377E-04    0.15      17.1  T
     SCC iter.                  ...        0 min,  0.555 sec
     gradient                   ...        0 min,  0.325 sec
 * total energy  :  -395.1003034 Eh     change       -0.1938841E-02 Eh
   gradient norm :     0.0185313 Eh/α   predicted    -0.2266046E-02 (  16.88%)
   displ. norm   :     0.5182161 α      lambda       -0.1944285E-02
   maximum displ.:     0.3563250 α      in ANC's #2, #4, #5, ...

........................................................................
.............................. CYCLE   14 ..............................
........................................................................

 iter      E             dE          RMSdq      gap      omega  full diag
   1   -400.4720600 -0.400472E+03  0.647E-02    0.15       0.0  T
   2   -400.4720657 -0.570016E-05  0.382E-02    0.15       1.0  T
   3   -400.4720030  0.626890E-04  0.200E-02    0.16       1.0  T
   4   -400.4720530 -0.499716E-04  0.107E-02    0.15       1.0  T
   5   -400.4720702 -0.171931E-04  0.294E-03    0.15       2.2  T
   6   -400.4720710 -0.857271E-06  0.115E-03    0.15       5.6  T
   7   -400.4720711 -0.583305E-07  0.477E-04    0.15      13.5  T
   8   -400.4720711 -0.193386E-07  0.280E-04    0.15      23.1  T
     SCC iter.                  ...        0 min,  0.552 sec
     gradient                   ...        0 min,  0.324 sec
 * total energy  :  -395.1016457 Eh     change       -0.1342292E-02 Eh
   gradient norm :     0.0090405 Eh/α   predicted    -0.1233213E-02 (  -8.13%)
   displ. norm   :     0.4390548 α      lambda       -0.1045259E-02
   maximum displ.:     0.3284483 α      in ANC's #2, #7, #15, ...

........................................................................
.............................. CYCLE   15 ..............................
........................................................................

 iter      E             dE          RMSdq      gap      omega  full diag
   1   -400.4747772 -0.400475E+03  0.517E-02    0.16       0.0  T
   2   -400.4747799 -0.264059E-05  0.304E-02    0.16       1.0  T
   3   -400.4747206  0.592311E-04  0.194E-02    0.16       1.0  T
   4   -400.4747689 -0.482785E-04  0.101E-02    0.16       1.0  T
   5   -400.4747835 -0.145513E-04  0.234E-03    0.16       2.8  T
   6   -400.4747843 -0.781957E-06  0.811E-04    0.16       8.0  T
   7   -400.4747843 -0.144004E-07  0.378E-04    0.16      17.1  T
     SCC iter.                  ...        0 min,  0.484 sec
     gradient                   ...        0 min,  0.324 sec
 * total energy  :  -395.1023730 Eh     change       -0.7272355E-03 Eh
   gradient norm :     0.0133429 Eh/α   predicted    -0.6233782E-03 ( -14.28%)
   displ. norm   :     0.4856310 α      lambda       -0.1083917E-02
   maximum displ.:     0.3757799 α      in ANC's #2, #7, #1, ...

........................................................................
.............................. CYCLE   16 ..............................
........................................................................

 iter      E             dE          RMSdq      gap      omega  full diag
   1   -400.4793172 -0.400479E+03  0.547E-02    0.16       0.0  T
   2   -400.4793223 -0.514285E-05  0.318E-02    0.16       1.0  T
   3   -400.4792869  0.354518E-04  0.151E-02    0.17       1.0  T
   4   -400.4793065 -0.196946E-04  0.110E-02    0.16       1.0  T
   5   -400.4793262 -0.196058E-04  0.275E-03    0.16       2.3  T
   6   -400.4793272 -0.106380E-05  0.106E-03    0.16       6.1  T
   7   -400.4793273 -0.653837E-07  0.457E-04    0.16      14.1  T
   8   -400.4793273 -0.183020E-07  0.244E-04    0.16      26.5  T
     SCC iter.                  ...        0 min,  0.551 sec
     gradient                   ...        0 min,  0.327 sec
 * total energy  :  -395.1029812 Eh     change       -0.6082211E-03 Eh
   gradient norm :     0.0130964 Eh/α   predicted    -0.6697738E-03 (  10.12%)
   displ. norm   :     0.3904581 α      lambda       -0.8808360E-03
   maximum displ.:     0.2994891 α      in ANC's #2, #1, #7, ...

........................................................................
.............................. CYCLE   17 ..............................
........................................................................

 iter      E             dE          RMSdq      gap      omega  full diag
   1   -400.4803091 -0.400480E+03  0.477E-02    0.17       0.0  T
   2   -400.4803081  0.971024E-06  0.284E-02    0.17       1.0  T
   3   -400.4802303  0.778486E-04  0.249E-02    0.17       1.0  T
   4   -400.4802871 -0.568039E-04  0.144E-02    0.17       1.0  T
   5   -400.4803151 -0.280498E-04  0.251E-03    0.17       2.6  T
   6   -400.4803163 -0.121355E-05  0.820E-04    0.17       7.9  T
   7   -400.4803164 -0.279514E-07  0.376E-04    0.17      17.2  T
   8   -400.4803164 -0.169765E-07  0.207E-04    0.17      31.2  T
     SCC iter.                  ...        0 min,  0.562 sec
     gradient                   ...        0 min,  0.325 sec
 * total energy  :  -395.1035558 Eh     change       -0.5746360E-03 Eh
   gradient norm :     0.0136626 Eh/α   predicted    -0.5075629E-03 ( -11.67%)
   displ. norm   :     0.4352887 α      lambda       -0.9301150E-03
   maximum displ.:     0.3121714 α      in ANC's #2, #3, #1, ...

........................................................................
.............................. CYCLE   18 ..............................
........................................................................

 iter      E             dE          RMSdq      gap      omega  full diag
   1   -400.4815710 -0.400482E+03  0.519E-02    0.17       0.0  T
   2   -400.4815604  0.106414E-04  0.318E-02    0.17       1.0  T
   3   -400.4814204  0.140023E-03  0.360E-02    0.17       1.0  T
   4   -400.4815563 -0.135938E-03  0.150E-02    0.17       1.0  T
   5   -400.4815821 -0.257962E-04  0.261E-03    0.17       2.5  T
   6   -400.4815831 -0.101500E-05  0.113E-03    0.17       5.7  T
   7   -400.4815832 -0.118149E-06  0.384E-04    0.17      16.8  T
   8   -400.4815832 -0.187126E-07  0.218E-04    0.17      29.6  T
     SCC iter.                  ...        0 min,  0.557 sec
     gradient                   ...        0 min,  0.324 sec
 * total energy  :  -395.1042686 Eh     change       -0.7128235E-03 Eh
   gradient norm :     0.0138750 Eh/α   predicted    -0.5531808E-03 ( -22.40%)
   displ. norm   :     0.6109329 α      lambda       -0.1366503E-02
   maximum displ.:     0.3888261 α      in ANC's #2, #1, #3, ...

........................................................................
.............................. CYCLE   19 ..............................
........................................................................

 iter      E             dE          RMSdq      gap      omega  full diag
   1   -400.4781902 -0.400478E+03  0.720E-02    0.18       0.0  T
   2   -400.4781769  0.133205E-04  0.438E-02    0.17       1.0  T
   3   -400.4779325  0.244369E-03  0.480E-02    0.18       1.0  T
   4   -400.4781628 -0.230336E-03  0.206E-02    0.18       1.0  T
   5   -400.4782121 -0.492210E-04  0.288E-03    0.18       2.2  T
   6   -400.4782126 -0.495533E-06  0.172E-03    0.18       3.8  T
   7   -400.4782129 -0.364898E-06  0.537E-04    0.18      12.0  T
   8   -400.4782130 -0.372198E-07  0.322E-04    0.18      20.1  T
     SCC iter.                  ...        0 min,  0.555 sec
     gradient                   ...        0 min,  0.325 sec
 * total energy  :  -395.1053299 Eh     change       -0.1061214E-02 Eh
   gradient norm :     0.0150629 Eh/α   predicted    -0.9382693E-03 ( -11.59%)
   displ. norm   :     0.6449529 α      lambda       -0.1578860E-02
   maximum displ.:     0.3439823 α      in ANC's #2, #1, #4, ...

........................................................................
.............................. CYCLE   20 ..............................
........................................................................

 iter      E             dE          RMSdq      gap      omega  full diag
   1   -400.4752528 -0.400475E+03  0.824E-02    0.18       0.0  T
   2   -400.4752601 -0.736689E-05  0.471E-02    0.18       1.0  T
   3   -400.4752276  0.325037E-04  0.251E-02    0.18       1.0  T
   4   -400.4752148  0.128318E-04  0.188E-02    0.18       1.0  T
   5   -400.4752652 -0.503757E-04  0.323E-03    0.18       2.0  T
   6   -400.4752653 -0.898158E-07  0.172E-03    0.18       3.8  T
   7   -400.4752656 -0.327318E-06  0.621E-04    0.18      10.4  T
   8   -400.4752656 -0.391557E-07  0.370E-04    0.18      17.4  T
     SCC iter.                  ...        0 min,  0.558 sec
     gradient                   ...        0 min,  0.324 sec
 * total energy  :  -395.1065799 Eh     change       -0.1250032E-02 Eh
   gradient norm :     0.0150979 Eh/α   predicted    -0.1117810E-02 ( -10.58%)
   displ. norm   :     0.6302374 α      lambda       -0.1566685E-02
   maximum displ.:     0.3225576 α      in ANC's #2, #1, #4, ...
 * RMSD in coord.:     0.5979528 α      energy gain  -0.3953600E+00 Eh

generating ANC from exact Hessian ...
Using Lindh-Hessian (1995)
 Shifting diagonal of input Hessian by    9.8248296813855107E-003
 Lowest  eigenvalues of input Hessian
    0.000000    0.000000    0.000000    0.000000    0.000000    0.000000
    0.010000    0.010397    0.010845    0.010957    0.011511    0.011743
    0.012759    0.013233    0.014470    0.017583    0.019855    0.021541
 Highest eigenvalues
    3.133611    3.197738    3.211970    3.246620    3.329321    3.334377


........................................................................
.............................. CYCLE   21 ..............................
........................................................................

 iter      E             dE          RMSdq      gap      omega  full diag
   1   -400.4750733 -0.400475E+03  0.802E-02    0.18       0.0  T
   2   -400.4750706  0.264664E-05  0.468E-02    0.18       1.0  T
   3   -400.4748409  0.229747E-03  0.444E-02    0.18       1.0  T
   4   -400.4750359 -0.195045E-03  0.229E-02    0.18       1.0  T
   5   -400.4750920 -0.560256E-04  0.268E-03    0.18       2.4  T
   6   -400.4750918  0.106720E-06  0.178E-03    0.18       3.6  T
   7   -400.4750924 -0.597846E-06  0.602E-04    0.18      10.7  T
   8   -400.4750925 -0.230087E-07  0.362E-04    0.18      17.9  T
     SCC iter.                  ...        0 min,  0.540 sec
     gradient                   ...        0 min,  0.326 sec
 * total energy  :  -395.1079025 Eh     change       -0.1322587E-02 Eh
   gradient norm :     0.0156118 Eh/α   predicted     0.0000000E+00 (-100.00%)
   displ. norm   :     0.2567013 α      lambda       -0.1400989E-02
   maximum displ.:     0.1184165 α      in ANC's #8, #4, #3, ...

........................................................................
.............................. CYCLE   22 ..............................
........................................................................

 iter      E             dE          RMSdq      gap      omega  full diag
   1   -400.4808383 -0.400481E+03  0.327E-02    0.17       0.0  T
   2   -400.4808431 -0.482583E-05  0.193E-02    0.18       1.0  T
   3   -400.4808243  0.188705E-04  0.136E-02    0.17       1.0  T
   4   -400.4808294 -0.511473E-05  0.121E-02    0.18       1.0  T
   5   -400.4808494 -0.200482E-04  0.249E-03    0.18       2.6  T
   6   -400.4808501 -0.633329E-06  0.920E-04    0.18       7.0  T
   7   -400.4808501 -0.442101E-07  0.394E-04    0.18      16.4  T
     SCC iter.                  ...        0 min,  0.491 sec
     gradient                   ...        0 min,  0.325 sec
 * total energy  :  -395.1089748 Eh     change       -0.1072291E-02 Eh
   gradient norm :     0.0066896 Eh/α   predicted    -0.7466792E-03 ( -30.37%)
   displ. norm   :     0.4766904 α      lambda       -0.1427288E-02
   maximum displ.:     0.2101669 α      in ANC's #3, #8, #2, ...

........................................................................
.............................. CYCLE   23 ..............................
........................................................................

 iter      E             dE          RMSdq      gap      omega  full diag
   1   -400.4834982 -0.400483E+03  0.533E-02    0.17       0.0  T
   2   -400.4835031 -0.480813E-05  0.307E-02    0.17       1.0  T
   3   -400.4834662  0.368586E-04  0.233E-02    0.17       1.0  T
   4   -400.4834467  0.194861E-04  0.235E-02    0.17       1.0  T
   5   -400.4835200 -0.733023E-04  0.367E-03    0.17       1.8  T
   6   -400.4835220 -0.202199E-05  0.138E-03    0.17       4.7  T
   7   -400.4835222 -0.147121E-06  0.627E-04    0.17      10.3  T
   8   -400.4835223 -0.748747E-07  0.301E-04    0.17      21.5  T
     SCC iter.                  ...        0 min,  0.553 sec
     gradient                   ...        0 min,  0.325 sec
 * total energy  :  -395.1101207 Eh     change       -0.1145912E-02 Eh
   gradient norm :     0.0073953 Eh/α   predicted    -0.8759468E-03 ( -23.56%)
   displ. norm   :     0.6244273 α      lambda       -0.1400564E-02
   maximum displ.:     0.2857771 α      in ANC's #3, #2, #1, ...

........................................................................
.............................. CYCLE   24 ..............................
........................................................................

 iter      E             dE          RMSdq      gap      omega  full diag
   1   -400.4810419 -0.400481E+03  0.710E-02    0.16       0.0  T
   2   -400.4810342  0.769675E-05  0.419E-02    0.17       1.0  T
   3   -400.4809387  0.955321E-04  0.366E-02    0.16       1.0  T
   4   -400.4809465 -0.776171E-05  0.323E-02    0.16       1.0  T
   5   -400.4810694 -0.122906E-03  0.396E-03    0.17       1.6  T
   6   -400.4810723 -0.293301E-05  0.139E-03    0.16       4.6  T
   7   -400.4810725 -0.190822E-06  0.652E-04    0.16       9.9  T
   8   -400.4810726 -0.711911E-07  0.322E-04    0.16      20.0  T
     SCC iter.                  ...        0 min,  0.555 sec
     gradient                   ...        0 min,  0.324 sec
 * total energy  :  -395.1113683 Eh     change       -0.1247627E-02 Eh
   gradient norm :     0.0115657 Eh/α   predicted    -0.9733714E-03 ( -21.98%)
   displ. norm   :     0.7370375 α      lambda       -0.1602027E-02
   maximum displ.:     0.3460316 α      in ANC's #3, #2, #1, ...

........................................................................
.............................. CYCLE   25 ..............................
........................................................................

 iter      E             dE          RMSdq      gap      omega  full diag
   1   -400.4760461 -0.400476E+03  0.879E-02    0.15       0.0  T
   2   -400.4760141  0.320282E-04  0.532E-02    0.16       1.0  T
   3   -400.4758149  0.199185E-03  0.513E-02    0.15       1.0  T
   4   -400.4759432 -0.128332E-03  0.370E-02    0.16       1.0  T
   5   -400.4760868 -0.143575E-03  0.422E-03    0.16       1.5  T
   6   -400.4760900 -0.320991E-05  0.160E-03    0.16       4.0  T
   7   -400.4760903 -0.302132E-06  0.735E-04    0.16       8.8  T
   8   -400.4760904 -0.699737E-07  0.376E-04    0.16      17.2  T
     SCC iter.                  ...        0 min,  0.558 sec
     gradient                   ...        0 min,  0.324 sec
 * total energy  :  -395.1128004 Eh     change       -0.1432098E-02 Eh
   gradient norm :     0.0121555 Eh/α   predicted    -0.1236144E-02 ( -13.68%)
   displ. norm   :     0.7318047 α      lambda       -0.1602390E-02
   maximum displ.:     0.3702998 α      in ANC's #2, #3, #1, ...

........................................................................
.............................. CYCLE   26 ..............................
........................................................................

 iter      E             dE          RMSdq      gap      omega  full diag
   1   -400.4731917 -0.400473E+03  0.903E-02    0.15       0.0  T
   2   -400.4731401  0.515322E-04  0.556E-02    0.15       1.0  T
   3   -400.4728870  0.253105E-03  0.571E-02    0.15       1.0  T
   4   -400.4731285 -0.241515E-03  0.348E-02    0.15       1.0  T
   5   -400.4732397 -0.111187E-03  0.400E-03    0.15       1.6  T
   6   -400.4732419 -0.215268E-05  0.193E-03    0.15       3.3  T
   7   -400.4732424 -0.517886E-06  0.805E-04    0.15       8.0  T
   8   -400.4732425 -0.696606E-07  0.389E-04    0.15      16.6  T
     SCC iter.                  ...        0 min,  0.556 sec
     gradient                   ...        0 min,  0.323 sec
 * total energy  :  -395.1141949 Eh     change       -0.1394475E-02 Eh
   gradient norm :     0.0106490 Eh/α   predicted    -0.1230268E-02 ( -11.78%)
   displ. norm   :     0.7038991 α      lambda       -0.1545965E-02
   maximum displ.:     0.3922938 α      in ANC's #2, #3, #1, ...

........................................................................
.............................. CYCLE   27 ..............................
........................................................................

 iter      E             dE          RMSdq      gap      omega  full diag
   1   -400.4750271 -0.400475E+03  0.853E-02    0.14       0.0  T
   2   -400.4749744  0.526993E-04  0.527E-02    0.15       1.0  T
   3   -400.4747093  0.265083E-03  0.566E-02    0.14       1.0  T
   4   -400.4749958 -0.286522E-03  0.306E-02    0.15       1.0  T
   5   -400.4750732 -0.773620E-04  0.385E-03    0.15       1.7  T
   6   -400.4750743 -0.107478E-05  0.224E-03    0.15       2.9  T
   7   -400.4750750 -0.718552E-06  0.873E-04    0.15       7.4  T
   8   -400.4750751 -0.784116E-07  0.389E-04    0.15      16.6  T
     SCC iter.                  ...        0 min,  0.604 sec
     gradient                   ...        0 min,  0.334 sec
 * total energy  :  -395.1155413 Eh     change       -0.1346445E-02 Eh
   gradient norm :     0.0095758 Eh/α   predicted    -0.1155994E-02 ( -14.14%)
   displ. norm   :     0.7229089 α      lambda       -0.1463334E-02
   maximum displ.:     0.4262035 α      in ANC's #2, #1, #3, ...

........................................................................
.............................. CYCLE   28 ..............................
........................................................................

 iter      E             dE          RMSdq      gap      omega  full diag
   1   -400.4779754 -0.400478E+03  0.825E-02    0.14       0.0  T
   2   -400.4779414  0.339902E-04  0.497E-02    0.15       1.0  T
   3   -400.4776706  0.270838E-03  0.536E-02    0.14       1.0  T
   4   -400.4779352 -0.264625E-03  0.297E-02    0.14       1.0  T
   5   -400.4780129 -0.777578E-04  0.408E-03    0.14       1.6  T
   6   -400.4780138 -0.855673E-06  0.240E-03    0.14       2.7  T
   7   -400.4780145 -0.730888E-06  0.898E-04    0.14       7.2  T
   8   -400.4780146 -0.623727E-07  0.398E-04    0.14      16.2  T
     SCC iter.                  ...        0 min,  0.564 sec
     gradient                   ...        0 min,  0.324 sec
 * total energy  :  -395.1168279 Eh     change       -0.1286554E-02 Eh
   gradient norm :     0.0090268 Eh/α   predicted    -0.1114034E-02 ( -13.41%)
   displ. norm   :     0.7422939 α      lambda       -0.1367429E-02
   maximum displ.:     0.4623087 α      in ANC's #2, #1, #3, ...

........................................................................
.............................. CYCLE   29 ..............................
........................................................................

 iter      E             dE          RMSdq      gap      omega  full diag
   1   -400.4808007 -0.400481E+03  0.787E-02    0.13       0.0  T
   2   -400.4807860  0.147302E-04  0.464E-02    0.14       1.0  T
   3   -400.4805602  0.225798E-03  0.468E-02    0.13       1.0  T
   4   -400.4807387 -0.178545E-03  0.301E-02    0.14       1.0  T
   5   -400.4808307 -0.920242E-04  0.455E-03    0.14       1.4  T
   6   -400.4808323 -0.153722E-05  0.235E-03    0.14       2.7  T
   7   -400.4808328 -0.567124E-06  0.863E-04    0.14       7.5  T
   8   -400.4808329 -0.363949E-07  0.417E-04    0.14      15.5  T
     SCC iter.                  ...        0 min,  0.543 sec
     gradient                   ...        0 min,  0.325 sec
 * total energy  :  -395.1180549 Eh     change       -0.1227015E-02 Eh
   gradient norm :     0.0085438 Eh/α   predicted    -0.1060441E-02 ( -13.58%)
   displ. norm   :     0.7552456 α      lambda       -0.1279692E-02
   maximum displ.:     0.4902069 α      in ANC's #2, #1, #3, ...

........................................................................
.............................. CYCLE   30 ..............................
........................................................................

 iter      E             dE          RMSdq      gap      omega  full diag
   1   -400.4811838 -0.400481E+03  0.750E-02    0.12       0.0  T
   2   -400.4811740  0.986440E-05  0.443E-02    0.13       1.0  T
   3   -400.4809772  0.196804E-03  0.429E-02    0.12       1.0  T
   4   -400.4811211 -0.143888E-03  0.289E-02    0.13       1.0  T
   5   -400.4812109 -0.898545E-04  0.539E-03    0.13       1.2  T
   6   -400.4812139 -0.300200E-05  0.207E-03    0.13       3.1  T
   7   -400.4812142 -0.300315E-06  0.788E-04    0.13       8.2  T
   8   -400.4812142 -0.223420E-07  0.411E-04    0.13      15.7  T
     SCC iter.                  ...        0 min,  0.553 sec
     gradient                   ...        0 min,  0.325 sec
 * total energy  :  -395.1192246 Eh     change       -0.1169699E-02 Eh
   gradient norm :     0.0073686 Eh/α   predicted    -0.1004814E-02 ( -14.10%)
   displ. norm   :     0.7494117 α      lambda       -0.1257229E-02
   maximum displ.:     0.5173936 α      in ANC's #2, #1, #3, ...

........................................................................
.............................. CYCLE   31 ..............................
........................................................................

 iter      E             dE          RMSdq      gap      omega  full diag
   1   -400.4856353 -0.400486E+03  0.661E-02    0.11       0.0  T
   2   -400.4856281  0.719348E-05  0.395E-02    0.12       1.0  T
   3   -400.4854725  0.155633E-03  0.375E-02    0.11       1.0  T
   4   -400.4856005 -0.128048E-03  0.234E-02    0.12       1.0  T
   5   -400.4856589 -0.583663E-04  0.627E-03    0.12       1.0  T
   6   -400.4856632 -0.432657E-05  0.180E-03    0.12       3.6  T
   7   -400.4856634 -0.147088E-06  0.707E-04    0.12       9.1  T
   8   -400.4856634 -0.142603E-07  0.377E-04    0.12      17.1  T
     SCC iter.                  ...        0 min,  0.551 sec
     gradient                   ...        0 min,  0.324 sec
 * total energy  :  -395.1203335 Eh     change       -0.1108931E-02 Eh
   gradient norm :     0.0069006 Eh/α   predicted    -0.9816626E-03 ( -11.48%)
   displ. norm   :     0.7987854 α      lambda       -0.1220692E-02
   maximum displ.:     0.5418111 α      in ANC's #2, #1, #3, ...

........................................................................
.............................. CYCLE   32 ..............................
........................................................................

 iter      E             dE          RMSdq      gap      omega  full diag
   1   -400.4763000 -0.400476E+03  0.801E-02    0.11       0.0  T
   2   -400.4762589  0.410687E-04  0.492E-02    0.12       1.0  T
   3   -400.4759238  0.335147E-03  0.571E-02    0.10       1.0  T
   4   -400.4762886 -0.364812E-03  0.262E-02    0.11       1.0  T
   5   -400.4763404 -0.518226E-04  0.802E-03    0.12       1.0  T
   6   -400.4763478 -0.741601E-05  0.216E-03    0.11       3.0  T
   7   -400.4763481 -0.235046E-06  0.799E-04    0.11       8.1  T
   8   -400.4763481 -0.285423E-07  0.394E-04    0.11      16.4  T
     SCC iter.                  ...        0 min,  0.553 sec
     gradient                   ...        0 min,  0.323 sec
 * total energy  :  -395.1213245 Eh     change       -0.9909440E-03 Eh
   gradient norm :     0.0081631 Eh/α   predicted    -0.9997831E-03 (   0.89%)
   displ. norm   :     0.6757141 α      lambda       -0.1042865E-02
   maximum displ.:     0.4958906 α      in ANC's #2, #1, #4, ...

........................................................................
.............................. CYCLE   33 ..............................
........................................................................

 iter      E             dE          RMSdq      gap      omega  full diag
   1   -400.4798551 -0.400480E+03  0.522E-02    0.10       0.0  T
   2   -400.4798297  0.253821E-04  0.332E-02    0.11       1.0  T
   3   -400.4796516  0.178131E-03  0.412E-02    0.10       1.0  T
   4   -400.4798622 -0.210668E-03  0.146E-02    0.11       1.0  T
   5   -400.4798762 -0.139656E-04  0.597E-03    0.11       1.1  T
   6   -400.4798804 -0.419435E-05  0.158E-03    0.11       4.1  T
   7   -400.4798805 -0.833308E-07  0.609E-04    0.11      10.6  T
   8   -400.4798805 -0.149437E-07  0.297E-04    0.11      21.7  T
     SCC iter.                  ...        0 min,  0.552 sec
     gradient                   ...        0 min,  0.324 sec
 * total energy  :  -395.1222411 Eh     change       -0.9165935E-03 Eh
   gradient norm :     0.0065312 Eh/α   predicted    -0.7595152E-03 ( -17.14%)
   displ. norm   :     0.7840731 α      lambda       -0.1067133E-02
   maximum displ.:     0.5880753 α      in ANC's #2, #1, #4, ...

........................................................................
.............................. CYCLE   34 ..............................
........................................................................

 iter      E             dE          RMSdq      gap      omega  full diag
   1   -400.4801582 -0.400480E+03  0.646E-02    0.10       0.0  T
   2   -400.4801061  0.520685E-04  0.415E-02    0.11       1.0  T
   3   -400.4798270  0.279084E-03  0.538E-02    0.09       1.0  T
   4   -400.4801827 -0.355621E-03  0.172E-02    0.10       1.0  T
   5   -400.4801960 -0.132988E-04  0.819E-03    0.11       1.0  T
   6   -400.4802037 -0.776064E-05  0.233E-03    0.11       2.8  T
   7   -400.4802040 -0.261422E-06  0.914E-04    0.11       7.1  T
   8   -400.4802040 -0.378731E-07  0.445E-04    0.11      14.5  T
     SCC iter.                  ...        0 min,  0.564 sec
     gradient                   ...        0 min,  0.323 sec
 * total energy  :  -395.1231397 Eh     change       -0.8986882E-03 Eh
   gradient norm :     0.0084987 Eh/α   predicted    -0.8615893E-03 (  -4.13%)
   displ. norm   :     0.7612816 α      lambda       -0.1011555E-02
   maximum displ.:     0.5825440 α      in ANC's #2, #1, #4, ...

........................................................................
.............................. CYCLE   35 ..............................
........................................................................

 iter      E             dE          RMSdq      gap      omega  full diag
   1   -400.4809929 -0.400481E+03  0.577E-02    0.10       0.0  T
   2   -400.4809475  0.453178E-04  0.368E-02    0.11       1.0  T
   3   -400.4806509  0.296688E-03  0.526E-02    0.10       1.0  T
   4   -400.4810142 -0.363345E-03  0.126E-02    0.10       1.0  T
   5   -400.4810186 -0.444769E-05  0.639E-03    0.11       1.0  T
   6   -400.4810238 -0.511078E-05  0.225E-03    0.11       2.9  T
   7   -400.4810240 -0.267123E-06  0.755E-04    0.11       8.6  T
   8   -400.4810241 -0.290884E-07  0.401E-04    0.11      16.1  T
     SCC iter.                  ...        0 min,  0.560 sec
     gradient                   ...        0 min,  0.323 sec
 * total energy  :  -395.1240359 Eh     change       -0.8961699E-03 Eh
   gradient norm :     0.0069565 Eh/α   predicted    -0.7989080E-03 ( -10.85%)
   displ. norm   :     0.8191425 α      lambda       -0.1019577E-02
   maximum displ.:     0.6416072 α      in ANC's #2, #1, #4, ...

........................................................................
.............................. CYCLE   36 ..............................
........................................................................

 iter      E             dE          RMSdq      gap      omega  full diag
   1   -400.4817883 -0.400482E+03  0.598E-02    0.10       0.0  T
   2   -400.4817586  0.297555E-04  0.363E-02    0.11       1.0  T
   3   -400.4814619  0.296651E-03  0.505E-02    0.09       1.0  T
   4   -400.4818065 -0.344593E-03  0.142E-02    0.11       1.0  T
   5   -400.4818132 -0.663950E-05  0.745E-03    0.11       1.0  T
   6   -400.4818197 -0.648503E-05  0.262E-03    0.11       2.5  T
   7   -400.4818201 -0.428491E-06  0.884E-04    0.11       7.3  T
   8   -400.4818201 -0.603848E-07  0.495E-04    0.11      13.0  T
     SCC iter.                  ...        0 min,  0.553 sec
     gradient                   ...        0 min,  0.323 sec
 * total energy  :  -395.1249040 Eh     change       -0.8680913E-03 Eh
   gradient norm :     0.0073387 Eh/α   predicted    -0.8518570E-03 (  -1.87%)
   displ. norm   :     0.8373393 α      lambda       -0.9610010E-03
   maximum displ.:     0.6634839 α      in ANC's #2, #1, #9, ...

........................................................................
.............................. CYCLE   37 ..............................
........................................................................

 iter      E             dE          RMSdq      gap      omega  full diag
   1   -400.4795435 -0.400480E+03  0.634E-02    0.10       0.0  T
   2   -400.4795144  0.290577E-04  0.374E-02    0.11       1.0  T
   3   -400.4791934  0.321013E-03  0.526E-02    0.09       1.0  T
   4   -400.4795651 -0.371688E-03  0.153E-02    0.11       1.0  T
   5   -400.4795709 -0.581804E-05  0.741E-03    0.11       1.0  T
   6   -400.4795772 -0.627777E-05  0.308E-03    0.11       2.1  T
   7   -400.4795779 -0.684575E-06  0.960E-04    0.11       6.7  T
   8   -400.4795780 -0.665868E-07  0.556E-04    0.11      11.6  T
     SCC iter.                  ...        0 min,  0.551 sec
     gradient                   ...        0 min,  0.324 sec
 * total energy  :  -395.1257149 Eh     change       -0.8108536E-03 Eh
   gradient norm :     0.0079975 Eh/α   predicted    -0.8173994E-03 (   0.81%)
   displ. norm   :     0.7778027 α      lambda       -0.9299613E-03
   maximum displ.:     0.6313812 α      in ANC's #2, #1, #4, ...

........................................................................
.............................. CYCLE   38 ..............................
........................................................................

 iter      E             dE          RMSdq      gap      omega  full diag
   1   -400.4836911 -0.400484E+03  0.507E-02    0.11       0.0  T
   2   -400.4836912 -0.608285E-07  0.285E-02    0.11       1.0  T
   3   -400.4836222  0.689735E-04  0.262E-02    0.10       1.0  T
   4   -400.4836938 -0.716249E-04  0.148E-02    0.11       1.0  T
   5   -400.4837093 -0.154795E-04  0.662E-03    0.11       1.0  T
   6   -400.4837135 -0.416088E-05  0.329E-03    0.11       2.0  T
   7   -400.4837146 -0.109022E-05  0.951E-04    0.11       6.8  T
   8   -400.4837147 -0.147209E-06  0.477E-04    0.11      13.5  T
   9   -400.4837147 -0.205971E-07  0.318E-04    0.11      20.3  T
     SCC iter.                  ...        0 min,  0.629 sec
     gradient                   ...        0 min,  0.325 sec
 * total energy  :  -395.1264287 Eh     change       -0.7138263E-03 Eh
   gradient norm :     0.0101760 Eh/α   predicted    -0.7462908E-03 (   4.55%)
   displ. norm   :     0.8115009 α      lambda       -0.8204473E-03
   maximum displ.:     0.6479226 α      in ANC's #2, #1, #9, ...

........................................................................
.............................. CYCLE   39 ..............................
........................................................................

 iter      E             dE          RMSdq      gap      omega  full diag
   1   -400.4816940 -0.400482E+03  0.575E-02    0.11       0.0  T
   2   -400.4816918  0.223609E-05  0.320E-02    0.11       1.0  T
   3   -400.4815812  0.110582E-03  0.324E-02    0.10       1.0  T
   4   -400.4816866 -0.105358E-03  0.187E-02    0.11       1.0  T
   5   -400.4817119 -0.253494E-04  0.755E-03    0.11       1.0  T
   6   -400.4817177 -0.578916E-05  0.304E-03    0.11       2.1  T
   7   -400.4817185 -0.774200E-06  0.847E-04    0.11       7.6  T
   8   -400.4817186 -0.699430E-07  0.516E-04    0.11      12.5  T
     SCC iter.                  ...        0 min,  0.558 sec
     gradient                   ...        0 min,  0.327 sec
 * total energy  :  -395.1271245 Eh     change       -0.6958189E-03 Eh
   gradient norm :     0.0078314 Eh/α   predicted    -0.6803725E-03 (  -2.22%)
   displ. norm   :     0.7963772 α      lambda       -0.7444919E-03
   maximum displ.:     0.6402866 α      in ANC's #2, #1, #6, ...

........................................................................
.............................. CYCLE   40 ..............................
........................................................................

 iter      E             dE          RMSdq      gap      omega  full diag
   1   -400.4831907 -0.400483E+03  0.516E-02    0.11       0.0  T
   2   -400.4831941 -0.338688E-05  0.279E-02    0.11       1.0  T
   3   -400.4831544  0.397462E-04  0.227E-02    0.10       1.0  T
   4   -400.4831903 -0.359623E-04  0.146E-02    0.11       1.0  T
   5   -400.4832088 -0.184263E-04  0.518E-03    0.11       1.2  T
   6   -400.4832099 -0.110033E-05  0.389E-03    0.11       1.7  T
   7   -400.4832116 -0.168157E-05  0.849E-04    0.11       7.6  T
   8   -400.4832117 -0.109513E-06  0.500E-04    0.11      12.9  T
   9   -400.4832117 -0.325015E-07  0.310E-04    0.11      20.9  T
     SCC iter.                  ...        0 min,  0.626 sec
     gradient                   ...        0 min,  0.324 sec
 * total energy  :  -395.1277533 Eh     change       -0.6288390E-03 Eh
   gradient norm :     0.0082218 Eh/α   predicted    -0.6083339E-03 (  -3.26%)
   displ. norm   :     0.8119778 α      lambda       -0.6886786E-03
   maximum displ.:     0.6432630 α      in ANC's #2, #1, #6, ...

........................................................................
.............................. CYCLE   41 ..............................
........................................................................

 iter      E             dE          RMSdq      gap      omega  full diag
   1   -400.4827186 -0.400483E+03  0.518E-02    0.11       0.0  T
   2   -400.4827235 -0.492513E-05  0.275E-02    0.11       1.0  T
   3   -400.4826971  0.264563E-04  0.196E-02    0.10       1.0  T
   4   -400.4827118 -0.147178E-04  0.145E-02    0.11       1.0  T
   5   -400.4827336 -0.218041E-04  0.393E-03    0.11       1.6  T
   6   -400.4827327  0.876154E-06  0.422E-03    0.11       1.5  T
   7   -400.4827349 -0.212896E-05  0.759E-04    0.11       8.5  T
   8   -400.4827349 -0.816862E-07  0.435E-04    0.11      14.8  T
   9   -400.4827350 -0.275131E-07  0.257E-04    0.11      25.1  T
     SCC iter.                  ...        0 min,  0.625 sec
     gradient                   ...        0 min,  0.323 sec
 * total energy  :  -395.1283158 Eh     change       -0.5624778E-03 Eh
   gradient norm :     0.0080076 Eh/α   predicted    -0.5713687E-03 (   1.58%)
   displ. norm   :     0.7874054 α      lambda       -0.6392809E-03
   maximum displ.:     0.6204329 α      in ANC's #2, #1, #6, ...

........................................................................
.............................. CYCLE   42 ..............................
........................................................................

 iter      E             dE          RMSdq      gap      omega  full diag
   1   -400.4832712 -0.400483E+03  0.505E-02    0.10       0.0  T
   2   -400.4832725 -0.136277E-05  0.266E-02    0.11       1.0  T
   3   -400.4832053  0.672487E-04  0.255E-02    0.10       1.0  T
   4   -400.4832453 -0.400476E-04  0.203E-02    0.11       1.0  T
   5   -400.4832865 -0.412065E-04  0.411E-03    0.11       1.6  T
   6   -400.4832876 -0.110064E-05  0.305E-03    0.11       2.1  T
   7   -400.4832885 -0.869786E-06  0.829E-04    0.11       7.8  T
   8   -400.4832886 -0.779087E-07  0.422E-04    0.11      15.3  T
     SCC iter.                  ...        0 min,  0.550 sec
     gradient                   ...        0 min,  0.326 sec
 * total energy  :  -395.1287554 Eh     change       -0.4395646E-03 Eh
   gradient norm :     0.0116232 Eh/α   predicted    -0.5178244E-03 (  17.80%)
   displ. norm   :     0.6870222 α      lambda       -0.6245706E-03
   maximum displ.:     0.5321276 α      in ANC's #2, #1, #6, ...
 * RMSD in coord.:     0.9337905 α      energy gain  -0.2217550E-01 Eh

generating ANC from exact Hessian ...
Using Lindh-Hessian (1995)
 Shifting diagonal of input Hessian by    9.8542185078983168E-003
 Lowest  eigenvalues of input Hessian
    0.000000    0.000000    0.000000    0.000000    0.000000    0.000000
    0.010000    0.010398    0.010413    0.010531    0.010945    0.011206
    0.012490    0.012713    0.013775    0.016839    0.018375    0.020798
 Highest eigenvalues
    3.129621    3.200443    3.211517    3.246259    3.329557    3.334380


........................................................................
.............................. CYCLE   43 ..............................
........................................................................

 iter      E             dE          RMSdq      gap      omega  full diag
   1   -400.4865184 -0.400487E+03  0.418E-02    0.10       0.0  T
   2   -400.4865229 -0.445534E-05  0.237E-02    0.11       1.0  T
   3   -400.4865034  0.194138E-04  0.181E-02    0.10       1.0  T
   4   -400.4865189 -0.154366E-04  0.125E-02    0.11       1.0  T
   5   -400.4865325 -0.135721E-04  0.350E-03    0.10       1.8  T
   6   -400.4865327 -0.297368E-06  0.312E-03    0.10       2.1  T
   7   -400.4865337 -0.989594E-06  0.717E-04    0.10       9.0  T
   8   -400.4865338 -0.471457E-07  0.474E-04    0.10      13.6  T
     SCC iter.                  ...        0 min,  0.543 sec
     gradient                   ...        0 min,  0.325 sec
 * total energy  :  -395.1291350 Eh     change       -0.3795829E-03 Eh
   gradient norm :     0.0095801 Eh/α   predicted     0.0000000E+00 (-100.00%)
   displ. norm   :     0.0781201 α      lambda       -0.2146897E-03
   maximum displ.:     0.0500361 α      in ANC's #1, #7, #8, ...

........................................................................
.............................. CYCLE   44 ..............................
........................................................................

 iter      E             dE          RMSdq      gap      omega  full diag
   1   -400.4864236 -0.400486E+03  0.155E-02    0.10       0.0  T
   2   -400.4864223  0.134062E-05  0.100E-02    0.10       1.0  T
   3   -400.4864136  0.868183E-05  0.106E-02    0.10       1.0  T
   4   -400.4864217 -0.816953E-05  0.624E-03    0.10       1.0  T
   5   -400.4864252 -0.341085E-05  0.168E-03    0.10       3.8  T
   6   -400.4864254 -0.285733E-06  0.368E-04    0.10      17.6  T
   7   -400.4864254 -0.111407E-08  0.291E-04    0.10      22.2  T
     SCC iter.                  ...        0 min,  0.482 sec
     gradient                   ...        0 min,  0.350 sec
 * total energy  :  -395.1292872 Eh     change       -0.1522618E-03 Eh
   gradient norm :     0.0035133 Eh/α   predicted    -0.1080002E-03 ( -29.07%)
   displ. norm   :     0.1242569 α      lambda       -0.1277629E-03
   maximum displ.:     0.0875635 α      in ANC's #1, #7, #8, ...

........................................................................
.............................. CYCLE   45 ..............................
........................................................................

 iter      E             dE          RMSdq      gap      omega  full diag
   1   -400.4864055 -0.400486E+03  0.187E-02    0.10       0.0  T
   2   -400.4864034  0.212014E-05  0.118E-02    0.10       1.0  T
   3   -400.4863932  0.101758E-04  0.120E-02    0.10       1.0  T
   4   -400.4864019 -0.865238E-05  0.782E-03    0.10       1.0  T
   5   -400.4864074 -0.553110E-05  0.202E-03    0.10       3.2  T
   6   -400.4864078 -0.403186E-06  0.382E-04    0.10      16.9  T
   7   -400.4864078 -0.208541E-08  0.302E-04    0.10      21.4  T
     SCC iter.                  ...        0 min,  0.505 sec
     gradient                   ...        0 min,  0.324 sec
 * total energy  :  -395.1293791 Eh     change       -0.9186897E-04 Eh
   gradient norm :     0.0029162 Eh/α   predicted    -0.6490236E-04 ( -29.35%)
   displ. norm   :     0.1410836 α      lambda       -0.8795872E-04
   maximum displ.:     0.1017244 α      in ANC's #1, #7, #8, ...

........................................................................
.............................. CYCLE   46 ..............................
........................................................................

 iter      E             dE          RMSdq      gap      omega  full diag
   1   -400.4864426 -0.400486E+03  0.198E-02    0.10       0.0  T
   2   -400.4864413  0.128535E-05  0.120E-02    0.10       1.0  T
   3   -400.4864335  0.788797E-05  0.110E-02    0.10       1.0  T
   4   -400.4864359 -0.247511E-05  0.912E-03    0.10       1.0  T
   5   -400.4864446 -0.863881E-05  0.174E-03    0.10       3.7  T
   6   -400.4864448 -0.278510E-06  0.398E-04    0.10      16.2  T
   7   -400.4864449 -0.717887E-08  0.262E-04    0.10      24.7  T
     SCC iter.                  ...        0 min,  0.483 sec
     gradient                   ...        0 min,  0.326 sec
 * total energy  :  -395.1294534 Eh     change       -0.7432385E-04 Eh
   gradient norm :     0.0040831 Eh/α   predicted    -0.4485569E-04 ( -39.65%)
   displ. norm   :     0.1825501 α      lambda       -0.1069626E-03
   maximum displ.:     0.1302195 α      in ANC's #1, #7, #8, ...

........................................................................
.............................. CYCLE   47 ..............................
........................................................................

 iter      E             dE          RMSdq      gap      omega  full diag
   1   -400.4865466 -0.400487E+03  0.254E-02    0.09       0.0  T
   2   -400.4865463  0.254587E-06  0.148E-02    0.10       1.0  T
   3   -400.4865385  0.782850E-05  0.120E-02    0.09       1.0  T
   4   -400.4865292  0.926038E-05  0.132E-02    0.10       1.0  T
   5   -400.4865497 -0.204688E-04  0.155E-03    0.10       4.2  T
   6   -400.4865499 -0.197653E-06  0.605E-04    0.10      10.7  T
   7   -400.4865499 -0.208192E-07  0.308E-04    0.10      21.0  T
     SCC iter.                  ...        0 min,  0.487 sec
     gradient                   ...        0 min,  0.324 sec
 * total energy  :  -395.1295462 Eh     change       -0.9280883E-04 Eh
   gradient norm :     0.0036654 Eh/α   predicted    -0.5526395E-04 ( -40.45%)
   displ. norm   :     0.2231360 α      lambda       -0.1198208E-03
   maximum displ.:     0.1613649 α      in ANC's #1, #7, #8, ...

........................................................................
.............................. CYCLE   48 ..............................
........................................................................

 iter      E             dE          RMSdq      gap      omega  full diag
   1   -400.4866895 -0.400487E+03  0.302E-02    0.09       0.0  T
   2   -400.4866909 -0.146187E-05  0.172E-02    0.09       1.0  T
   3   -400.4866858  0.515516E-05  0.119E-02    0.09       1.0  T
   4   -400.4866583  0.274646E-04  0.165E-02    0.09       1.0  T
   5   -400.4866936 -0.352973E-04  0.126E-03    0.09       5.1  T
   6   -400.4866937 -0.863051E-07  0.782E-04    0.09       8.3  T
   7   -400.4866937 -0.396046E-07  0.362E-04    0.09      17.8  T
     SCC iter.                  ...        0 min,  0.476 sec
     gradient                   ...        0 min,  0.323 sec
 * total energy  :  -395.1296491 Eh     change       -0.1028688E-03 Eh
   gradient norm :     0.0029488 Eh/α   predicted    -0.6289375E-04 ( -38.86%)
   displ. norm   :     0.2268203 α      lambda       -0.1094084E-03
   maximum displ.:     0.1681430 α      in ANC's #1, #7, #5, ...

........................................................................
.............................. CYCLE   49 ..............................
........................................................................

 iter      E             dE          RMSdq      gap      omega  full diag
   1   -400.4868881 -0.400487E+03  0.290E-02    0.09       0.0  T
   2   -400.4868902 -0.209817E-05  0.163E-02    0.09       1.0  T
   3   -400.4868892  0.996332E-06  0.979E-03    0.09       1.0  T
   4   -400.4868722  0.169332E-04  0.117E-02    0.09       1.0  T
   5   -400.4868914 -0.191119E-04  0.948E-04    0.09       6.8  T
   6   -400.4868914 -0.645531E-08  0.641E-04    0.09      10.1  T
   7   -400.4868914 -0.293501E-07  0.324E-04    0.09      19.9  T
     SCC iter.                  ...        0 min,  0.479 sec
     gradient                   ...        0 min,  0.323 sec
 * total energy  :  -395.1297451 Eh     change       -0.9595012E-04 Eh
   gradient norm :     0.0027313 Eh/α   predicted    -0.5752403E-04 ( -40.05%)
   displ. norm   :     0.2122307 α      lambda       -0.9653528E-04
   maximum displ.:     0.1612421 α      in ANC's #1, #5, #7, ...

........................................................................
.............................. CYCLE   50 ..............................
........................................................................

 iter      E             dE          RMSdq      gap      omega  full diag
   1   -400.4871779 -0.400487E+03  0.249E-02    0.09       0.0  T
   2   -400.4871793 -0.140136E-05  0.139E-02    0.09       1.0  T
   3   -400.4871795 -0.168997E-06  0.784E-03    0.09       1.0  T
   4   -400.4871794  0.106869E-06  0.167E-03    0.09       3.9  T
   5   -400.4871796 -0.204700E-06  0.154E-03    0.09       4.2  T
   6   -400.4871798 -0.270745E-06  0.549E-04    0.09      11.8  T
   7   -400.4871799 -0.203659E-07  0.343E-04    0.09      18.8  T
     SCC iter.                  ...        0 min,  0.476 sec
     gradient                   ...        0 min,  0.323 sec
 * total energy  :  -395.1298311 Eh     change       -0.8602470E-04 Eh
   gradient norm :     0.0024111 Eh/α   predicted    -0.5044289E-04 ( -41.36%)
   displ. norm   :     0.1900772 α      lambda       -0.8214037E-04
   maximum displ.:     0.1476279 α      in ANC's #1, #5, #2, ...

........................................................................
.............................. CYCLE   51 ..............................
........................................................................

 iter      E             dE          RMSdq      gap      omega  full diag
   1   -400.4874866 -0.400487E+03  0.203E-02    0.09       0.0  T
   2   -400.4874871 -0.478939E-06  0.115E-02    0.09       1.0  T
   3   -400.4874849  0.215508E-05  0.715E-03    0.09       1.0  T
   4   -400.4874842  0.682054E-06  0.517E-03    0.09       1.2  T
   5   -400.4874875 -0.331553E-05  0.109E-03    0.09       5.9  T
   6   -400.4874876 -0.647594E-07  0.909E-04    0.09       7.1  T
   7   -400.4874877 -0.927738E-07  0.210E-04    0.09      30.7  T
     SCC iter.                  ...        0 min,  0.480 sec
     gradient                   ...        0 min,  0.326 sec
 * total energy  :  -395.1299063 Eh     change       -0.7522430E-04 Eh
   gradient norm :     0.0020352 Eh/α   predicted    -0.4255621E-04 ( -43.43%)
   displ. norm   :     0.1727166 α      lambda       -0.7391297E-04
   maximum displ.:     0.1358024 α      in ANC's #1, #5, #2, ...

........................................................................
.............................. CYCLE   52 ..............................
........................................................................

 iter      E             dE          RMSdq      gap      omega  full diag
   1   -400.4877616 -0.400488E+03  0.172E-02    0.09       0.0  T
   2   -400.4877615  0.118670E-06  0.100E-02    0.09       1.0  T
   3   -400.4877533  0.820248E-05  0.890E-03    0.09       1.0  T
   4   -400.4877619 -0.861203E-05  0.281E-03    0.09       2.3  T
   5   -400.4877626 -0.707928E-06  0.752E-04    0.09       8.6  T
   6   -400.4877626  0.140798E-07  0.744E-04    0.09       8.7  T
     SCC iter.                  ...        0 min,  0.432 sec
     gradient                   ...        0 min,  0.327 sec
 * total energy  :  -395.1299754 Eh     change       -0.6905022E-04 Eh
   gradient norm :     0.0017744 Eh/α   predicted    -0.3806153E-04 ( -44.88%)
   displ. norm   :     0.2526491 α      lambda       -0.7253080E-04
   maximum displ.:     0.1984412 α      in ANC's #1, #5, #2, ...

........................................................................
.............................. CYCLE   53 ..............................
........................................................................

 iter      E             dE          RMSdq      gap      omega  full diag
   1   -400.4879723 -0.400488E+03  0.248E-02    0.09       0.0  T
   2   -400.4879700  0.225214E-05  0.152E-02    0.09       1.0  T
   3   -400.4879431  0.268817E-04  0.168E-02    0.09       1.0  T
   4   -400.4879720 -0.289088E-04  0.590E-03    0.09       1.1  T
   5   -400.4879751 -0.307045E-05  0.257E-03    0.09       2.5  T
   6   -400.4879759 -0.772061E-06  0.100E-03    0.09       6.5  T
   7   -400.4879760 -0.919811E-07  0.390E-04    0.09      16.6  T
     SCC iter.                  ...        0 min,  0.492 sec
     gradient                   ...        0 min,  0.323 sec
 * total energy  :  -395.1300754 Eh     change       -0.1000320E-03 Eh
   gradient norm :     0.0017134 Eh/α   predicted    -0.3729687E-04 ( -62.72%)
   displ. norm   :     0.2457274 α      lambda       -0.6722797E-04
   maximum displ.:     0.1921402 α      in ANC's #1, #2, #5, ...

........................................................................
.............................. CYCLE   54 ..............................
........................................................................

 iter      E             dE          RMSdq      gap      omega  full diag
   1   -400.4879619 -0.400488E+03  0.238E-02    0.09       0.0  T
   2   -400.4879573  0.457088E-05  0.153E-02    0.10       1.0  T
   3   -400.4879233  0.340403E-04  0.191E-02    0.09       1.0  T
   4   -400.4879601 -0.367569E-04  0.684E-03    0.10       1.0  T
   5   -400.4879650 -0.490612E-05  0.247E-03    0.09       2.6  T
   6   -400.4879656 -0.681210E-06  0.731E-04    0.09       8.8  T
   7   -400.4879657 -0.335040E-07  0.342E-04    0.09      18.9  T
     SCC iter.                  ...        0 min,  0.480 sec
     gradient                   ...        0 min,  0.322 sec
 * total energy  :  -395.1301701 Eh     change       -0.9472622E-04 Eh
   gradient norm :     0.0015300 Eh/α   predicted    -0.3451843E-04 ( -63.56%)
   displ. norm   :     0.2510821 α      lambda       -0.6605178E-04
   maximum displ.:     0.1942782 α      in ANC's #1, #2, #5, ...

........................................................................
.............................. CYCLE   55 ..............................
........................................................................

 iter      E             dE          RMSdq      gap      omega  full diag
   1   -400.4880648 -0.400488E+03  0.235E-02    0.10       0.0  T
   2   -400.4880621  0.267037E-05  0.146E-02    0.10       1.0  T
   3   -400.4880213  0.408392E-04  0.192E-02    0.09       1.0  T
   4   -400.4880637 -0.424540E-04  0.530E-03    0.10       1.2  T
   5   -400.4880667 -0.300168E-05  0.208E-03    0.10       3.1  T
   6   -400.4880672 -0.456170E-06  0.680E-04    0.10       9.5  T
   7   -400.4880672 -0.444439E-07  0.282E-04    0.10      22.9  T
     SCC iter.                  ...        0 min,  0.477 sec
     gradient                   ...        0 min,  0.323 sec
 * total energy  :  -395.1302628 Eh     change       -0.9267120E-04 Eh
   gradient norm :     0.0014493 Eh/α   predicted    -0.3395282E-04 ( -63.36%)
   displ. norm   :     0.2554821 α      lambda       -0.6296438E-04
   maximum displ.:     0.1951308 α      in ANC's #1, #2, #5, ...

........................................................................
.............................. CYCLE   56 ..............................
........................................................................

 iter      E             dE          RMSdq      gap      omega  full diag
   1   -400.4878465 -0.400488E+03  0.231E-02    0.10       0.0  T
   2   -400.4878465  0.139004E-07  0.134E-02    0.10       1.0  T
   3   -400.4878320  0.145557E-04  0.101E-02    0.09       1.0  T
   4   -400.4878461 -0.141609E-04  0.375E-03    0.10       1.7  T
   5   -400.4878471 -0.102190E-05  0.168E-03    0.10       3.9  T
   6   -400.4878475 -0.318424E-06  0.747E-04    0.10       8.6  T
   7   -400.4878475 -0.498130E-07  0.224E-04    0.10      28.9  T
     SCC iter.                  ...        0 min,  0.480 sec
     gradient                   ...        0 min,  0.322 sec
 * total energy  :  -395.1303506 Eh     change       -0.8780159E-04 Eh
   gradient norm :     0.0015665 Eh/α   predicted    -0.3239811E-04 ( -63.10%)
   displ. norm   :     0.2713043 α      lambda       -0.6447601E-04
   maximum displ.:     0.2056613 α      in ANC's #1, #2, #5, ...

........................................................................
.............................. CYCLE   57 ..............................
........................................................................

 iter      E             dE          RMSdq      gap      omega  full diag
   1   -400.4881420 -0.400488E+03  0.229E-02    0.10       0.0  T
   2   -400.4881414  0.603517E-06  0.135E-02    0.10       1.0  T
   3   -400.4881205  0.208679E-04  0.143E-02    0.10       1.0  T
   4   -400.4881363 -0.158174E-04  0.694E-03    0.09       1.0  T
   5   -400.4881429 -0.657822E-05  0.965E-04    0.10       6.7  T
   6   -400.4881429 -0.391248E-07  0.717E-04    0.10       9.0  T
   7   -400.4881430 -0.495481E-07  0.193E-04    0.10      33.5  T
     SCC iter.                  ...        0 min,  0.479 sec
     gradient                   ...        0 min,  0.322 sec
 * total energy  :  -395.1304429 Eh     change       -0.9232479E-04 Eh
   gradient norm :     0.0016317 Eh/α   predicted    -0.3329714E-04 ( -63.93%)
   displ. norm   :     0.3389481 α      lambda       -0.8046411E-04
   maximum displ.:     0.2529064 α      in ANC's #1, #2, #5, ...

........................................................................
.............................. CYCLE   58 ..............................
........................................................................

 iter      E             dE          RMSdq      gap      omega  full diag
   1   -400.4878865 -0.400488E+03  0.282E-02    0.09       0.0  T
   2   -400.4878812  0.534492E-05  0.179E-02    0.09       1.0  T
   3   -400.4878478  0.333232E-04  0.201E-02    0.10       1.0  T
   4   -400.4878752 -0.273656E-04  0.106E-02    0.09       1.0  T
   5   -400.4878888 -0.136258E-04  0.271E-03    0.09       2.4  T
   6   -400.4878896 -0.765155E-06  0.656E-04    0.09       9.8  T
   7   -400.4878896 -0.189495E-07  0.199E-04    0.09      32.5  T
     SCC iter.                  ...        0 min,  0.480 sec
     gradient                   ...        0 min,  0.324 sec
 * total energy  :  -395.1305596 Eh     change       -0.1167055E-03 Eh
   gradient norm :     0.0017522 Eh/α   predicted    -0.4228863E-04 ( -63.76%)
   displ. norm   :     0.4875189 α      lambda       -0.1166560E-03
   maximum displ.:     0.3610872 α      in ANC's #1, #2, #3, ...

........................................................................
.............................. CYCLE   59 ..............................
........................................................................

 iter      E             dE          RMSdq      gap      omega  full diag
   1   -400.4877426 -0.400488E+03  0.393E-02    0.09       0.0  T
   2   -400.4877242  0.184131E-04  0.263E-02    0.09       1.0  T
   3   -400.4876700  0.542222E-04  0.282E-02    0.10       1.0  T
   4   -400.4877246 -0.546471E-04  0.150E-02    0.09       1.0  T
   5   -400.4877490 -0.243927E-04  0.478E-03    0.09       1.4  T
   6   -400.4877515 -0.245908E-05  0.878E-04    0.09       7.4  T
   7   -400.4877515 -0.244833E-07  0.294E-04    0.09      22.0  T
   8   -400.4877515 -0.438285E-08  0.167E-04    0.09      38.6  T
     SCC iter.                  ...        0 min,  0.554 sec
     gradient                   ...        0 min,  0.322 sec
 * total energy  :  -395.1307295 Eh     change       -0.1698437E-03 Eh
   gradient norm :     0.0015912 Eh/α   predicted    -0.6448957E-04 ( -62.03%)
   displ. norm   :     0.6970440 α      lambda       -0.1676156E-03
   maximum displ.:     0.5173929 α      in ANC's #1, #2, #3, ...

........................................................................
.............................. CYCLE   60 ..............................
........................................................................

 iter      E             dE          RMSdq      gap      omega  full diag
   1   -400.4874243 -0.400487E+03  0.542E-02    0.09       0.0  T
   2   -400.4873868  0.375644E-04  0.365E-02    0.08       1.0  T
   3   -400.4873003  0.864765E-04  0.375E-02    0.09       1.0  T
   4   -400.4873920 -0.917137E-04  0.211E-02    0.08       1.0  T
   5   -400.4874380 -0.460344E-04  0.655E-03    0.09       1.0  T
   6   -400.4874427 -0.469033E-05  0.122E-03    0.09       5.3  T
   7   -400.4874428 -0.391638E-07  0.424E-04    0.09      15.2  T
   8   -400.4874428 -0.138336E-07  0.242E-04    0.09      26.7  T
     SCC iter.                  ...        0 min,  0.558 sec
     gradient                   ...        0 min,  0.324 sec
 * total energy  :  -395.1309696 Eh     change       -0.2401164E-03 Eh
   gradient norm :     0.0018733 Eh/α   predicted    -0.1019061E-03 ( -57.56%)
   displ. norm   :     0.8401829 α      lambda       -0.1989278E-03
   maximum displ.:     0.6304598 α      in ANC's #1, #2, #3, ...

........................................................................
.............................. CYCLE   61 ..............................
........................................................................

 iter      E             dE          RMSdq      gap      omega  full diag
   1   -400.4866708 -0.400487E+03  0.626E-02    0.08       0.0  T
   2   -400.4866352  0.356314E-04  0.405E-02    0.08       1.0  T
   3   -400.4865277  0.107472E-03  0.408E-02    0.09       1.0  T
   4   -400.4866178 -0.900167E-04  0.257E-02    0.08       1.0  T
   5   -400.4866887 -0.709665E-04  0.594E-03    0.08       1.1  T
   6   -400.4866925 -0.374911E-05  0.156E-03    0.08       4.1  T
   7   -400.4866926 -0.885353E-07  0.508E-04    0.08      12.7  T
   8   -400.4866926 -0.253009E-07  0.289E-04    0.08      22.4  T
     SCC iter.                  ...        0 min,  0.555 sec
     gradient                   ...        0 min,  0.323 sec
 * total energy  :  -395.1312426 Eh     change       -0.2730253E-03 Eh
   gradient norm :     0.0027383 Eh/α   predicted    -0.1306723E-03 ( -52.14%)
   displ. norm   :     0.5880612 α      lambda       -0.2050543E-03
   maximum displ.:     0.4489939 α      in ANC's #1, #2, #3, ...

........................................................................
.............................. CYCLE   62 ..............................
........................................................................

 iter      E             dE          RMSdq      gap      omega  full diag
   1   -400.4875942 -0.400488E+03  0.405E-02    0.08       0.0  T
   2   -400.4875874  0.679547E-05  0.247E-02    0.08       1.0  T
   3   -400.4875502  0.372341E-04  0.236E-02    0.08       1.0  T
   4   -400.4875604 -0.102364E-04  0.185E-02    0.08       1.0  T
   5   -400.4876010 -0.405463E-04  0.238E-03    0.08       2.7  T
   6   -400.4876015 -0.486621E-06  0.123E-03    0.08       5.2  T
   7   -400.4876016 -0.879808E-07  0.380E-04    0.08      17.0  T
   8   -400.4876016 -0.229170E-07  0.200E-04    0.08      32.3  T
     SCC iter.                  ...        0 min,  0.550 sec
     gradient                   ...        0 min,  0.326 sec
 * total energy  :  -395.1314335 Eh     change       -0.1909400E-03 Eh
   gradient norm :     0.0026336 Eh/α   predicted    -0.1379856E-03 ( -27.73%)
   displ. norm   :     0.6814862 α      lambda       -0.2319130E-03
   maximum displ.:     0.5257803 α      in ANC's #1, #2, #3, ...

........................................................................
.............................. CYCLE   63 ..............................
........................................................................

 iter      E             dE          RMSdq      gap      omega  full diag
   1   -400.4880256 -0.400488E+03  0.462E-02    0.08       0.0  T
   2   -400.4880256 -0.219542E-07  0.270E-02    0.08       1.0  T
   3   -400.4880035  0.220709E-04  0.210E-02    0.08       1.0  T
   4   -400.4879562  0.473124E-04  0.243E-02    0.07       1.0  T
   5   -400.4880331 -0.769070E-04  0.148E-03    0.08       4.4  T
   6   -400.4880330  0.137269E-06  0.126E-03    0.08       5.1  T
   7   -400.4880334 -0.424018E-06  0.326E-04    0.08      19.8  T
   8   -400.4880334 -0.381164E-08  0.186E-04    0.08      34.7  T
     SCC iter.                  ...        0 min,  0.556 sec
     gradient                   ...        0 min,  0.321 sec
 * total energy  :  -395.1316639 Eh     change       -0.2303131E-03 Eh
   gradient norm :     0.0028563 Eh/α   predicted    -0.1698137E-03 ( -26.27%)
   displ. norm   :     0.8123722 α      lambda       -0.3012801E-03
   maximum displ.:     0.6337671 α      in ANC's #1, #2, #3, ...

........................................................................
.............................. CYCLE   64 ..............................
........................................................................

 iter      E             dE          RMSdq      gap      omega  full diag
   1   -400.4880032 -0.400488E+03  0.543E-02    0.07       0.0  T
   2   -400.4880077 -0.441401E-05  0.312E-02    0.07       1.0  T
   3   -400.4879995  0.819172E-05  0.199E-02    0.07       1.0  T
   4   -400.4879416  0.579140E-04  0.230E-02    0.07       1.0  T
   5   -400.4880127 -0.711541E-04  0.251E-03    0.07       2.6  T
   6   -400.4880131 -0.443355E-06  0.186E-03    0.07       3.5  T
   7   -400.4880135 -0.359156E-06  0.697E-04    0.07       9.3  T
   8   -400.4880136 -0.710091E-07  0.257E-04    0.07      25.2  T
     SCC iter.                  ...        0 min,  0.623 sec
     gradient                   ...        0 min,  0.325 sec
 * total energy  :  -395.1319317 Eh     change       -0.2678560E-03 Eh
   gradient norm :     0.0036162 Eh/α   predicted    -0.2500567E-03 (  -6.65%)
   displ. norm   :     0.7686873 α      lambda       -0.2588394E-03
   maximum displ.:     0.6132534 α      in ANC's #1, #2, #3, ...

........................................................................
.............................. CYCLE   65 ..............................
........................................................................

 iter      E             dE          RMSdq      gap      omega  full diag
   1   -400.4892732 -0.400489E+03  0.500E-02    0.07       0.0  T
   2   -400.4892765 -0.329185E-05  0.290E-02    0.07       1.0  T
   3   -400.4892696  0.686922E-05  0.185E-02    0.07       1.0  T
   4   -400.4892480  0.216133E-04  0.170E-02    0.08       1.0  T
   5   -400.4892817 -0.336484E-04  0.346E-03    0.07       1.9  T
   6   -400.4892828 -0.119178E-05  0.188E-03    0.07       3.4  T
   7   -400.4892831 -0.240761E-06  0.731E-04    0.07       8.8  T
   8   -400.4892832 -0.115125E-06  0.247E-04    0.07      26.2  T
     SCC iter.                  ...        0 min,  0.559 sec
     gradient                   ...        0 min,  0.324 sec
 * total energy  :  -395.1321701 Eh     change       -0.2383550E-03 Eh
   gradient norm :     0.0036844 Eh/α   predicted    -0.2058990E-03 ( -13.62%)
   displ. norm   :     0.8654415 α      lambda       -0.2786464E-03
   maximum displ.:     0.6935102 α      in ANC's #1, #2, #3, ...

........................................................................
.............................. CYCLE   66 ..............................
........................................................................

 iter      E             dE          RMSdq      gap      omega  full diag
   1   -400.4881051 -0.400488E+03  0.593E-02    0.07       0.0  T
   2   -400.4881065 -0.131802E-05  0.348E-02    0.07       1.0  T
   3   -400.4880819  0.245594E-04  0.250E-02    0.06       1.0  T
   4   -400.4880463  0.356018E-04  0.248E-02    0.07       1.0  T
   5   -400.4881152 -0.689147E-04  0.558E-03    0.07       1.2  T
   6   -400.4881191 -0.385676E-05  0.199E-03    0.07       3.2  T
   7   -400.4881192 -0.150507E-06  0.891E-04    0.07       7.2  T
   8   -400.4881194 -0.162337E-06  0.339E-04    0.07      19.1  T
     SCC iter.                  ...        0 min,  0.552 sec
     gradient                   ...        0 min,  0.324 sec
 * total energy  :  -395.1324285 Eh     change       -0.2584378E-03 Eh
   gradient norm :     0.0044172 Eh/α   predicted    -0.2436804E-03 (  -5.71%)
   displ. norm   :     0.7782591 α      lambda       -0.3287226E-03
   maximum displ.:     0.6462753 α      in ANC's #1, #2, #3, ...
 * RMSD in coord.:     0.5932638 α      energy gain  -0.3673113E-02 Eh

generating ANC from exact Hessian ...
Using Lindh-Hessian (1995)
 Shifting diagonal of input Hessian by    9.8197102011605992E-003
 Lowest  eigenvalues of input Hessian
    0.000000    0.000000    0.000000    0.000000    0.000000    0.000000
    0.010000    0.010154    0.010301    0.010321    0.010706    0.010978
    0.012345    0.012868    0.013624    0.016325    0.019608    0.021847
 Highest eigenvalues
    3.129706    3.199139    3.211455    3.246205    3.329601    3.335030


........................................................................
.............................. CYCLE   67 ..............................
........................................................................

 iter      E             dE          RMSdq      gap      omega  full diag
   1   -400.4937302 -0.400494E+03  0.545E-02    0.06       0.0  T
   2   -400.4936883  0.419002E-04  0.377E-02    0.07       1.0  T
   3   -400.4935604  0.127888E-03  0.415E-02    0.05       1.0  T
   4   -400.4937105 -0.150062E-03  0.212E-02    0.07       1.0  T
   5   -400.4937487 -0.381716E-04  0.748E-03    0.07       1.0  T
   6   -400.4937554 -0.676126E-05  0.187E-03    0.06       3.4  T
   7   -400.4937554  0.374381E-07  0.105E-03    0.06       6.1  T
   8   -400.4937556 -0.248969E-06  0.409E-04    0.06      15.8  T
   9   -400.4937557 -0.389982E-07  0.157E-04    0.06      41.2  T
     SCC iter.                  ...        0 min,  0.621 sec
     gradient                   ...        0 min,  0.322 sec
 * total energy  :  -395.1326872 Eh     change       -0.2586849E-03 Eh
   gradient norm :     0.0049703 Eh/α   predicted     0.0000000E+00 (-100.00%)
   displ. norm   :     0.0636575 α      lambda       -0.9993425E-04
   maximum displ.:     0.0336985 α      in ANC's #5, #10, #6, ...

........................................................................
.............................. CYCLE   68 ..............................
........................................................................

 iter      E             dE          RMSdq      gap      omega  full diag
   1   -400.4916458 -0.400492E+03  0.116E-02    0.06       0.0  T
   2   -400.4916449  0.935414E-06  0.761E-03    0.06       1.0  T
   3   -400.4916414  0.352524E-05  0.763E-03    0.06       1.0  T
   4   -400.4916453 -0.396855E-05  0.373E-03    0.06       1.7  T
   5   -400.4916462 -0.890853E-06  0.212E-03    0.06       3.0  T
   6   -400.4916468 -0.574813E-06  0.357E-04    0.06      18.1  T
   7   -400.4916468 -0.150715E-08  0.161E-04    0.06      40.1  T
     SCC iter.                  ...        0 min,  0.482 sec
     gradient                   ...        0 min,  0.325 sec
 * total energy  :  -395.1327657 Eh     change       -0.7847826E-04 Eh
   gradient norm :     0.0019160 Eh/α   predicted    -0.5104858E-04 ( -34.95%)
   displ. norm   :     0.2451930 α      lambda       -0.1342512E-03
   maximum displ.:     0.1361131 α      in ANC's #5, #6, #10, ...

........................................................................
.............................. CYCLE   69 ..............................
........................................................................

 iter      E             dE          RMSdq      gap      omega  full diag
   1   -400.4880567 -0.400488E+03  0.410E-02    0.06       0.0  T
   2   -400.4880520  0.465899E-05  0.252E-02    0.06       1.0  T
   3   -400.4880290  0.230189E-04  0.219E-02    0.06       1.0  T
   4   -400.4880461 -0.170594E-04  0.138E-02    0.06       1.0  T
   5   -400.4880620 -0.158896E-04  0.522E-03    0.06       1.2  T
   6   -400.4880654 -0.342338E-05  0.158E-03    0.06       4.1  T
   7   -400.4880655 -0.149486E-06  0.517E-04    0.06      12.5  T
   8   -400.4880656 -0.240735E-07  0.311E-04    0.06      20.7  T
     SCC iter.                  ...        0 min,  0.559 sec
     gradient                   ...        0 min,  0.325 sec
 * total energy  :  -395.1328951 Eh     change       -0.1294090E-03 Eh
   gradient norm :     0.0050022 Eh/α   predicted    -0.6892344E-04 ( -46.74%)
   displ. norm   :     0.1842712 α      lambda       -0.1133346E-03
   maximum displ.:     0.1010149 α      in ANC's #5, #6, #10, ...

........................................................................
.............................. CYCLE   70 ..............................
........................................................................

 iter      E             dE          RMSdq      gap      omega  full diag
   1   -400.4879632 -0.400488E+03  0.304E-02    0.06       0.0  T
   2   -400.4879637 -0.448744E-06  0.176E-02    0.06       1.0  T
   3   -400.4879595  0.420314E-05  0.122E-02    0.06       1.0  T
   4   -400.4879508  0.866265E-05  0.118E-02    0.06       1.0  T
   5   -400.4879655 -0.147439E-04  0.260E-03    0.06       2.5  T
   6   -400.4879662 -0.668455E-06  0.136E-03    0.06       4.8  T
   7   -400.4879664 -0.173862E-06  0.416E-04    0.06      15.5  T
   8   -400.4879664 -0.158630E-07  0.224E-04    0.06      28.8  T
     SCC iter.                  ...        0 min,  0.560 sec
     gradient                   ...        0 min,  0.323 sec
 * total energy  :  -395.1330008 Eh     change       -0.1056825E-03 Eh
   gradient norm :     0.0052479 Eh/α   predicted    -0.5860843E-04 ( -44.54%)
   displ. norm   :     0.4491220 α      lambda       -0.2891731E-03
   maximum displ.:     0.2405055 α      in ANC's #5, #6, #1, ...

........................................................................
.............................. CYCLE   71 ..............................
........................................................................

 iter      E             dE          RMSdq      gap      omega  full diag
   1   -400.4884676 -0.400488E+03  0.754E-02    0.06       0.0  T
   2   -400.4884756 -0.799205E-05  0.430E-02    0.06       1.0  T
   3   -400.4884666  0.892995E-05  0.264E-02    0.06       1.0  T
   4   -400.4883740  0.926513E-04  0.289E-02    0.07       1.0  T
   5   -400.4884826 -0.108587E-03  0.413E-03    0.06       1.6  T
   6   -400.4884833 -0.769164E-06  0.317E-03    0.06       2.0  T
   7   -400.4884844 -0.111192E-05  0.101E-03    0.06       6.4  T
   8   -400.4884845 -0.538206E-07  0.519E-04    0.06      12.4  T
   9   -400.4884846 -0.686898E-07  0.193E-04    0.06      33.4  T
     SCC iter.                  ...        0 min,  0.624 sec
     gradient                   ...        0 min,  0.323 sec
 * total energy  :  -395.1332501 Eh     change       -0.2493022E-03 Eh
   gradient norm :     0.0043738 Eh/α   predicted    -0.1737616E-03 ( -30.30%)
   displ. norm   :     0.6022624 α      lambda       -0.3319914E-03
   maximum displ.:     0.3276457 α      in ANC's #5, #6, #1, ...

........................................................................
.............................. CYCLE   72 ..............................
........................................................................

 iter      E             dE          RMSdq      gap      omega  full diag
   1   -400.4881264 -0.400488E+03  0.103E-01    0.05       0.0  T
   2   -400.4881449 -0.185452E-04  0.588E-02    0.05       1.0  T
   3   -400.4881464 -0.148796E-05  0.339E-02    0.06       1.0  T
   4   -400.4880813  0.651317E-04  0.245E-02    0.05       1.0  T
   5   -400.4881549 -0.735977E-04  0.548E-03    0.06       1.2  T
   6   -400.4881549  0.788560E-08  0.501E-03    0.06       1.3  T
   7   -400.4881579 -0.307928E-05  0.131E-03    0.06       4.9  T
   8   -400.4881581 -0.160073E-06  0.673E-04    0.06       9.6  T
   9   -400.4881582 -0.108617E-06  0.245E-04    0.06      26.4  T
     SCC iter.                  ...        0 min,  0.671 sec
     gradient                   ...        0 min,  0.324 sec
 * total energy  :  -395.1335088 Eh     change       -0.2587419E-03 Eh
   gradient norm :     0.0070975 Eh/α   predicted    -0.2262168E-03 ( -12.57%)
   displ. norm   :     0.4743807 α      lambda       -0.2857728E-03
   maximum displ.:     0.2726321 α      in ANC's #5, #6, #1, ...

........................................................................
.............................. CYCLE   73 ..............................
........................................................................

 iter      E             dE          RMSdq      gap      omega  full diag
   1   -400.4898402 -0.400490E+03  0.808E-02    0.06       0.0  T
   2   -400.4898469 -0.663190E-05  0.474E-02    0.05       1.0  T
   3   -400.4898349  0.119578E-04  0.295E-02    0.06       1.0  T
   4   -400.4896610  0.173908E-03  0.400E-02    0.04       1.0  T
   5   -400.4898590 -0.198022E-03  0.685E-03    0.05       1.0  T
   6   -400.4898636 -0.463351E-05  0.321E-03    0.05       2.0  T
   7   -400.4898644 -0.798627E-06  0.947E-04    0.05       6.8  T
   8   -400.4898646 -0.122592E-06  0.488E-04    0.05      13.2  T
     SCC iter.                  ...        0 min,  0.558 sec
     gradient                   ...        0 min,  0.325 sec
 * total energy  :  -395.1337388 Eh     change       -0.2300328E-03 Eh
   gradient norm :     0.0091120 Eh/α   predicted    -0.1750487E-03 ( -23.90%)
   displ. norm   :     0.4138534 α      lambda       -0.4431040E-03
   maximum displ.:     0.2571247 α      in ANC's #5, #1, #6, ...

........................................................................
.............................. CYCLE   74 ..............................
........................................................................

 iter      E             dE          RMSdq      gap      omega  full diag
   1   -400.4967933 -0.400497E+03  0.670E-02    0.06       0.0  T
   2   -400.4967995 -0.615778E-05  0.396E-02    0.05       1.0  T
   3   -400.4967982  0.132958E-05  0.231E-02    0.06       1.0  T
   4   -400.4967134  0.847572E-04  0.290E-02    0.05       1.0  T
   5   -400.4968094 -0.959477E-04  0.637E-03    0.06       1.0  T
   6   -400.4968136 -0.423459E-05  0.261E-03    0.05       2.5  T
   7   -400.4968141 -0.535072E-06  0.854E-04    0.06       7.6  T
   8   -400.4968142 -0.926042E-07  0.417E-04    0.05      15.5  T
     SCC iter.                  ...        0 min,  0.555 sec
     gradient                   ...        0 min,  0.325 sec
 * total energy  :  -395.1340467 Eh     change       -0.3078590E-03 Eh
   gradient norm :     0.0085056 Eh/α   predicted    -0.2595049E-03 ( -15.71%)
   displ. norm   :     0.6809464 α      lambda       -0.4293878E-03
   maximum displ.:     0.4086050 α      in ANC's #5, #6, #1, ...

........................................................................
.............................. CYCLE   75 ..............................
........................................................................

 iter      E             dE          RMSdq      gap      omega  full diag
   1   -400.4921063 -0.400492E+03  0.113E-01    0.06       0.0  T
   2   -400.4920251  0.811937E-04  0.716E-02    0.05       1.0  T
   3   -400.4918456  0.179494E-03  0.591E-02    0.07       1.0  T
   4   -400.4918221  0.234359E-04  0.543E-02    0.04       1.0  T
   5   -400.4921622 -0.340024E-03  0.104E-02    0.06       1.0  T
   6   -400.4921734 -0.111888E-04  0.421E-03    0.06       1.5  T
   7   -400.4921744 -0.108113E-05  0.111E-03    0.06       5.8  T
   8   -400.4921745 -0.231481E-07  0.908E-04    0.06       7.1  T
   9   -400.4921746 -0.179309E-06  0.317E-04    0.06      20.3  T
     SCC iter.                  ...        0 min,  0.625 sec
     gradient                   ...        0 min,  0.323 sec
 * total energy  :  -395.1344099 Eh     change       -0.3631919E-03 Eh
   gradient norm :     0.0095306 Eh/α   predicted    -0.3142448E-03 ( -13.48%)
   displ. norm   :     0.6105640 α      lambda       -0.5238337E-03
   maximum displ.:     0.3664552 α      in ANC's #5, #1, #6, ...

........................................................................
.............................. CYCLE   76 ..............................
........................................................................

 iter      E             dE          RMSdq      gap      omega  full diag
   1   -400.4879514 -0.400488E+03  0.922E-02    0.06       0.0  T
   2   -400.4878856  0.658173E-04  0.583E-02    0.05       1.0  T
   3   -400.4877318  0.153819E-03  0.511E-02    0.07       1.0  T
   4   -400.4878034 -0.716666E-04  0.410E-02    0.05       1.0  T
   5   -400.4879935 -0.190041E-03  0.452E-03    0.06       1.4  T
   6   -400.4879934  0.996739E-07  0.435E-03    0.06       1.5  T
   7   -400.4879954 -0.199595E-05  0.903E-04    0.06       7.1  T
   8   -400.4879953  0.508935E-07  0.693E-04    0.06       9.3  T
   9   -400.4879954 -0.991654E-07  0.243E-04    0.06      26.5  T
     SCC iter.                  ...        0 min,  0.615 sec
     gradient                   ...        0 min,  0.322 sec
 * total energy  :  -395.1348002 Eh     change       -0.3902810E-03 Eh
   gradient norm :     0.0085351 Eh/α   predicted    -0.3595602E-03 (  -7.87%)
   displ. norm   :     0.4470407 α      lambda       -0.3903381E-03
   maximum displ.:     0.2314228 α      in ANC's #5, #1, #6, ...

........................................................................
.............................. CYCLE   77 ..............................
........................................................................

 iter      E             dE          RMSdq      gap      omega  full diag
   1   -400.4884065 -0.400488E+03  0.594E-02    0.07       0.0  T
   2   -400.4883528  0.537219E-04  0.391E-02    0.06       1.0  T
   3   -400.4882507  0.102139E-03  0.398E-02    0.07       1.0  T
   4   -400.4883915 -0.140835E-03  0.212E-02    0.06       1.0  T
   5   -400.4884308 -0.392676E-04  0.273E-03    0.06       2.4  T
   6   -400.4884303  0.517782E-06  0.292E-03    0.06       2.2  T
   7   -400.4884313 -0.102491E-05  0.809E-04    0.06       8.0  T
   8   -400.4884313  0.143393E-07  0.477E-04    0.06      13.5  T
   9   -400.4884313 -0.520230E-07  0.211E-04    0.06      30.6  T
     SCC iter.                  ...        0 min,  0.613 sec
     gradient                   ...        0 min,  0.322 sec
 * total energy  :  -395.1351087 Eh     change       -0.3085702E-03 Eh
   gradient norm :     0.0082681 Eh/α   predicted    -0.2341742E-03 ( -24.11%)
   displ. norm   :     0.6235429 α      lambda       -0.4790602E-03
   maximum displ.:     0.2989897 α      in ANC's #1, #5, #6, ...

........................................................................
.............................. CYCLE   78 ..............................
........................................................................

 iter      E             dE          RMSdq      gap      omega  full diag
   1   -400.4876559 -0.400488E+03  0.858E-02    0.07       0.0  T
   2   -400.4876011  0.547791E-04  0.535E-02    0.06       1.0  T
   3   -400.4874267  0.174402E-03  0.505E-02    0.08       1.0  T
   4   -400.4875390 -0.112298E-03  0.373E-02    0.06       1.0  T
   5   -400.4876944 -0.155465E-03  0.470E-03    0.07       1.4  T
   6   -400.4876945 -0.775150E-07  0.438E-03    0.07       1.5  T
   7   -400.4876966 -0.206882E-05  0.108E-03    0.07       6.0  T
   8   -400.4876966  0.519464E-08  0.749E-04    0.07       8.6  T
   9   -400.4876967 -0.126482E-06  0.319E-04    0.07      20.3  T
     SCC iter.                  ...        0 min,  0.624 sec
     gradient                   ...        0 min,  0.325 sec
 * total energy  :  -395.1354970 Eh     change       -0.3882232E-03 Eh
   gradient norm :     0.0086378 Eh/α   predicted    -0.3326608E-03 ( -14.31%)
   displ. norm   :     0.5279542 α      lambda       -0.8586772E-03
   maximum displ.:     0.2396760 α      in ANC's #1, #9, #6, ...

........................................................................
.............................. CYCLE   79 ..............................
........................................................................

 iter      E             dE          RMSdq      gap      omega  full diag
   1   -400.5070297 -0.400507E+03  0.631E-02    0.05       0.0  T
   2   -400.5068665  0.163196E-03  0.580E-02    0.08       1.0  T
   3   -400.5069709 -0.104403E-03  0.401E-02    0.05       1.0  T
   4   -400.5070289 -0.579856E-04  0.262E-02    0.07       1.0  T
   5   -400.5071036 -0.746937E-04  0.108E-02    0.06       1.0  T
   6   -400.5071140 -0.104119E-04  0.259E-03    0.06       2.5  T
   7   -400.5071144 -0.351904E-06  0.127E-03    0.06       5.1  T
   8   -400.5071145 -0.129910E-06  0.821E-04    0.06       7.9  T
   9   -400.5071146 -0.103538E-06  0.458E-04    0.06      14.1  T
     SCC iter.                  ...        0 min,  0.616 sec
     gradient                   ...        0 min,  0.323 sec
 * total energy  :  -395.1354243 Eh     change        0.7261289E-04 Eh
   gradient norm :     0.0187816 Eh/α   predicted    -0.5490135E-03 (-856.08%)
   displ. norm   :     0.3979765 α      lambda       -0.1149919E-02
   maximum displ.:     0.2103367 α      in ANC's #5, #6, #1, ...

........................................................................
.............................. CYCLE   80 ..............................
........................................................................

 iter      E             dE          RMSdq      gap      omega  full diag
   1   -400.4955417 -0.400496E+03  0.716E-02    0.08       0.0  T
   2   -400.4952913  0.250370E-03  0.663E-02    0.05       1.0  T
   3   -400.4954509 -0.159577E-03  0.453E-02    0.08       1.0  T
   4   -400.4955929 -0.141938E-03  0.274E-02    0.06       1.0  T
   5   -400.4956457 -0.528784E-04  0.130E-02    0.07       1.0  T
   6   -400.4956636 -0.179043E-04  0.302E-03    0.07       2.1  T
   7   -400.4956641 -0.471214E-06  0.102E-03    0.07       6.3  T
   8   -400.4956642 -0.107706E-06  0.624E-04    0.07      10.3  T
   9   -400.4956643 -0.699698E-07  0.319E-04    0.07      20.2  T
     SCC iter.                  ...        0 min,  0.619 sec
     gradient                   ...        0 min,  0.321 sec
 * total energy  :  -395.1360522 Eh     change       -0.6278385E-03 Eh
   gradient norm :     0.0097664 Eh/α   predicted    -0.6660271E-03 (   6.08%)
   displ. norm   :     0.4062560 α      lambda       -0.4663709E-03
   maximum displ.:     0.2167128 α      in ANC's #6, #1, #5, ...

........................................................................
.............................. CYCLE   81 ..............................
........................................................................

 iter      E             dE          RMSdq      gap      omega  full diag
   1   -400.4886795 -0.400489E+03  0.573E-02    0.07       0.0  T
   2   -400.4886865 -0.705136E-05  0.329E-02    0.07       1.0  T
   3   -400.4886879 -0.141583E-05  0.191E-02    0.07       1.0  T
   4   -400.4886809  0.703976E-05  0.817E-03    0.07       1.0  T
   5   -400.4886893 -0.840767E-05  0.224E-03    0.07       2.9  T
   6   -400.4886892  0.110945E-06  0.200E-03    0.07       3.2  T
   7   -400.4886898 -0.601760E-06  0.725E-04    0.07       8.9  T
   8   -400.4886898 -0.169527E-07  0.296E-04    0.07      21.8  T
     SCC iter.                  ...        0 min,  0.600 sec
     gradient                   ...        0 min,  0.332 sec
 * total energy  :  -395.1362227 Eh     change       -0.1705080E-03 Eh
   gradient norm :     0.0110863 Eh/α   predicted    -0.2716769E-03 (  59.33%)
   displ. norm   :     0.3243106 α      lambda       -0.3355827E-03
   maximum displ.:     0.1682370 α      in ANC's #6, #1, #4, ...

........................................................................
.............................. CYCLE   82 ..............................
........................................................................

 iter      E             dE          RMSdq      gap      omega  full diag
   1   -400.4904843 -0.400490E+03  0.356E-02    0.07       0.0  T
   2   -400.4904866 -0.228437E-05  0.203E-02    0.07       1.0  T
   3   -400.4904837  0.289779E-05  0.124E-02    0.07       1.0  T
   4   -400.4904724  0.113028E-04  0.109E-02    0.07       1.0  T
   5   -400.4904878 -0.153878E-04  0.241E-03    0.07       2.7  T
   6   -400.4904881 -0.306300E-06  0.168E-03    0.07       3.8  T
   7   -400.4904883 -0.263338E-06  0.627E-04    0.07      10.3  T
   8   -400.4904883 -0.138292E-07  0.355E-04    0.07      18.2  T
     SCC iter.                  ...        0 min,  0.563 sec
     gradient                   ...        0 min,  0.324 sec
 * total energy  :  -395.1364701 Eh     change       -0.2474332E-03 Eh
   gradient norm :     0.0077353 Eh/α   predicted    -0.1854422E-03 ( -25.05%)
   displ. norm   :     0.2730632 α      lambda       -0.5106311E-03
   maximum displ.:     0.1242517 α      in ANC's #7, #6, #4, ...

........................................................................
.............................. CYCLE   83 ..............................
........................................................................

 iter      E             dE          RMSdq      gap      omega  full diag
   1   -400.5011978 -0.400501E+03  0.365E-02    0.06       0.0  T
   2   -400.5011247  0.730975E-04  0.337E-02    0.08       1.0  T
   3   -400.5011532 -0.285750E-04  0.265E-02    0.06       1.0  T
   4   -400.5012106 -0.574020E-04  0.108E-02    0.07       1.0  T
   5   -400.5012204 -0.979621E-05  0.496E-03    0.07       1.3  T
   6   -400.5012229 -0.252109E-05  0.911E-04    0.07       7.1  T
   7   -400.5012230 -0.562835E-08  0.495E-04    0.07      13.0  T
   8   -400.5012230 -0.453342E-07  0.256E-04    0.07      25.2  T
     SCC iter.                  ...        0 min,  0.549 sec
     gradient                   ...        0 min,  0.324 sec
 * total energy  :  -395.1366581 Eh     change       -0.1879872E-03 Eh
   gradient norm :     0.0083128 Eh/α   predicted    -0.2743543E-03 (  45.94%)
   displ. norm   :     0.5147418 α      lambda       -0.3757494E-03
   maximum displ.:     0.2962971 α      in ANC's #6, #1, #4, ...

........................................................................
.............................. CYCLE   84 ..............................
........................................................................

 iter      E             dE          RMSdq      gap      omega  full diag
   1   -400.4962841 -0.400496E+03  0.647E-02    0.07       0.0  T
   2   -400.4962911 -0.703301E-05  0.374E-02    0.07       1.0  T
   3   -400.4962848  0.625620E-05  0.228E-02    0.07       1.0  T
   4   -400.4962086  0.761881E-04  0.246E-02    0.06       1.0  T
   5   -400.4962961 -0.874468E-04  0.243E-03    0.07       2.7  T
   6   -400.4962961 -0.315635E-07  0.141E-03    0.07       4.6  T
   7   -400.4962965 -0.416591E-06  0.631E-04    0.07      10.2  T
   8   -400.4962966 -0.639273E-07  0.316E-04    0.07      20.4  T
     SCC iter.                  ...        0 min,  0.552 sec
     gradient                   ...        0 min,  0.326 sec
 * total energy  :  -395.1369248 Eh     change       -0.2666520E-03 Eh
   gradient norm :     0.0064886 Eh/α   predicted    -0.2376608E-03 ( -10.87%)
   displ. norm   :     0.4321635 α      lambda       -0.2277240E-03
   maximum displ.:     0.2606414 α      in ANC's #6, #4, #1, ...

........................................................................
.............................. CYCLE   85 ..............................
........................................................................

 iter      E             dE          RMSdq      gap      omega  full diag
   1   -400.4932241 -0.400493E+03  0.497E-02    0.07       0.0  T
   2   -400.4932134  0.107600E-04  0.311E-02    0.07       1.0  T
   3   -400.4931506  0.627759E-04  0.290E-02    0.08       1.0  T
   4   -400.4931668 -0.162506E-04  0.241E-02    0.06       1.0  T
   5   -400.4932366 -0.697860E-04  0.152E-03    0.07       4.2  T
   6   -400.4932366  0.108067E-07  0.121E-03    0.07       5.3  T
   7   -400.4932369 -0.255148E-06  0.498E-04    0.07      13.0  T
   8   -400.4932369 -0.115415E-07  0.372E-04    0.07      17.3  T
     SCC iter.                  ...        0 min,  0.551 sec
     gradient                   ...        0 min,  0.324 sec
 * total energy  :  -395.1370766 Eh     change       -0.1518431E-03 Eh
   gradient norm :     0.0066363 Eh/α   predicted    -0.1351293E-03 ( -11.01%)
   displ. norm   :     0.3472646 α      lambda       -0.2757696E-03
   maximum displ.:     0.2055529 α      in ANC's #6, #4, #9, ...

........................................................................
.............................. CYCLE   86 ..............................
........................................................................

 iter      E             dE          RMSdq      gap      omega  full diag
   1   -400.4942960 -0.400494E+03  0.411E-02    0.07       0.0  T
   2   -400.4942976 -0.164359E-05  0.241E-02    0.07       1.0  T
   3   -400.4942900  0.765728E-05  0.159E-02    0.07       1.0  T
   4   -400.4942817  0.823025E-05  0.124E-02    0.07       1.0  T
   5   -400.4942996 -0.178566E-04  0.264E-03    0.07       2.4  T
   6   -400.4943002 -0.578083E-06  0.159E-03    0.07       4.1  T
   7   -400.4943004 -0.225768E-06  0.391E-04    0.07      16.5  T
   8   -400.4943004 -0.158164E-07  0.228E-04    0.07      28.4  T
     SCC iter.                  ...        0 min,  0.559 sec
     gradient                   ...        0 min,  0.324 sec
 * total energy  :  -395.1372418 Eh     change       -0.1651591E-03 Eh
   gradient norm :     0.0095669 Eh/α   predicted    -0.1545142E-03 (  -6.45%)
   displ. norm   :     0.3318636 α      lambda       -0.2952903E-03
   maximum displ.:     0.1795492 α      in ANC's #6, #4, #3, ...

........................................................................
.............................. CYCLE   87 ..............................
........................................................................

 iter      E             dE          RMSdq      gap      omega  full diag
   1   -400.4967682 -0.400497E+03  0.404E-02    0.07       0.0  T
   2   -400.4967439  0.242975E-04  0.271E-02    0.07       1.0  T
   3   -400.4966112  0.132676E-03  0.366E-02    0.08       1.0  T
   4   -400.4967712 -0.159919E-03  0.773E-03    0.07       1.0  T
   5   -400.4967778 -0.663447E-05  0.187E-03    0.07       3.4  T
   6   -400.4967780 -0.232041E-06  0.129E-03    0.07       5.0  T
   7   -400.4967782 -0.178318E-06  0.647E-04    0.07      10.0  T
   8   -400.4967782 -0.353623E-07  0.224E-04    0.07      28.8  T
     SCC iter.                  ...        0 min,  0.553 sec
     gradient                   ...        0 min,  0.324 sec
 * total energy  :  -395.1374290 Eh     change       -0.1872668E-03 Eh
   gradient norm :     0.0074311 Eh/α   predicted    -0.1639101E-03 ( -12.47%)
   displ. norm   :     0.4017934 α      lambda       -0.2581468E-03
   maximum displ.:     0.2419758 α      in ANC's #6, #4, #9, ...

........................................................................
.............................. CYCLE   88 ..............................
........................................................................

 iter      E             dE          RMSdq      gap      omega  full diag
   1   -400.4953932 -0.400495E+03  0.432E-02    0.08       0.0  T
   2   -400.4952731  0.120092E-03  0.414E-02    0.06       1.0  T
   3   -400.4953499 -0.768140E-04  0.299E-02    0.08       1.0  T
   4   -400.4954105 -0.605731E-04  0.138E-02    0.07       1.0  T
   5   -400.4954302 -0.196927E-04  0.442E-03    0.07       1.5  T
   6   -400.4954320 -0.186589E-05  0.105E-03    0.07       6.1  T
   7   -400.4954321 -0.808884E-07  0.514E-04    0.07      12.6  T
   8   -400.4954321 -0.313880E-07  0.289E-04    0.07      22.3  T
     SCC iter.                  ...        0 min,  0.553 sec
     gradient                   ...        0 min,  0.323 sec
 * total energy  :  -395.1375585 Eh     change       -0.1294675E-03 Eh
   gradient norm :     0.0071106 Eh/α   predicted    -0.1499122E-03 (  15.79%)
   displ. norm   :     0.1574117 α      lambda       -0.1700576E-03
   maximum displ.:     0.0730040 α      in ANC's #3, #4, #6, ...

........................................................................
.............................. CYCLE   89 ..............................
........................................................................

 iter      E             dE          RMSdq      gap      omega  full diag
   1   -400.4978566 -0.400498E+03  0.255E-02    0.08       0.0  T
   2   -400.4978519  0.474405E-05  0.157E-02    0.07       1.0  T
   3   -400.4978116  0.403042E-04  0.204E-02    0.08       1.0  T
   4   -400.4978564 -0.448058E-04  0.540E-03    0.07       1.2  T
   5   -400.4978593 -0.293906E-05  0.339E-03    0.07       1.9  T
   6   -400.4978606 -0.123594E-05  0.773E-04    0.07       8.4  T
   7   -400.4978605  0.156100E-07  0.384E-04    0.07      16.8  T
   8   -400.4978606 -0.327519E-07  0.138E-04    0.07      46.7  T
     SCC iter.                  ...        0 min,  0.549 sec
     gradient                   ...        0 min,  0.323 sec
 * total energy  :  -395.1376656 Eh     change       -0.1070534E-03 Eh
   gradient norm :     0.0056250 Eh/α   predicted    -0.8713756E-04 ( -18.60%)
   displ. norm   :     0.2102551 α      lambda       -0.1527971E-03
   maximum displ.:     0.1289223 α      in ANC's #4, #6, #3, ...

........................................................................
.............................. CYCLE   90 ..............................
........................................................................

 iter      E             dE          RMSdq      gap      omega  full diag
   1   -400.4973495 -0.400497E+03  0.268E-02    0.08       0.0  T
   2   -400.4973464  0.313839E-05  0.164E-02    0.07       1.0  T
   3   -400.4973019  0.445217E-04  0.208E-02    0.08       1.0  T
   4   -400.4973490 -0.471267E-04  0.464E-03    0.08       1.4  T
   5   -400.4973522 -0.325541E-05  0.215E-03    0.08       3.0  T
   6   -400.4973526 -0.381705E-06  0.655E-04    0.08       9.9  T
   7   -400.4973526 -0.742222E-08  0.359E-04    0.08      18.0  T
     SCC iter.                  ...        0 min,  0.480 sec
     gradient                   ...        0 min,  0.325 sec
 * total energy  :  -395.1377593 Eh     change       -0.9377478E-04 Eh
   gradient norm :     0.0043851 Eh/α   predicted    -0.7978003E-04 ( -14.92%)
   displ. norm   :     0.1898319 α      lambda       -0.1402310E-03
   maximum displ.:     0.1294597 α      in ANC's #4, #3, #8, ...

........................................................................
.............................. CYCLE   91 ..............................
........................................................................

 iter      E             dE          RMSdq      gap      omega  full diag
   1   -400.4975758 -0.400498E+03  0.257E-02    0.08       0.0  T
   2   -400.4975753  0.439143E-06  0.152E-02    0.08       1.0  T
   3   -400.4975549  0.204477E-04  0.147E-02    0.08       1.0  T
   4   -400.4975767 -0.218133E-04  0.257E-03    0.08       2.5  T
   5   -400.4975774 -0.656966E-06  0.872E-04    0.08       7.4  T
   6   -400.4975774 -0.464875E-07  0.747E-04    0.08       8.6  T
     SCC iter.                  ...        0 min,  0.413 sec
     gradient                   ...        0 min,  0.324 sec
 * total energy  :  -395.1378396 Eh     change       -0.8029518E-04 Eh
   gradient norm :     0.0055318 Eh/α   predicted    -0.7264314E-04 (  -9.53%)
   displ. norm   :     0.1399809 α      lambda       -0.1002161E-03
   maximum displ.:     0.1107025 α      in ANC's #4, #8, #1, ...

........................................................................
.............................. CYCLE   92 ..............................
........................................................................

 iter      E             dE          RMSdq      gap      omega  full diag
   1   -400.4984876 -0.400498E+03  0.166E-02    0.08       0.0  T
   2   -400.4984862  0.136415E-05  0.105E-02    0.08       1.0  T
   3   -400.4984571  0.291266E-04  0.152E-02    0.07       1.0  T
   4   -400.4984880 -0.308924E-04  0.218E-03    0.08       3.0  T
   5   -400.4984885 -0.554531E-06  0.492E-04    0.08      13.1  T
   6   -400.4984886 -0.200191E-07  0.338E-04    0.08      19.1  T
     SCC iter.                  ...        0 min,  0.409 sec
     gradient                   ...        0 min,  0.324 sec
 * total energy  :  -395.1379148 Eh     change       -0.7516892E-04 Eh
   gradient norm :     0.0044052 Eh/α   predicted    -0.5109472E-04 ( -32.03%)
   displ. norm   :     0.1979738 α      lambda       -0.1187552E-03
   maximum displ.:     0.1587982 α      in ANC's #4, #5, #2, ...
 * RMSD in coord.:     0.5202214 α      energy gain  -0.5486292E-02 Eh

generating ANC from exact Hessian ...
Using Lindh-Hessian (1995)
 Shifting diagonal of input Hessian by    9.7981669284516529E-003
 Lowest  eigenvalues of input Hessian
    0.000000    0.000000    0.000000    0.000000    0.000000    0.000000
    0.010000    0.010145    0.010345    0.010448    0.010811    0.011093
    0.012182    0.012869    0.013531    0.016592    0.019682    0.022559
 Highest eigenvalues
    3.130727    3.196454    3.211452    3.246324    3.329983    3.334726


........................................................................
.............................. CYCLE   93 ..............................
........................................................................

 iter      E             dE          RMSdq      gap      omega  full diag
   1   -400.4966916 -0.400497E+03  0.210E-02    0.07       0.0  T
   2   -400.4966801  0.115186E-04  0.163E-02    0.08       1.0  T
   3   -400.4966748  0.530536E-05  0.150E-02    0.07       1.0  T
   4   -400.4966930 -0.181591E-04  0.692E-03    0.08       1.0  T
   5   -400.4966954 -0.237873E-05  0.437E-03    0.08       1.5  T
   6   -400.4966974 -0.205320E-05  0.601E-04    0.08      10.7  T
   7   -400.4966974 -0.281216E-07  0.267E-04    0.08      24.2  T
   8   -400.4966974 -0.356914E-08  0.160E-04    0.08      40.2  T
     SCC iter.                  ...        0 min,  0.536 sec
     gradient                   ...        0 min,  0.324 sec
 * total energy  :  -395.1379919 Eh     change       -0.7709642E-04 Eh
   gradient norm :     0.0042153 Eh/α   predicted     0.0000000E+00 (-100.00%)
   displ. norm   :     0.0449423 α      lambda       -0.5598675E-04
   maximum displ.:     0.0268631 α      in ANC's #3, #1, #5, ...

........................................................................
.............................. CYCLE   94 ..............................
........................................................................

 iter      E             dE          RMSdq      gap      omega  full diag
   1   -400.4976455 -0.400498E+03  0.852E-03    0.07       0.0  T
   2   -400.4976448  0.683990E-06  0.578E-03    0.08       1.1  T
   3   -400.4976425  0.229094E-05  0.616E-03    0.07       1.0  T
   4   -400.4976459 -0.331612E-05  0.210E-03    0.07       3.1  T
   5   -400.4976461 -0.269447E-06  0.112E-03    0.08       5.7  T
   6   -400.4976463 -0.192434E-06  0.241E-04    0.08      26.8  T
   7   -400.4976463 -0.268693E-08  0.151E-04    0.08      42.8  T
     SCC iter.                  ...        0 min,  0.488 sec
     gradient                   ...        0 min,  0.326 sec
 * total energy  :  -395.1380340 Eh     change       -0.4215840E-04 Eh
   gradient norm :     0.0019465 Eh/α   predicted    -0.2848525E-04 ( -32.43%)
   displ. norm   :     0.1327338 α      lambda       -0.4985785E-04
   maximum displ.:     0.0827731 α      in ANC's #3, #1, #5, ...

........................................................................
.............................. CYCLE   95 ..............................
........................................................................

 iter      E             dE          RMSdq      gap      omega  full diag
   1   -400.4987701 -0.400499E+03  0.187E-02    0.07       0.0  T
   2   -400.4987658  0.430823E-05  0.124E-02    0.07       1.0  T
   3   -400.4987336  0.321536E-04  0.174E-02    0.08       1.0  T
   4   -400.4987707 -0.370554E-04  0.386E-03    0.07       1.7  T
   5   -400.4987718 -0.111681E-05  0.178E-03    0.08       3.6  T
   6   -400.4987722 -0.384190E-06  0.372E-04    0.07      17.3  T
   7   -400.4987722  0.732484E-09  0.211E-04    0.07      30.5  T
     SCC iter.                  ...        0 min,  0.485 sec
     gradient                   ...        0 min,  0.326 sec
 * total energy  :  -395.1380787 Eh     change       -0.4464437E-04 Eh
   gradient norm :     0.0026031 Eh/α   predicted    -0.2512644E-04 ( -43.72%)
   displ. norm   :     0.0800083 α      lambda       -0.3127497E-04
   maximum displ.:     0.0493360 α      in ANC's #3, #1, #5, ...

........................................................................
.............................. CYCLE   96 ..............................
........................................................................

 iter      E             dE          RMSdq      gap      omega  full diag
   1   -400.4986995 -0.400499E+03  0.954E-03    0.08       0.0  T
   2   -400.4986985  0.959483E-06  0.625E-03    0.07       1.0  T
   3   -400.4986919  0.667227E-05  0.815E-03    0.08       1.0  T
   4   -400.4986993 -0.739799E-05  0.224E-03    0.07       2.9  T
   5   -400.4986998 -0.565446E-06  0.572E-04    0.08      11.3  T
   6   -400.4986998 -0.263222E-07  0.245E-04    0.08      26.3  T
     SCC iter.                  ...        0 min,  0.415 sec
     gradient                   ...        0 min,  0.324 sec
 * total energy  :  -395.1381085 Eh     change       -0.2985231E-04 Eh
   gradient norm :     0.0026798 Eh/α   predicted    -0.1573810E-04 ( -47.28%)
   displ. norm   :     0.2419494 α      lambda       -0.9902575E-04
   maximum displ.:     0.1424515 α      in ANC's #3, #1, #5, ...

........................................................................
.............................. CYCLE   97 ..............................
........................................................................

 iter      E             dE          RMSdq      gap      omega  full diag
   1   -400.4980661 -0.400498E+03  0.286E-02    0.08       0.0  T
   2   -400.4980591  0.705181E-05  0.185E-02    0.07       1.0  T
   3   -400.4980136  0.454496E-04  0.221E-02    0.08       1.0  T
   4   -400.4980602 -0.465965E-04  0.837E-03    0.08       1.0  T
   5   -400.4980690 -0.877746E-05  0.224E-03    0.08       2.9  T
   6   -400.4980695 -0.474158E-06  0.697E-04    0.08       9.3  T
   7   -400.4980695 -0.192646E-07  0.277E-04    0.08      23.3  T
     SCC iter.                  ...        0 min,  0.484 sec
     gradient                   ...        0 min,  0.323 sec
 * total energy  :  -395.1381954 Eh     change       -0.8685830E-04 Eh
   gradient norm :     0.0022560 Eh/α   predicted    -0.5241335E-04 ( -39.66%)
   displ. norm   :     0.4074448 α      lambda       -0.1326303E-03
   maximum displ.:     0.2415075 α      in ANC's #3, #1, #5, ...

........................................................................
.............................. CYCLE   98 ..............................
........................................................................

 iter      E             dE          RMSdq      gap      omega  full diag
   1   -400.4967697 -0.400497E+03  0.459E-02    0.08       0.0  T
   2   -400.4967567  0.130075E-04  0.290E-02    0.08       1.0  T
   3   -400.4966390  0.117720E-03  0.343E-02    0.09       1.0  T
   4   -400.4967542 -0.115243E-03  0.133E-02    0.08       1.0  T
   5   -400.4967762 -0.219474E-04  0.303E-03    0.08       2.1  T
   6   -400.4967770 -0.799152E-06  0.126E-03    0.08       5.1  T
   7   -400.4967771 -0.106554E-06  0.384E-04    0.08      16.8  T
   8   -400.4967771 -0.116387E-07  0.207E-04    0.08      31.2  T
     SCC iter.                  ...        0 min,  0.549 sec
     gradient                   ...        0 min,  0.323 sec
 * total energy  :  -395.1382992 Eh     change       -0.1038357E-03 Eh
   gradient norm :     0.0029577 Eh/α   predicted    -0.7732604E-04 ( -25.53%)
   displ. norm   :     0.3121990 α      lambda       -0.7701638E-04
   maximum displ.:     0.1887085 α      in ANC's #3, #1, #5, ...

........................................................................
.............................. CYCLE   99 ..............................
........................................................................

 iter      E             dE          RMSdq      gap      omega  full diag
   1   -400.4966003 -0.400497E+03  0.323E-02    0.08       0.0  T
   2   -400.4965973  0.301190E-05  0.196E-02    0.08       1.0  T
   3   -400.4965446  0.526824E-04  0.222E-02    0.09       1.0  T
   4   -400.4965926 -0.480020E-04  0.889E-03    0.08       1.0  T
   5   -400.4966029 -0.103354E-04  0.195E-03    0.08       3.3  T
   6   -400.4966032 -0.298769E-06  0.984E-04    0.08       6.6  T
   7   -400.4966033 -0.751281E-07  0.288E-04    0.08      22.4  T
     SCC iter.                  ...        0 min,  0.493 sec
     gradient                   ...        0 min,  0.325 sec
 * total energy  :  -395.1383618 Eh     change       -0.6252997E-04 Eh
   gradient norm :     0.0030664 Eh/α   predicted    -0.4226243E-04 ( -32.41%)
   displ. norm   :     0.2297766 α      lambda       -0.6437583E-04
   maximum displ.:     0.1415503 α      in ANC's #3, #1, #2, ...

........................................................................
.............................. CYCLE  100 ..............................
........................................................................

 iter      E             dE          RMSdq      gap      omega  full diag
   1   -400.4977116 -0.400498E+03  0.205E-02    0.08       0.0  T
   2   -400.4977119 -0.365749E-06  0.119E-02    0.08       1.0  T
   3   -400.4977038  0.816705E-05  0.955E-03    0.09       1.0  T
   4   -400.4977106 -0.685380E-05  0.391E-03    0.08       1.6  T
   5   -400.4977125 -0.192097E-05  0.162E-03    0.08       4.0  T
   6   -400.4977128 -0.274619E-06  0.676E-04    0.08       9.5  T
   7   -400.4977129 -0.359987E-07  0.234E-04    0.08      27.5  T
     SCC iter.                  ...        0 min,  0.555 sec
     gradient                   ...        0 min,  0.326 sec
 * total energy  :  -395.1384164 Eh     change       -0.5460989E-04 Eh
   gradient norm :     0.0020430 Eh/α   predicted    -0.3388830E-04 ( -37.94%)
   displ. norm   :     0.2411646 α      lambda       -0.6866182E-04
   maximum displ.:     0.1481547 α      in ANC's #3, #1, #2, ...

........................................................................
.............................. CYCLE  101 ..............................
........................................................................

 iter      E             dE          RMSdq      gap      omega  full diag
   1   -400.4990039 -0.400499E+03  0.188E-02    0.08       0.0  T
   2   -400.4990044 -0.553174E-06  0.106E-02    0.08       1.0  T
   3   -400.4989974  0.700365E-05  0.866E-03    0.09       1.0  T
   4   -400.4990046 -0.723131E-05  0.271E-03    0.08       2.4  T
   5   -400.4990053 -0.661293E-06  0.124E-03    0.08       5.2  T
   6   -400.4990055 -0.178925E-06  0.672E-04    0.08       9.6  T
   7   -400.4990055 -0.423105E-07  0.330E-04    0.08      19.6  T
     SCC iter.                  ...        0 min,  0.488 sec
     gradient                   ...        0 min,  0.325 sec
 * total energy  :  -395.1384727 Eh     change       -0.5635438E-04 Eh
   gradient norm :     0.0012314 Eh/α   predicted    -0.3633511E-04 ( -35.52%)
   displ. norm   :     0.3641191 α      lambda       -0.5844150E-04
   maximum displ.:     0.2174052 α      in ANC's #3, #1, #2, ...

........................................................................
.............................. CYCLE  102 ..............................
........................................................................

 iter      E             dE          RMSdq      gap      omega  full diag
   1   -400.4998520 -0.400500E+03  0.261E-02    0.09       0.0  T
   2   -400.4998529 -0.828566E-06  0.146E-02    0.08       1.0  T
   3   -400.4998342  0.187145E-04  0.131E-02    0.09       1.0  T
   4   -400.4998496 -0.154771E-04  0.712E-03    0.08       1.0  T
   5   -400.4998556 -0.594278E-05  0.235E-03    0.08       2.7  T
   6   -400.4998562 -0.596553E-06  0.118E-03    0.08       5.5  T
   7   -400.4998563 -0.109655E-06  0.377E-04    0.08      17.1  T
   8   -400.4998563 -0.289142E-07  0.178E-04    0.08      36.2  T
     SCC iter.                  ...        0 min,  0.549 sec
     gradient                   ...        0 min,  0.325 sec
 * total energy  :  -395.1385336 Eh     change       -0.6090255E-04 Eh
   gradient norm :     0.0021058 Eh/α   predicted    -0.3094295E-04 ( -49.19%)
   displ. norm   :     0.1126045 α      lambda       -0.2709876E-04
   maximum displ.:     0.0655514 α      in ANC's #2, #1, #3, ...

........................................................................
.............................. CYCLE  103 ..............................
........................................................................

 iter      E             dE          RMSdq      gap      omega  full diag
   1   -400.4998166 -0.400500E+03  0.807E-03    0.09       0.0  T
   2   -400.4998166  0.358672E-07  0.458E-03    0.08       1.4  T
   3   -400.4998154  0.117236E-05  0.398E-03    0.09       1.6  T
   4   -400.4998156 -0.197115E-06  0.331E-03    0.08       1.9  T
   5   -400.4998170 -0.137994E-05  0.572E-04    0.08      11.3  T
   6   -400.4998170 -0.301894E-07  0.375E-04    0.08      17.2  T
   7   -400.4998170 -0.123441E-07  0.116E-04    0.08      55.8  T
     SCC iter.                  ...        0 min,  0.490 sec
     gradient                   ...        0 min,  0.325 sec
 * total energy  :  -395.1385579 Eh     change       -0.2424018E-04 Eh
   gradient norm :     0.0019062 Eh/α   predicted    -0.1372211E-04 ( -43.39%)
   displ. norm   :     0.2447807 α      lambda       -0.4870625E-04
   maximum displ.:     0.1407569 α      in ANC's #2, #1, #6, ...

........................................................................
.............................. CYCLE  104 ..............................
........................................................................

 iter      E             dE          RMSdq      gap      omega  full diag
   1   -400.4992042 -0.400499E+03  0.225E-02    0.09       0.0  T
   2   -400.4992046 -0.399000E-06  0.130E-02    0.08       1.0  T
   3   -400.4992016  0.303833E-05  0.888E-03    0.09       1.0  T
   4   -400.4991932  0.841967E-05  0.949E-03    0.08       1.0  T
   5   -400.4992059 -0.127036E-04  0.979E-04    0.09       6.6  T
   6   -400.4992059 -0.179035E-07  0.785E-04    0.09       8.2  T
   7   -400.4992060 -0.101965E-06  0.222E-04    0.09      29.1  T
     SCC iter.                  ...        0 min,  0.487 sec
     gradient                   ...        0 min,  0.324 sec
 * total energy  :  -395.1386126 Eh     change       -0.5474303E-04 Eh
   gradient norm :     0.0012817 Eh/α   predicted    -0.2500277E-04 ( -54.33%)
   displ. norm   :     0.2127722 α      lambda       -0.2713831E-04
   maximum displ.:     0.1212584 α      in ANC's #2, #1, #6, ...

........................................................................
.............................. CYCLE  105 ..............................
........................................................................

 iter      E             dE          RMSdq      gap      omega  full diag
   1   -400.4986244 -0.400499E+03  0.204E-02    0.09       0.0  T
   2   -400.4986249 -0.519470E-06  0.117E-02    0.09       1.0  T
   3   -400.4986245  0.385205E-06  0.674E-03    0.08       1.0  T
   4   -400.4986245  0.684535E-07  0.260E-03    0.09       2.5  T
   5   -400.4986253 -0.781062E-06  0.633E-04    0.09      10.2  T
   6   -400.4986252  0.156419E-07  0.430E-04    0.09      15.0  T
     SCC iter.                  ...        0 min,  0.416 sec
     gradient                   ...        0 min,  0.325 sec
 * total energy  :  -395.1386413 Eh     change       -0.2863532E-04 Eh
   gradient norm :     0.0012024 Eh/α   predicted    -0.1384604E-04 ( -51.65%)
   displ. norm   :     0.1299514 α      lambda       -0.1164503E-04
   maximum displ.:     0.0759599 α      in ANC's #2, #1, #7, ...

........................................................................
.............................. CYCLE  106 ..............................
........................................................................

 iter      E             dE          RMSdq      gap      omega  full diag
   1   -400.4986270 -0.400499E+03  0.121E-02    0.08       0.0  T
   2   -400.4986265  0.418174E-06  0.727E-03    0.09       1.0  T
   3   -400.4986182  0.833216E-05  0.831E-03    0.08       1.0  T
   4   -400.4986264 -0.813470E-05  0.324E-03    0.09       2.0  T
   5   -400.4986274 -0.101486E-05  0.931E-04    0.09       6.9  T
   6   -400.4986274 -0.756343E-07  0.349E-04    0.09      18.5  T
   7   -400.4986274 -0.801163E-08  0.108E-04    0.09      59.8  T
     SCC iter.                  ...        0 min,  0.484 sec
     gradient                   ...        0 min,  0.326 sec
 * total energy  :  -395.1386545 Eh     change       -0.1323579E-04 Eh
   gradient norm :     0.0009536 Eh/α   predicted    -0.5870759E-05 ( -55.64%)
   displ. norm   :     0.1059812 α      lambda       -0.9157090E-05
   maximum displ.:     0.0636074 α      in ANC's #2, #1, #7, ...

........................................................................
.............................. CYCLE  107 ..............................
........................................................................

 iter      E             dE          RMSdq      gap      omega  full diag
   1   -400.4986392 -0.400499E+03  0.989E-03    0.08       0.0  T
   2   -400.4986379  0.133895E-05  0.653E-03    0.09       1.0  T
   3   -400.4986283  0.958345E-05  0.914E-03    0.08       1.0  T
   4   -400.4986396 -0.112697E-04  0.199E-03    0.09       3.2  T
   5   -400.4986399 -0.310746E-06  0.890E-04    0.09       7.3  T
   6   -400.4986400 -0.695529E-07  0.286E-04    0.09      22.6  T
     SCC iter.                  ...        0 min,  0.412 sec
     gradient                   ...        0 min,  0.324 sec
 * total energy  :  -395.1386645 Eh     change       -0.1003522E-04 Eh
   gradient norm :     0.0005440 Eh/α   predicted    -0.4603042E-05 ( -54.13%)
   displ. norm   :     0.0907529 α      lambda       -0.7226258E-05
   maximum displ.:     0.0573474 α      in ANC's #1, #2, #7, ...

........................................................................
.............................. CYCLE  108 ..............................
........................................................................

 iter      E             dE          RMSdq      gap      omega  full diag
   1   -400.4986458 -0.400499E+03  0.879E-03    0.08       0.0  T
   2   -400.4986447  0.110379E-05  0.584E-03    0.09       1.1  T
   3   -400.4986392  0.551085E-05  0.738E-03    0.08       1.0  T
   4   -400.4986460 -0.686185E-05  0.227E-03    0.09       2.8  T
   5   -400.4986464 -0.337634E-06  0.101E-03    0.09       6.4  T
   6   -400.4986465 -0.105969E-06  0.253E-04    0.09      25.6  T
   7   -400.4986465  0.223395E-09  0.131E-04    0.09      49.4  T
     SCC iter.                  ...        0 min,  0.481 sec
     gradient                   ...        0 min,  0.326 sec
 * total energy  :  -395.1386724 Eh     change       -0.7896194E-05 Eh
   gradient norm :     0.0005888 Eh/α   predicted    -0.3629942E-05 ( -54.03%)
   displ. norm   :     0.0894672 α      lambda       -0.6568675E-05
   maximum displ.:     0.0570511 α      in ANC's #1, #2, #4, ...

........................................................................
.............................. CYCLE  109 ..............................
........................................................................

 iter      E             dE          RMSdq      gap      omega  full diag
   1   -400.4987509 -0.400499E+03  0.890E-03    0.09       0.0  T
   2   -400.4987500  0.868841E-06  0.577E-03    0.09       1.1  T
   3   -400.4987440  0.595529E-05  0.738E-03    0.08       1.0  T
   4   -400.4987510 -0.692208E-05  0.228E-03    0.09       2.8  T
   5   -400.4987513 -0.327509E-06  0.845E-04    0.09       7.6  T
   6   -400.4987514 -0.782624E-07  0.224E-04    0.09      28.8  T
     SCC iter.                  ...        0 min,  0.415 sec
     gradient                   ...        0 min,  0.325 sec
 * total energy  :  -395.1386803 Eh     change       -0.7873519E-05 Eh
   gradient norm :     0.0008423 Eh/α   predicted    -0.3296216E-05 ( -58.14%)
   displ. norm   :     0.1102635 α      lambda       -0.7889986E-05
   maximum displ.:     0.0687598 α      in ANC's #1, #2, #4, ...

........................................................................
.............................. CYCLE  110 ..............................
........................................................................

 iter      E             dE          RMSdq      gap      omega  full diag
   1   -400.4987232 -0.400499E+03  0.109E-02    0.09       0.0  T
   2   -400.4987231  0.104540E-06  0.644E-03    0.09       1.0  T
   3   -400.4987174  0.569929E-05  0.626E-03    0.08       1.0  T
   4   -400.4987228 -0.543723E-05  0.233E-03    0.09       2.8  T
   5   -400.4987234 -0.583172E-06  0.455E-04    0.09      14.2  T
   6   -400.4987234 -0.289087E-07  0.265E-04    0.09      24.3  T
     SCC iter.                  ...        0 min,  0.416 sec
     gradient                   ...        0 min,  0.324 sec
 * total energy  :  -395.1386903 Eh     change       -0.1003929E-04 Eh
   gradient norm :     0.0009982 Eh/α   predicted    -0.3968702E-05 ( -60.47%)
   displ. norm   :     0.1481991 α      lambda       -0.1054155E-04
   maximum displ.:     0.0910282 α      in ANC's #1, #2, #4, ...

........................................................................
.............................. CYCLE  111 ..............................
........................................................................

 iter      E             dE          RMSdq      gap      omega  full diag
   1   -400.4987759 -0.400499E+03  0.138E-02    0.09       0.0  T
   2   -400.4987760 -0.594970E-07  0.802E-03    0.09       1.0  T
   3   -400.4987741  0.193400E-05  0.345E-03    0.09       1.9  T
   4   -400.4987760 -0.192046E-05  0.103E-03    0.09       6.3  T
   5   -400.4987761 -0.898394E-07  0.456E-04    0.09      14.2  T
   6   -400.4987761 -0.289003E-07  0.241E-04    0.09      26.8  T
     SCC iter.                  ...        0 min,  0.414 sec
     gradient                   ...        0 min,  0.324 sec
 * total energy  :  -395.1387034 Eh     change       -0.1303454E-04 Eh
   gradient norm :     0.0009328 Eh/α   predicted    -0.5325955E-05 ( -59.14%)
   displ. norm   :     0.1875006 α      lambda       -0.1163566E-04
   maximum displ.:     0.1163273 α      in ANC's #1, #2, #4, ...

........................................................................
.............................. CYCLE  112 ..............................
........................................................................

 iter      E             dE          RMSdq      gap      omega  full diag
   1   -400.4986505 -0.400499E+03  0.163E-02    0.09       0.0  T
   2   -400.4986506 -0.105658E-06  0.953E-03    0.09       1.0  T
   3   -400.4986492  0.142454E-05  0.457E-03    0.09       1.4  T
   4   -400.4986499 -0.732989E-06  0.253E-03    0.09       2.6  T
   5   -400.4986507 -0.801973E-06  0.554E-04    0.09      11.7  T
   6   -400.4986508 -0.191719E-07  0.396E-04    0.09      16.3  T
     SCC iter.                  ...        0 min,  0.413 sec
     gradient                   ...        0 min,  0.322 sec
 * total energy  :  -395.1387169 Eh     change       -0.1349347E-04 Eh
   gradient norm :     0.0006907 Eh/α   predicted    -0.5909590E-05 ( -56.20%)
   displ. norm   :     0.1743940 α      lambda       -0.9125947E-05
   maximum displ.:     0.1103097 α      in ANC's #1, #2, #4, ...

........................................................................
.............................. CYCLE  113 ..............................
........................................................................

 iter      E             dE          RMSdq      gap      omega  full diag
   1   -400.4987405 -0.400499E+03  0.134E-02    0.09       0.0  T
   2   -400.4987407 -0.189639E-06  0.779E-03    0.09       1.0  T
   3   -400.4987406  0.702496E-07  0.423E-03    0.09       1.5  T
   4   -400.4987404  0.168619E-06  0.145E-03    0.09       4.5  T
   5   -400.4987407 -0.318599E-06  0.328E-04    0.09      19.7  T
   6   -400.4987407  0.434682E-09  0.185E-04    0.09      34.9  T
     SCC iter.                  ...        0 min,  0.417 sec
     gradient                   ...        0 min,  0.325 sec
 * total energy  :  -395.1387274 Eh     change       -0.1055114E-04 Eh
   gradient norm :     0.0005521 Eh/α   predicted    -0.4627033E-05 ( -56.15%)
   displ. norm   :     0.1476774 α      lambda       -0.7084536E-05
   maximum displ.:     0.0947476 α      in ANC's #1, #2, #4, ...

........................................................................
.............................. CYCLE  114 ..............................
........................................................................

 iter      E             dE          RMSdq      gap      omega  full diag
   1   -400.4987421 -0.400499E+03  0.101E-02    0.08       0.0  T
   2   -400.4987422 -0.791227E-07  0.595E-03    0.09       1.1  T
   3   -400.4987417  0.508326E-06  0.398E-03    0.08       1.6  T
   4   -400.4987401  0.165405E-05  0.397E-03    0.09       1.6  T
   5   -400.4987424 -0.233707E-05  0.472E-04    0.09      13.7  T
   6   -400.4987424 -0.164689E-07  0.255E-04    0.08      25.3  T
   7   -400.4987424 -0.455577E-08  0.913E-05    0.08      70.7  T
     SCC iter.                  ...        0 min,  0.492 sec
     gradient                   ...        0 min,  0.325 sec
 * total energy  :  -395.1387355 Eh     change       -0.8091892E-05 Eh
   gradient norm :     0.0005096 Eh/α   predicted    -0.3580466E-05 ( -55.75%)
   displ. norm   :     0.1191985 α      lambda       -0.6061868E-05
   maximum displ.:     0.0765234 α      in ANC's #1, #2, #4, ...

........................................................................
.............................. CYCLE  115 ..............................
........................................................................

 iter      E             dE          RMSdq      gap      omega  full diag
   1   -400.4987540 -0.400499E+03  0.642E-03    0.08       0.0  T
   2   -400.4987540 -0.256257E-07  0.388E-03    0.08       1.7  T
   3   -400.4987539  0.145090E-06  0.258E-03    0.08       2.5  T
   4   -400.4987531  0.763826E-06  0.280E-03    0.09       2.3  T
   5   -400.4987542 -0.107207E-05  0.586E-04    0.08      11.0  T
   6   -400.4987542 -0.326290E-07  0.229E-04    0.08      28.2  T
   7   -400.4987542 -0.358091E-08  0.872E-05    0.08      74.0  T
     SCC iter.                  ...        0 min,  0.488 sec
     gradient                   ...        0 min,  0.323 sec
 * total energy  :  -395.1387426 Eh     change       -0.7123252E-05 Eh
   gradient norm :     0.0005093 Eh/α   predicted    -0.3053509E-05 ( -57.13%)
   displ. norm   :     0.1222443 α      lambda       -0.5688429E-05
   maximum displ.:     0.0772553 α      in ANC's #1, #2, #4, ...

........................................................................
.............................. CYCLE  116 ..............................
........................................................................

 iter      E             dE          RMSdq      gap      omega  full diag
   1   -400.4987156 -0.400499E+03  0.556E-03    0.08       0.0  T
   2   -400.4987155  0.949928E-07  0.353E-03    0.08       1.8  T
   3   -400.4987152  0.348157E-06  0.281E-03    0.08       2.3  T
   4   -400.4987152  0.189397E-08  0.230E-03    0.08       2.8  T
   5   -400.4987158 -0.624910E-06  0.730E-04    0.08       8.8  T
   6   -400.4987158 -0.536895E-07  0.230E-04    0.08      28.1  T
     SCC iter.                  ...        0 min,  0.412 sec
     gradient                   ...        0 min,  0.325 sec
 * total energy  :  -395.1387489 Eh     change       -0.6225193E-05 Eh
   gradient norm :     0.0004392 Eh/α   predicted    -0.2865056E-05 ( -53.98%)
   displ. norm   :     0.0870176 α      lambda       -0.3413386E-05
   maximum displ.:     0.0543509 α      in ANC's #1, #2, #3, ...

........................................................................
.............................. CYCLE  117 ..............................
........................................................................

 iter      E             dE          RMSdq      gap      omega  full diag
   1   -400.4986346 -0.400499E+03  0.387E-03    0.08       0.0  T
   2   -400.4986346 -0.112855E-07  0.220E-03    0.08       2.9  T
   3   -400.4986340  0.551280E-06  0.190E-03    0.08       3.4  T
   4   -400.4986346 -0.527092E-06  0.691E-04    0.08       9.3  T
   5   -400.4986346 -0.535413E-07  0.259E-04    0.08      24.9  T
     SCC iter.                  ...        0 min,  0.342 sec
     gradient                   ...        0 min,  0.325 sec
 * total energy  :  -395.1387525 Eh     change       -0.3675013E-05 Eh
   gradient norm :     0.0004395 Eh/α   predicted    -0.1714713E-05 ( -53.34%)
   displ. norm   :     0.0638950 α      lambda       -0.2506838E-05
   maximum displ.:     0.0384297 α      in ANC's #1, #2, #3, ...

   *** GEOMETRY OPTIMIZATION CONVERGED AFTER 117 ITERATIONS ***

------------------------------------------------------------------------
 total energy gain   :        -0.4275327 Eh     -268.2808 kcal/mol
 total RMSD          :         1.8659171 a0        0.9874 Å
 total power (kW/mol):        -9.5939052 (step)  -10.3578 (real)
------------------------------------------------------------------------

 ANCopt (total)                0 d,  0 h,  1 min, 48.372 sec
 optimizer setup                ...        0 min,  0.001 sec (  0.001%)
 model hessian                  ...        0 min,  0.399 sec (  0.368%)
 ANC generation                 ...        0 min,  0.184 sec (  0.169%)
 coordinate transformation      ...        0 min,  0.023 sec (  0.021%)
 single point calculation       ...        1 min, 47.620 sec ( 99.306%)
 optimization log               ...        0 min,  0.041 sec (  0.038%)
 hessian update                 ...        0 min,  0.016 sec (  0.015%)
 rational function              ...        0 min,  0.072 sec (  0.066%)

================
 final structure:
================
240
 xtb: 6.7.1 (edcfbbe)
N            0.14821142770193       -1.71432020151559       -0.74718772485609
N           -0.11423387026942       -1.02576179800400        2.00627470963707
C           -0.41944161012175       -0.95707019881342       -3.04295005032490
C            0.00780512601698       -1.91413919503483       -2.09588167165087
C            0.42149692868910       -3.26259487812846       -2.43702965810619
H            0.40117025127543       -3.68110701342168       -3.44430008587548
C            0.83826478879700       -3.85170641125994       -1.27729180019912
H            1.23062264054106       -4.85922575049275       -1.13182736821035
C            0.63229656925437       -2.88549435668455       -0.21512324304477
C            0.80673617459952       -3.16940990253355        1.15355663227549
C            0.38831300140626       -2.29174069682987        2.17378611697671
C            0.30581252853938       -2.66343605900031        3.57353823673992
H            0.63875156709029       -3.61989664781382        3.97946535907324
C           -0.29501890028978       -1.62546365012526        4.22726506337647
H           -0.54999799065708       -1.54074904767054        5.28451202108673
C           -0.54122723497567       -0.59465838702325        3.23673759569739
C            1.35092928661759       -4.51637895384279        1.55077012159836
C            2.68916136597310       -4.66033739778842        1.98721306731073
C            3.20619080470174       -5.91311549167941        2.36376797844361
C            2.38021619803528       -7.03901641498832        2.29619054913469
H            2.78259479455430       -8.02076595444354        2.57875695378986
C            1.05291876365781       -6.93713254418814        1.87174670048708
C            0.54003053205315       -5.67647239952945        1.51128546572587
N           -0.86416078949856        1.64789886450076        1.25865148633451
N           -0.55642650025309        0.96899989105497       -1.47710970648386
C           -1.10678275683984        0.66401098412427        3.53040196466443
C           -1.19147536921775        1.71392890727293        2.58967784814160
C           -1.57274526186910        3.07053891217646        2.92855017819617
H           -1.89803194748643        3.39168555336729        3.91903128176422
C           -1.42402117310203        3.81953966944501        1.79444235678698
H           -1.61048739200395        4.88520151723942        1.65723262055583
C           -1.01644150649479        2.91254263190890        0.74147054508527
C           -0.88871318468350        3.27393464214905       -0.61300495753131
C           -0.75459643379580        2.31755784062436       -1.63798259855806
C           -0.94948420096954        2.61644911585654       -3.04268006978963
H           -1.12663100131807        3.61496226137498       -3.44410180575720
C           -0.91948230739950        1.42525523877534       -3.71017722176630
H           -1.06273261556613        1.23773917202677       -4.77524069754929
C           -0.63938560571243        0.39917263919121       -2.72379337369797
C           -0.96602582931699        4.72363820332843       -1.00815265488542
C            0.21865411227254        5.41828619375481       -1.35508932196644
C            0.17974601640851        6.75805263392267       -1.78212483131159
C           -1.05073510537682        7.42010721862917       -1.83542726538154
H           -1.08526488383165        8.46856733877481       -2.15952035451647
C           -2.23841372876789        6.77013626794566       -1.48703352870681
C           -2.19479535079049        5.42014258881021       -1.09055467150392
Fe          -0.25275466040537        0.00071568325274        0.26381377737413
Cl          -2.47463423596599       -0.63799984901090        0.22677380570996
C           -1.70149277751502        0.88103372539173        4.90034318570483
C           -0.94488526542004        1.43035004523732        5.96956913193575
C           -3.06066081816578        0.52092851700324        5.11977301278313
C           -1.53361401664518        1.62212360518428        7.23556019531705
N            0.40433664626732        1.78522638991366        5.70876871970651
C           -3.64573662686453        0.73755535352173        6.38598473852742
N           -3.77739111453024       -0.07619711759235        4.05579682257171
H           -0.92945877461121        2.03280282640761        8.04900233625033
C           -2.87641741612700        1.27862645825937        7.41941905359399
C            1.37225791183641        2.20412627221545        6.59331717385944
H            0.68339121458431        1.68039099137418        4.73179830921542
H           -4.69692697366665        0.47596677769949        6.53123412947978
C           -5.10569806959705       -0.45377126152452        4.02758139787405
H           -3.24071546762924       -0.25341381225354        3.20133867870274
H           -3.33755183265899        1.43619234798770        8.40297982606367
O            1.21826286558537        2.31821430450343        7.80434278445966
C            2.70266913369028        2.52787179533320        5.94594469510701
O           -5.91232550774092       -0.21684475187572        4.92166513229660
C           -5.50658391491404       -1.21375747154641        2.78600651506183
C            3.95615645009561        2.15029738981537        6.69337175009244
H            2.76494122074273        2.52368971097256        4.85235256428485
C            3.53366855633697        3.59935952116749        6.66191467173206
C           -6.85619673104925       -0.92150429876375        2.17882335898696
H           -4.71759100402256       -1.52745004168347        2.09284293876763
C           -6.67859718466141       -2.18354785435347        2.98910333991832
H            3.83125623560348        1.63259801016595        7.64755966893699
H            4.82447142186732        1.87015481820500        6.09362702343618
H            3.09111697824495        4.00316559271430        7.57594133608116
C            4.31448746849646        4.56350557540692        5.82687077636928
H           -7.45238703131467       -0.13554973026647        2.65104082557665
H           -6.93453538217049       -1.01544063598261        1.09220270674708
H           -7.10626530043399       -2.18445209220317        3.99653438125571
C           -6.64805282082564       -3.50717532670427        2.30153129304577
O            4.40203239502784        5.76161050152300        6.42796156699785
O            4.82232672369566        4.29916532593433        4.75319810447584
O           -7.26190155848985       -4.45002456953509        3.05041272417152
O           -6.15447109383067       -3.72731263377200        1.21391731999933
C            5.14604531832899        6.82660512404078        5.76446232907108
C           -7.34363088077156       -5.80232228848214        2.51901356303900
C            4.16874601836935        7.69784972364176        4.96331737027922
C            5.89489827050696        7.59062251999456        6.85527907974708
H            5.85321279249632        6.33756200388857        5.07093038145770
C           -7.34565644611837       -6.74667027303770        3.72221040512286
C           -8.59164826802001       -5.92569449236474        1.63764698999099
H           -6.44066341087060       -5.96236662612757        1.89962975320753
H            3.66456028567313        7.09741062370700        4.18845673387954
H            3.40980460312207        8.13247651096915        5.62733324536768
H            4.71282867192127        8.51699911045726        4.47326260505578
H            6.56787458238600        6.92234052445084        7.40768570769300
H            6.49951526832729        8.39503578732342        6.41537443583595
H            5.19563668589825        8.03799765616295        7.57314496903760
H           -6.43702204861871       -6.60662417751922        4.32202011745495
H           -8.22108232866004       -6.56130464860843        4.36269423247137
H           -7.38803399598394       -7.79203563548174        3.38683472112669
H           -8.53191978699956       -5.22619140846826        0.79273374917943
H           -8.67899278476521       -6.94637566168276        1.23991433663292
H           -9.50110745122777       -5.70885857944433        2.21847279043899
C           -0.64318504005362       -1.43197368978721       -4.45687186843030
C            0.32691824752987       -1.22500724956544       -5.47512691463342
C           -1.84086183101038       -2.13242257016641       -4.76888808267013
C            0.13366940688668       -1.76552883834539       -6.76223949180653
N            1.46270414265746       -0.44262502069378       -5.14787335260720
C           -2.02182958027717       -2.67718397211238       -6.05793388609488
N           -2.83692965801723       -2.21442369893560       -3.76761804791113
H            0.89619058245531       -1.60018175666638       -7.52877620889190
C           -1.03148047020955       -2.49296576098939       -7.02744926364085
C            2.41303635863720        0.09612788052448       -5.98627911461989
H            1.47088331162839       -0.11096687738490       -4.18141585632384
H           -2.93810086258330       -3.23424033522739       -6.27114311492078
C           -4.06356893267242       -2.84482043028509       -3.82311174294003
H           -2.63360440240991       -1.69785108914586       -2.90768924766919
H           -1.17735826242890       -2.92077990438324       -8.02787893420930
O            2.53296724316934       -0.16519318207696       -7.17772132051538
C            3.30392586895503        1.11829788371856       -5.31116447090253
O           -4.43146582965477       -3.56881812853175       -4.74294160232298
C           -4.95394534298152       -2.55033455018854       -2.64026140003891
C            3.62395430776564        2.36414091535763       -6.09876759945243
H            3.23071772024835        1.23115177014625       -4.22412457959907
C            4.69889339857972        1.32002018606365       -5.90317726125870
C           -5.85660383469622       -3.64440819668275       -2.13101884513451
H           -4.60361933414012       -1.82412247571304       -1.89738412420077
C           -6.45694980656821       -2.53372376185581       -2.95848650583079
H            3.19869082418354        2.43702164263722       -7.10312469679982
H            3.72388835566338        3.29763127962674       -5.53994145080425
H            4.95254713982282        0.69686239767329       -6.76485307929391
C            5.81227087057500        1.63666952876745       -4.95698680852022
H           -5.78305801142872       -4.61511312992807       -2.62839111431049
H           -6.04941374136889       -3.65134094180580       -1.05492326641900
H           -6.71338279511729       -2.77374791351367       -3.99493944531563
C           -7.30974939379636       -1.49449884104068       -2.30970618469318
O            6.98782871180828        1.17828863620039       -5.42101269644894
O            5.67930525220049        2.24208687750781       -3.90877278095122
O           -8.29855400851745       -1.09710424590508       -3.13941506672698
O           -7.15866920713647       -1.05969955131764       -1.18569535351360
C            8.19195964314299        1.42180410914276       -4.63609441522445
C           -9.23129833422581       -0.08776020954774       -2.65933816329848
C            9.10671500823813        0.21425374859253       -4.84728766658844
C            8.81265286741259        2.75190332423955       -5.07253325072856
H            7.87682709546850        1.49230653173576       -3.57717844101137
C           -8.66535198132947        1.30937743145448       -2.94406944574176
C          -10.56697134069739       -0.36238971903458       -3.34935927189725
H           -9.32001885461340       -0.22587600181304       -1.56640082137256
H            8.59925769815877       -0.70845413820999       -4.53621227174586
H            9.39021787984402        0.12075211170909       -5.90667717304778
H           10.02802079431740        0.32893571318054       -4.26021551848051
H            8.11205416393829        3.57846656643699       -4.89771210290770
H            9.73035852634746        2.95143286463477       -4.50237080393096
H            9.07639208368397        2.72593609143770       -6.14109441789332
H           -7.70864915302893        1.44986639518282       -2.41531343443643
H           -8.50208980464196        1.44649094829697       -4.02198789001850
H           -9.36965371566460        2.07971458057251       -2.60051703260581
H          -10.91967570646147       -1.37897845423158       -3.12519269124328
H          -11.33034755617163        0.34877881306061       -3.00631120392542
H          -10.47316302798588       -0.26418171983839       -4.43883992269699
H            4.24545391204247       -6.00057924466753        2.70162298304878
H            0.41383609241613       -7.82590482163711        1.81535781350388
H            1.10315621816922        7.26980811022824       -2.07670288681374
H           -3.19784727698381        7.29948176745405       -1.52502453874422
O            3.43422462550957       -3.50184535543389        2.02128515575512
O           -0.74448101240903       -5.48933552381420        1.05819828368427
O            1.37194408963220        4.66549052775596       -1.31725220844942
O           -3.31011619112899        4.71184953424727       -0.70799850644016
C            4.76598774783924       -3.53837385489493        2.43386267850033
C            5.77930301866151       -3.81898960491667        1.50682797389906
C            5.07977852513691       -3.21452939039163        3.76065473864068
C            7.11767393745360       -3.78170945245996        1.91931938197743
H            5.50937073377214       -4.05837800978201        0.47288783629001
C            6.42194856652843       -3.17910382069757        4.16129188104289
H            4.26596442187181       -2.98993578555438        4.45778180151228
C            7.44247742005009       -3.46411038322688        3.24461216380333
H            7.91341975408905       -3.99987464941500        1.19793354779584
H            6.67309615929232       -2.92598925285225        5.19746648717830
H            8.49323336245214       -3.43654395216161        3.56280252823826
C           -1.71785085923259       -6.47052010935930        1.21650905402231
C           -2.11049331255258       -6.91433980284419        2.48751696974882
C           -2.35874668999858       -6.94815928503925        0.06499958643256
C           -3.13771477072604       -7.85946035917561        2.59791319635656
H           -1.61229381275390       -6.51338355145158        3.37668651316129
C           -3.39058398630283       -7.88669783537693        0.18987013711022
H           -2.04150567305115       -6.56765493928429       -0.91126207521512
C           -3.77871234599648       -8.35037353733382        1.45319586257390
H           -3.44453944219210       -8.21167039367950        3.58896801636399
H           -3.89378061379840       -8.26018293750904       -0.70857646062965
H           -4.58259403438396       -9.09240952595911        1.54679238665879
C            2.64108481039976        5.21260733368513       -1.19765656142042
C            2.94171923202118        6.27486273068193       -0.32971475226552
C            3.66447077352570        4.58130553401933       -1.92330706405333
C            4.26713532732092        6.71330587758329       -0.21285898828524
H            2.14366366845677        6.74946898533931        0.25169431066864
C            4.98490398700016        5.02135641842280       -1.78948308677471
H            3.41689007621859        3.74102844429357       -2.57990205105188
C            5.29187987343408        6.09384997742149       -0.94027367136698
H            4.50086515641965        7.54653724807031        0.46197018172817
H            5.76722415473701        4.50801254650362       -2.35960087842909
H            6.32690987135799        6.44569717637743       -0.83990992560182
C           -4.59045005094290        5.10949577325815       -1.07526911130798
C           -4.94482444713551        5.31852174678994       -2.41600944667544
C           -5.55353623753310        5.21014048688973       -0.06084685389480
C           -6.26798334092743        5.64918718609348       -2.73336500573144
H           -4.18616558085813        5.21438211075887       -3.19884045251378
C           -6.87474862494279        5.53397991111544       -0.39302175725162
H           -5.24988445621536        5.02362591912679        0.97408452986605
C           -7.23580413282593        5.76071078156273       -1.72702142317400
H           -6.54778228196873        5.81290766799359       -3.77974946775721
H           -7.62849681552978        5.61137140908065        0.39796493725173
H           -8.27182251072030        6.01884158341967       -1.98346360015881
N            1.28548984195099        0.53371270413499        0.34791955949016
C            2.38827497018661        1.20116576449169        0.40606436535561
C            2.65250506950073        2.11902428304744        1.46505612148131
C            3.85654509726004        2.76444738315249        1.54991662406786
C            4.84072231747645        2.56243390972170        0.58200423256964
C            4.60940965741336        1.70127115974008       -0.47670622387991
C            3.41683910447381        1.01121690359021       -0.57107931622412
S            3.01726804408517       -0.09443754736495       -1.87484701658080
C            4.67719203670975       -0.78386227692389       -2.31618822001222
C            4.49100579056768       -2.04646458484988       -3.09307271167185
C            3.96075512532237       -3.17293042211553       -2.47342619779313
C            3.79065313368359       -4.34611092667360       -3.18447657826430
C            4.14458961119205       -4.40685508295738       -4.52259961319770
C            4.67019727444224       -3.28858538544966       -5.14675582009178
C            4.83941994770206       -2.11321608222287       -4.43588113363225
H            1.86591953126927        2.27092185136982        2.18766616620431
H            4.05274153757878        3.43576107030967        2.37294826536415
H            5.77802982419450        3.08979408637156        0.64926307093658
H            5.35782220797218        1.58487208522592       -1.24419156367658
H            5.18502692671768       -0.96801626958106       -1.36989272804531
H            5.21494616983290       -0.03707116372030       -2.89635342249715
H            3.67466764434554       -3.12072202566210       -1.43226991664112
H            3.38116075088183       -5.21702989890427       -2.69524059977821
H            4.01046333504074       -5.32369439818321       -5.07705254478836
H            4.94527662265470       -3.32772839933614       -6.18990255395468
H            5.25481966401132       -1.24469384037995       -4.92514116796097

 Bond Distances (Angstroems)
 ---------------------------
N1-C4=1.3706         N1-C9=1.3744         N1-Fe47=2.0308       N2-C11=1.3723        N2-C16=1.3719        N2-Fe47=2.0271       
C3-C4=1.4126         C3-C39=1.4105        C3-C106=1.5082       C4-N1=1.3706         C4-C3=1.4126         C4-C5=1.4512         
C5-C4=1.4512         C5-H6=1.0909         C5-C7=1.3659         H6-C5=1.0909         C7-C5=1.3659         C7-H8=1.0910         
C7-C9=1.4506         H8-C7=1.0910         C9-N1=1.3744         C9-C7=1.4506         C9-C10=1.4087        C10-C9=1.4087        
C10-C11=1.4093       C10-C17=1.5061       C11-N2=1.3723        C11-C10=1.4093       C11-C12=1.4506       C12-C11=1.4506       
C12-H13=1.0911       C12-C14=1.3659       H13-C12=1.0911       C14-C12=1.3659       C14-H15=1.0909       C14-C16=1.4506       
H15-C14=1.0909       C16-N2=1.3719        C16-C14=1.4506       C16-C26=1.4108       C17-C10=1.5061       C17-C18=1.4149       
C17-C23=1.4160       C18-C17=1.4149       C18-C19=1.4066       C18-O167=1.3778      C19-C18=1.4066       C19-C20=1.3980       
C19-H163=1.0963      C20-C19=1.3980       C20-H21=1.0980       C20-C22=1.3972       H21-C20=1.0980       C22-C20=1.3972       
C22-C23=1.4079       C22-H164=1.0961      C23-C17=1.4160       C23-C22=1.4079       C23-O168=1.3749      N24-C27=1.3723       
N24-C32=1.3748       N24-Fe47=2.0191      N25-C34=1.3725       N25-C39=1.3732       N25-Fe47=2.0151      C26-C16=1.4108       
C26-C27=1.4123       C26-C49=1.5091       C27-N24=1.3723       C27-C26=1.4123       C27-C28=1.4493       C28-C27=1.4493       
C28-H29=1.0909       C28-C30=1.3672       H29-C28=1.0909       C30-C28=1.3672       C30-H31=1.0905       C30-C32=1.4483       
H31-C30=1.0905       C32-N24=1.3748       C32-C30=1.4483       C32-C33=1.4077       C33-C32=1.4077       C33-C34=1.4083       
C33-C40=1.5046       C34-N25=1.3725       C34-C33=1.4083       C34-C35=1.4493       C35-C34=1.4493       C35-H36=1.0907       
C35-C37=1.3658       H36-C35=1.0907       C37-C35=1.3658       C37-H38=1.0909       C37-C39=1.4506       H38-C37=1.0909       
C39-C3=1.4105        C39-N25=1.3732       C39-C37=1.4506       C40-C33=1.5046       C40-C41=1.4165       C40-C46=1.4148       
C41-C40=1.4165       C41-C42=1.4067       C41-O169=1.3778      C42-C41=1.4067       C42-C43=1.3983       C42-H165=1.0961      
C43-C42=1.3983       C43-H44=1.0980       C43-C45=1.3980       H44-C43=1.0980       C45-C43=1.3980       C45-C46=1.4077       
C45-H166=1.0964      C46-C40=1.4148       C46-C45=1.4077       C46-O170=1.3755      Fe47-N1=2.0308       Fe47-N2=2.0271       
Fe47-N24=2.0191      Fe47-N25=2.0151      Fe47-Cl48=2.3122     Fe47-N215=1.6301     Cl48-Fe47=2.3122     C49-C26=1.5091       
C49-C50=1.4204       C49-C51=1.4231       C50-C49=1.4204       C50-C52=1.4093       C50-N53=1.4193       C51-C49=1.4231       
C51-C54=1.4116       C51-N55=1.4150       C52-C50=1.4093       C52-H56=1.0933       C52-C57=1.3982       N53-C50=1.4193       
N53-C58=1.3765       N53-H59=1.0214       C54-C51=1.4116       C54-C57=1.3974       C54-H60=1.0929       N55-C51=1.4150       
N55-C61=1.3812       N55-H62=1.0245       H56-C52=1.0933       C57-C52=1.3982       C57-C54=1.3974       C57-H63=1.0977       
C58-N53=1.3765       C58-O64=1.2261       C58-C65=1.5146       H59-N53=1.0214       H60-C54=1.0929       C61-N55=1.3812       
C61-O66=1.2273       C61-C67=1.5099       H62-N55=1.0245       H63-C57=1.0977       O64-C58=1.2261       C65-C58=1.5146       
C65-C68=1.5075       C65-H69=1.0954       C65-C70=1.5334       O66-C61=1.2273       C67-C61=1.5099       C67-C71=1.5085       
C67-H72=1.0961       C67-C73=1.5347       C68-C65=1.5075       C68-C70=1.5097       C68-H74=1.0927       C68-H75=1.0919       
H69-C65=1.0954       C70-C65=1.5334       C70-C68=1.5097       C70-H76=1.0929       C70-C77=1.4955       C71-C67=1.5085       
C71-C73=1.5102       C71-H78=1.0937       C71-H79=1.0935       H72-C67=1.0961       C73-C67=1.5347       C73-C71=1.5102       
C73-H80=1.0944       C73-C81=1.4919       H74-C68=1.0927       H75-C68=1.0919       H76-C70=1.0929       C77-C70=1.4955       
C77-O82=1.3433       C77-O83=1.2168       H78-C71=1.0937       H79-C71=1.0935       H80-C73=1.0944       C81-C73=1.4919       
C81-O84=1.3515       C81-O85=1.2145       O82-C77=1.3433       O82-C86=1.4588       O83-C77=1.2168       O84-C81=1.3515       
O84-C87=1.4553       O85-C81=1.2145       C86-O82=1.4588       C86-C88=1.5349       C86-C89=1.5279       C86-H90=1.1046       
C87-O84=1.4553       C87-C91=1.5295       C87-C92=1.5328       C87-H93=1.1066       C88-C86=1.5349       C88-H94=1.1023       
C88-H95=1.0981       C88-H96=1.0987       C89-C86=1.5279       C89-H97=1.0976       C89-H98=1.0983       C89-H99=1.0975       
H90-C86=1.1046       C91-C87=1.5295       C91-H100=1.0977      C91-H101=1.1004      C91-H102=1.0987      C92-C87=1.5328       
C92-H103=1.0985      C92-H104=1.0989      C92-H105=1.1007      H93-C87=1.1066       H94-C88=1.1023       H95-C88=1.0981       
H96-C88=1.0987       H97-C89=1.0976       H98-C89=1.0983       H99-C89=1.0975       H100-C91=1.0977      H101-C91=1.1004      
H102-C91=1.0987      H103-C92=1.0985      H104-C92=1.0989      H105-C92=1.1007      C106-C3=1.5082       C106-C107=1.4215     
C106-C108=1.4221     C107-C106=1.4215     C107-C109=1.4093     C107-N110=1.4175     C108-C106=1.4221     C108-C111=1.4111     
C108-N112=1.4147     C109-C107=1.4093     C109-H113=1.0938     C109-C114=1.3990     N110-C107=1.4175     N110-C115=1.3771     
N110-H116=1.0218     C111-C108=1.4111     C111-C114=1.3981     C111-H117=1.0933     N112-C108=1.4147     N112-C118=1.3803     
N112-H119=1.0236     H113-C109=1.0938     C114-C109=1.3990     C114-C111=1.3981     C114-H120=1.0978     C115-N110=1.3771     
C115-O121=1.2256     C115-C122=1.5147     H116-N110=1.0218     H117-C111=1.0933     C118-N112=1.3803     C118-O123=1.2270     
C118-C124=1.5095     H119-N112=1.0236     H120-C114=1.0978     O121-C115=1.2256     C122-C115=1.5147     C122-C125=1.5083     
C122-H126=1.0953     C122-C127=1.5288     O123-C118=1.2270     C124-C118=1.5095     C124-C128=1.5070     C124-H129=1.0963     
C124-C130=1.5364     C125-C122=1.5083     C125-C127=1.5113     C125-H131=1.0931     C125-H132=1.0926     H126-C122=1.0953     
C127-C122=1.5288     C127-C125=1.5113     C127-H133=1.0932     C127-C134=1.4950     C128-C124=1.5070     C128-C130=1.5095     
C128-H135=1.0932     C128-H136=1.0933     H129-C124=1.0963     C130-C124=1.5364     C130-C128=1.5095     C130-H137=1.0944     
C130-C138=1.4927     H131-C125=1.0931     H132-C125=1.0926     H133-C127=1.0932     C134-C127=1.4950     C134-O139=1.3444     
C134-O140=1.2178     H135-C128=1.0932     H136-C128=1.0933     H137-C130=1.0944     C138-C130=1.4927     C138-O141=1.3506     
C138-O142=1.2146     O139-C134=1.3444     O139-C143=1.4579     O140-C134=1.2178     O141-C138=1.3506     O141-C144=1.4558     
O142-C138=1.2146     C143-O139=1.4579     C143-C145=1.5296     C143-C146=1.5313     C143-H147=1.1071     C144-O141=1.4558     
C144-C148=1.5341     C144-C149=1.5283     C144-H150=1.1052     C145-C143=1.5296     C145-H151=1.0980     C145-H152=1.1006     
C145-H153=1.0985     C146-C143=1.5313     C146-H154=1.0975     C146-H155=1.0987     C146-H156=1.1009     H147-C143=1.1071     
C148-C144=1.5341     C148-H157=1.1021     C148-H158=1.0988     C148-H159=1.0989     C149-C144=1.5283     C149-H160=1.0991     
C149-H161=1.0983     C149-H162=1.0979     H150-C144=1.1052     H151-C145=1.0980     H152-C145=1.1006     H153-C145=1.0985     
H154-C146=1.0975     H155-C146=1.0987     H156-C146=1.1009     H157-C148=1.1021     H158-C148=1.0988     H159-C148=1.0989     
H160-C149=1.0991     H161-C149=1.0983     H162-C149=1.0979     H163-C19=1.0963      H164-C22=1.0961      H165-C42=1.0961      
H166-C45=1.0964      O167-C18=1.3778      O167-C171=1.3947     O168-C23=1.3749      O168-C182=1.3911     O169-C41=1.3778      
O169-C193=1.3872     O170-C46=1.3755      O170-C204=1.3901     C171-O167=1.3947     C171-C172=1.4018     C171-C173=1.4013     
C172-C171=1.4018     C172-C174=1.4010     C172-H175=1.0951     C173-C171=1.4013     C173-C176=1.4011     C173-H177=1.0949     
C174-C172=1.4010     C174-C178=1.4010     C174-H179=1.0960     H175-C172=1.0951     C176-C173=1.4011     C176-C178=1.4011     
C176-H180=1.0958     H177-C173=1.0949     C178-C174=1.4010     C178-C176=1.4011     C178-H181=1.0982     H179-C174=1.0960     
H180-C176=1.0958     H181-C178=1.0982     C182-O168=1.3911     C182-C183=1.4024     C182-C184=1.4017     C183-C182=1.4024     
C183-C185=1.4002     C183-H186=1.0953     C184-C182=1.4017     C184-C187=1.4004     C184-H188=1.0948     C185-C183=1.4002     
C185-C189=1.4008     C185-H190=1.0956     H186-C183=1.0953     C187-C184=1.4004     C187-C189=1.4006     C187-H191=1.0954     
H188-C184=1.0948     C189-C185=1.4008     C189-C187=1.4006     C189-H192=1.0980     H190-C185=1.0956     H191-C187=1.0954     
H192-C189=1.0980     C193-O169=1.3872     C193-C194=1.4043     C193-C195=1.4044     C194-C193=1.4043     C194-C196=1.4009     
C194-H197=1.0955     C195-C193=1.4044     C195-C198=1.3982     C195-H199=1.0948     C196-C194=1.4009     C196-C200=1.4011     
C196-H201=1.0974     H197-C194=1.0955     C198-C195=1.3982     C198-C200=1.4020     C198-H202=1.0957     H199-C195=1.0948     
C200-C196=1.4011     C200-C198=1.4020     C200-H203=1.0978     H201-C196=1.0974     H202-C198=1.0957     H203-C200=1.0978     
C204-O170=1.3901     C204-C205=1.4024     C204-C206=1.4024     C205-C204=1.4024     C205-C207=1.4003     C205-H208=1.0951     
C206-C204=1.4024     C206-C209=1.4003     C206-H210=1.0946     C207-C205=1.4003     C207-C211=1.4007     C207-H212=1.0955     
H208-C205=1.0951     C209-C206=1.4003     C209-C211=1.4005     C209-H213=1.0953     H210-C206=1.0946     C211-C207=1.4007     
C211-C209=1.4005     C211-H214=1.0981     H212-C207=1.0955     H213-C209=1.0953     H214-C211=1.0981     N215-Fe47=1.6301     
N215-C216=1.2904     C216-N215=1.2904     C216-C217=1.4261     C216-C221=1.4314     C217-C216=1.4261     C217-C218=1.3688     
C217-H230=1.0789     C218-C217=1.3688     C218-C219=1.3951     C218-H231=1.0801     C219-C218=1.3951     C219-C220=1.3842     
C219-H232=1.0776     C220-C219=1.3842     C220-C221=1.3811     C220-H233=1.0783     C221-C216=1.4314     C221-C220=1.3811     
C221-S222=1.7555     S222-C221=1.7555     S222-C223=1.8508     C223-S222=1.8508     C223-C224=1.4941     C223-H234=1.0896     
C223-H235=1.0879     C224-C223=1.4941     C224-C225=1.3907     C224-C229=1.3889     C225-C224=1.3907     C225-C226=1.3823     
C225-H236=1.0810     C226-C225=1.3823     C226-C227=1.3855     C226-H237=1.0796     C227-C226=1.3855     C227-C228=1.3843     
C227-H238=1.0798     C228-C227=1.3843     C228-C229=1.3840     C228-H239=1.0795     C229-C224=1.3889     C229-C228=1.3840     
C229-H240=1.0799     H230-C217=1.0789     H231-C218=1.0801     H232-C219=1.0776     H233-C220=1.0783     H234-C223=1.0896     
H235-C223=1.0879     H236-C225=1.0810     H237-C226=1.0796     H238-C227=1.0798     H239-C228=1.0795     H240-C229=1.0799     
 C  H  Rav=1.0946 sigma=0.0060  Rmin=1.0776  Rmax=1.1071    95
 C  C  Rav=1.4379 sigma=0.0528  Rmin=1.3658  Rmax=1.5364   113
 N  H  Rav=1.0228 sigma=0.0012  Rmin=1.0214  Rmax=1.0245     4
 N  C  Rav=1.3796 sigma=0.0286  Rmin=1.2904  Rmax=1.4193    17
 O  C  Rav=1.3357 sigma=0.0874  Rmin=1.2145  Rmax=1.4588    24
 S  C  Rav=1.8032 sigma=0.0476  Rmin=1.7555  Rmax=1.8508     2
 Fe N  Rav=1.9444 sigma=0.1573  Rmin=1.6301  Rmax=2.0308     5
 Fe Cl Rav=2.3122 sigma=0.0000  Rmin=2.3122  Rmax=2.3122     1

 selected bond angles (degree)
 --------------------
C9-N1-C4=107.02                Fe47-N1-C4=126.35              Fe47-N1-C9=126.61              C16-N2-C11=107.12              
Fe47-N2-C11=126.66             Fe47-N2-C16=126.20             C39-C3-C4=123.15               C106-C3-C4=117.39              
C106-C3-C39=119.45             C3-C4-N1=126.29                C5-C4-N1=109.73                C5-C4-C3=123.93                
H6-C5-C4=124.63                C7-C5-C4=106.75                C7-C5-H6=128.62                H8-C7-C5=128.41                
C9-C7-C5=106.92                C9-C7-H8=124.65                C7-C9-N1=109.52                C10-C9-N1=126.26               
C10-C9-C7=124.03               C11-C10-C9=122.76              C17-C10-C9=118.77              C17-C10-C11=118.25             

 selected dihedral angles (degree)
 ---------------------------------
C3-C4-N1-C9=182.25            C3-C4-N1-Fe47=  1.24          C5-C4-N1-C9=359.84            C5-C4-N1-Fe47=178.84          
N1-C4-C3-C39=  6.40           N1-C4-C3-C106=186.34          C5-C4-C3-C39=189.13           C5-C4-C3-C106=  9.08          
H6-C5-C4-N1=179.48            H6-C5-C4-C3=357.14            C7-C5-C4-N1=358.66            C7-C5-C4-C3=176.32            
H8-C7-C5-C4=180.69            H8-C7-C5-H6=359.82            C9-C7-C5-C4=  2.19            C9-C7-C5-H6=181.32            
C7-C9-N1-C4=  1.54            C7-C9-N1-Fe47=182.54          C10-C9-N1-C4=186.39           C10-C9-N1-Fe47=  7.39         
N1-C9-C7-C5=357.61            N1-C9-C7-H8=179.04            C10-C9-C7-C5=172.89           C10-C9-C7-H8=354.32           
C11-C10-C9-N1=  5.45          C11-C10-C9-C7=190.97          C17-C10-C9-N1=179.89          C17-C10-C9-C7=  5.41          
           -------------------------------------------------
          |                Final Singlepoint                |
           -------------------------------------------------

          ...................................................
          :                      SETUP                      :
          :.................................................:
          :  # basis functions                 681          :
          :  # atomic orbitals                 678          :
          :  # shells                          384          :
          :  # electrons                       713          :
          :  max. iterations                   250          :
          :  Hamiltonian                  GFN2-xTB          :
          :  restarted?                      false          :
          :  GBSA solvation                   true          :
          :  PC potential                    false          :
          :  electronic temp.          300.0000000     K    :
          :  accuracy                    1.0000000          :
          :  -> integral cutoff          0.2500000E+02      :
          :  -> integral neglect         0.1000000E-07      :
          :  -> SCF convergence          0.1000000E-05 Eh   :
          :  -> wf. convergence          0.1000000E-03 e    :
          :  Broyden damping             0.4000000          :
          :  net charge                          0          :
          :  unpaired electrons                  0          :
          ...................................................

 iter      E             dE          RMSdq      gap      omega  full diag
   1   -400.4986346 -0.400499E+03  0.113E-04    0.08       0.0  T
   2   -400.4986346  0.142336E-08  0.131E-04    0.08      49.2  T
   3   -400.4986346 -0.335143E-08  0.383E-05    0.08     168.7  T

   *** convergence criteria satisfied after 3 iterations ***

         #    Occupation            Energy/Eh            Energy/eV
      -------------------------------------------------------------
         1        2.0000           -1.0141475             -27.5964
       ...           ...                  ...                  ...
       351        2.0000           -0.3783458             -10.2953
       352        2.0000           -0.3771157             -10.2618
       353        2.0000           -0.3731826             -10.1548
       354        2.0000           -0.3726878             -10.1414
       355        2.0000           -0.3683407             -10.0231
       356        2.0000           -0.3592334              -9.7752
       357        0.8344           -0.3303192              -8.9884 (HOMO)
       358        0.1656           -0.3272463              -8.9048 (LUMO)
       359                         -0.3033307              -8.2540
       360                         -0.3012822              -8.1983
       361                         -0.2651743              -7.2158
       362                         -0.2608731              -7.0987
       ...                                ...                  ...
       678                          1.5231478              41.4470
      -------------------------------------------------------------
                  HL-Gap            0.0030729 Eh            0.0836 eV
             Fermi-level           -0.3367887 Eh           -9.1645 eV

 SCC (total)                   0 d,  0 h,  0 min,  0.580 sec
 SCC setup                      ...        0 min,  0.004 sec (  0.682%)
 Dispersion                     ...        0 min,  0.004 sec (  0.644%)
 classical contributions        ...        0 min,  0.001 sec (  0.139%)
 integral evaluation            ...        0 min,  0.024 sec (  4.203%)
 iterations                     ...        0 min,  0.204 sec ( 35.115%)
 molecular gradient             ...        0 min,  0.325 sec ( 55.947%)
 printout                       ...        0 min,  0.019 sec (  3.267%)

         :::::::::::::::::::::::::::::::::::::::::::::::::::::
         ::                     SUMMARY                     ::
         :::::::::::::::::::::::::::::::::::::::::::::::::::::
         :: total energy            -395.138752543504 Eh    ::
         :: total w/o Gsasa/hb      -395.025392463773 Eh    ::
         :: gradient norm              0.000439168842 Eh/a0 ::
         :: HOMO-LUMO gap              0.083616788600 eV    ::
         ::.................................................::
         :: SCC energy              -400.474511083840 Eh    ::
         :: -> isotropic ES            0.495505723275 Eh    ::
         :: -> anisotropic ES          0.001357874439 Eh    ::
         :: -> anisotropic XC          0.163788022807 Eh    ::
         :: -> dispersion             -0.350771312926 Eh    ::
         :: -> Gsolv                  -0.158405813963 Eh    ::
         ::    -> Gelec               -0.045045734231 Eh    ::
         ::    -> Gsasa               -0.112058644397 Eh    ::
         ::    -> Ghb                 -0.006254872911 Eh    ::
         ::    -> Gshift               0.004953437577 Eh    ::
         :: repulsion energy           5.325091080825 Eh    ::
         :: add. restraining           0.010667459510 Eh    ::
         :: total charge              -0.000000000004 e     ::
         :::::::::::::::::::::::::::::::::::::::::::::::::::::

           -------------------------------------------------
          |                Property Printout                |
           -------------------------------------------------

    * Orbital Energies and Occupations

         #    Occupation            Energy/Eh            Energy/eV
      -------------------------------------------------------------
         1        2.0000           -1.0141475             -27.5964
       ...           ...                  ...                  ...
       345        2.0000           -0.3872362             -10.5372
       346        2.0000           -0.3852991             -10.4845
       347        2.0000           -0.3837578             -10.4426
       348        2.0000           -0.3820341             -10.3957
       349        2.0000           -0.3813250             -10.3764
       350        2.0000           -0.3804600             -10.3528
       351        2.0000           -0.3783458             -10.2953
       352        2.0000           -0.3771157             -10.2618
       353        2.0000           -0.3731826             -10.1548
       354        2.0000           -0.3726878             -10.1414
       355        2.0000           -0.3683407             -10.0231
       356        2.0000           -0.3592334              -9.7752
       357        0.8344           -0.3303192              -8.9884 (HOMO)
       358        0.1656           -0.3272463              -8.9048 (LUMO)
       359                         -0.3033307              -8.2540
       360                         -0.3012822              -8.1983
       361                         -0.2651743              -7.2158
       362                         -0.2608731              -7.0987
       363                         -0.2596903              -7.0665
       364                         -0.2593489              -7.0572
       365                         -0.2517009              -6.8491
       366                         -0.2510920              -6.8326
       367                         -0.2439913              -6.6393
       368                         -0.2414246              -6.5695
       ...                                ...                  ...
       678                          1.5231478              41.4470
      -------------------------------------------------------------
                  HL-Gap            0.0030729 Eh            0.0836 eV
             Fermi-level           -0.3367887 Eh           -9.1645 eV

     #   Z          covCN         q      C6AA      α(0)
     1   7 N        2.612    -0.199    25.344     7.477
     2   7 N        2.615    -0.206    25.493     7.499
     3   6 C        2.949    -0.016    28.400     8.741
     4   6 C        3.094     0.075    26.216     8.392
     5   6 C        2.988    -0.045    29.110     8.850
     6   1 H        0.924     0.042     2.418     2.432
     7   6 C        2.990    -0.038    28.927     8.823
     8   1 H        0.924     0.039     2.460     2.453
     9   6 C        3.093     0.082    26.075     8.369
    10   6 C        2.949     0.011    27.765     8.642
    11   6 C        3.091     0.080    26.115     8.376
    12   6 C        2.992    -0.043    29.049     8.841
    13   1 H        0.924     0.036     2.508     2.477
    14   6 C        2.988    -0.051    29.247     8.871
    15   1 H        0.924     0.043     2.414     2.430
    16   6 C        3.093     0.070    26.323     8.409
    17   6 C        2.960    -0.030    28.756     8.796
    18   6 C        2.855     0.143    24.892     8.178
    19   6 C        2.902    -0.073    29.829     8.955
    20   6 C        2.909    -0.035    28.870     8.811
    21   1 H        0.923     0.055     2.264     2.353
    22   6 C        2.902    -0.072    29.802     8.951
    23   6 C        2.853     0.143    24.889     8.177
    24   7 N        2.620    -0.204    25.442     7.491
    25   7 N        2.621    -0.208    25.533     7.505
    26   6 C        2.949    -0.019    28.479     8.753
    27   6 C        3.090     0.071    26.321     8.409
    28   6 C        2.990    -0.051    29.258     8.873
    29   1 H        0.924     0.043     2.404     2.425
    30   6 C        2.990    -0.042    29.044     8.840
    31   1 H        0.924     0.039     2.458     2.452
    32   6 C        3.091     0.079    26.145     8.381
    33   6 C        2.950     0.009    27.828     8.652
    34   6 C        3.095     0.080    26.113     8.375
    35   6 C        2.991    -0.043    29.053     8.842
    36   1 H        0.924     0.036     2.505     2.475
    37   6 C        2.990    -0.051    29.261     8.873
    38   1 H        0.924     0.044     2.398     2.421
    39   6 C        3.093     0.071    26.308     8.407
    40   6 C        2.961    -0.029    28.716     8.790
    41   6 C        2.849     0.140    24.941     8.185
    42   6 C        2.902    -0.070    29.734     8.941
    43   6 C        2.909    -0.035    28.878     8.812
    44   1 H        0.923     0.057     2.232     2.336
    45   6 C        2.902    -0.070    29.749     8.943
    46   6 C        2.851     0.142    24.899     8.178
    47  26 Fe       4.579     0.836     4.991     7.207
    48  17 Cl       0.750    -0.555   117.532    16.583
    49   6 C        2.966    -0.027    28.673     8.783
    50   6 C        2.893     0.071    26.404     8.425
    51   6 C        2.894     0.076    26.308     8.410
    52   6 C        2.903    -0.055    29.368     8.886
    53   7 N        2.688    -0.159    24.430     7.341
    54   6 C        2.904    -0.054    29.339     8.881
    55   7 N        2.688    -0.160    24.465     7.346
    56   1 H        0.924     0.077     2.015     2.220
    57   6 C        2.908    -0.032    28.785     8.797
    58   6 C        2.746     0.276    22.332     7.738
    59   1 H        0.860     0.193     1.142     1.674
    60   1 H        0.924     0.079     1.991     2.207
    61   6 C        2.747     0.278    22.294     7.731
    62   1 H        0.859     0.198     1.115     1.654
    63   1 H        0.924     0.054     2.276     2.359
    64   8 O        0.857    -0.459    22.888     6.414
    65   6 C        3.856    -0.040    21.252     6.556
    66   8 O        0.857    -0.460    22.926     6.420
    67   6 C        3.856    -0.038    21.221     6.552
    68   6 C        3.803    -0.052    21.511     6.603
    69   1 H        0.924     0.057     2.231     2.336
    70   6 C        3.855    -0.042    21.289     6.562
    71   6 C        3.802    -0.049    21.449     6.594
    72   1 H        0.924     0.068     2.113     2.273
    73   6 C        3.855    -0.041    21.276     6.560
    74   1 H        0.924     0.079     1.985     2.203
    75   1 H        0.924     0.073     2.050     2.239
    76   1 H        0.924     0.083     1.944     2.180
    77   6 C        2.702     0.358    20.920     7.486
    78   1 H        0.924     0.073     2.051     2.239
    79   1 H        0.924     0.087     1.907     2.159
    80   1 H        0.924     0.081     1.973     2.196
    81   6 C        2.703     0.358    20.917     7.486
    82   8 O        1.700    -0.288    18.794     5.853
    83   8 O        0.856    -0.460    22.920     6.419
    84   8 O        1.700    -0.295    18.904     5.870
    85   8 O        0.856    -0.453    22.773     6.398
    86   6 C        3.729     0.118    18.742     6.180
    87   6 C        3.730     0.121    18.688     6.171
    88   6 C        3.746    -0.119    22.848     6.818
    89   6 C        3.747    -0.125    22.958     6.834
    90   1 H        0.923     0.053     2.286     2.365
    91   6 C        3.747    -0.122    22.907     6.827
    92   6 C        3.746    -0.119    22.843     6.818
    93   1 H        0.922     0.045     2.384     2.415
    94   1 H        0.923     0.048     2.350     2.397
    95   1 H        0.923     0.060     2.196     2.317
    96   1 H        0.923     0.062     2.180     2.309
    97   1 H        0.924     0.057     2.237     2.339
    98   1 H        0.923     0.063     2.163     2.300
    99   1 H        0.924     0.065     2.146     2.291
   100   1 H        0.924     0.055     2.255     2.348
   101   1 H        0.923     0.064     2.148     2.292
   102   1 H        0.923     0.061     2.183     2.311
   103   1 H        0.923     0.049     2.328     2.386
   104   1 H        0.923     0.060     2.197     2.318
   105   1 H        0.923     0.058     2.221     2.331
   106   6 C        2.967    -0.027    28.681     8.784
   107   6 C        2.893     0.073    26.374     8.420
   108   6 C        2.894     0.075    26.313     8.410
   109   6 C        2.903    -0.055    29.354     8.884
   110   7 N        2.689    -0.159    24.448     7.344
   111   6 C        2.903    -0.054    29.347     8.883
   112   7 N        2.689    -0.160    24.469     7.347
   113   1 H        0.924     0.077     2.015     2.220
   114   6 C        2.908    -0.032    28.785     8.797
   115   6 C        2.746     0.277    22.304     7.733
   116   1 H        0.860     0.198     1.118     1.656
   117   1 H        0.924     0.077     2.006     2.215
   118   6 C        2.746     0.278    22.299     7.732
   119   1 H        0.859     0.197     1.123     1.660
   120   1 H        0.924     0.054     2.274     2.358
   121   8 O        0.857    -0.458    22.875     6.412
   122   6 C        3.857    -0.040    21.242     6.555
   123   8 O        0.857    -0.460    22.920     6.419
   124   6 C        3.856    -0.038    21.214     6.551
   125   6 C        3.803    -0.050    21.470     6.597
   126   1 H        0.924     0.063     2.160     2.298
   127   6 C        3.855    -0.039    21.234     6.554
   128   6 C        3.803    -0.049    21.456     6.595
   129   1 H        0.924     0.064     2.147     2.292
   130   6 C        3.855    -0.041    21.269     6.559
   131   1 H        0.924     0.077     2.008     2.216
   132   1 H        0.924     0.069     2.098     2.265
   133   1 H        0.924     0.080     1.984     2.203
   134   6 C        2.703     0.359    20.915     7.485
   135   1 H        0.924     0.075     2.032     2.229
   136   1 H        0.924     0.086     1.917     2.165
   137   1 H        0.924     0.080     1.981     2.201
   138   6 C        2.703     0.358    20.920     7.486
   139   8 O        1.700    -0.291    18.830     5.859
   140   8 O        0.856    -0.460    22.913     6.418
   141   8 O        1.700    -0.294    18.894     5.869
   142   8 O        0.856    -0.453    22.779     6.399
   143   6 C        3.730     0.122    18.685     6.171
   144   6 C        3.731     0.120    18.706     6.174
   145   6 C        3.747    -0.124    22.948     6.833
   146   6 C        3.746    -0.119    22.859     6.820
   147   1 H        0.922     0.046     2.367     2.406
   148   6 C        3.745    -0.117    22.816     6.814
   149   6 C        3.747    -0.124    22.948     6.833
   150   1 H        0.922     0.048     2.342     2.393
   151   1 H        0.923     0.056     2.245     2.343
   152   1 H        0.923     0.065     2.141     2.288
   153   1 H        0.923     0.063     2.159     2.298
   154   1 H        0.924     0.051     2.312     2.378
   155   1 H        0.923     0.061     2.187     2.313
   156   1 H        0.923     0.059     2.207     2.323
   157   1 H        0.923     0.048     2.347     2.396
   158   1 H        0.923     0.058     2.226     2.333
   159   1 H        0.923     0.059     2.210     2.325
   160   1 H        0.923     0.057     2.231     2.336
   161   1 H        0.923     0.062     2.172     2.305
   162   1 H        0.923     0.064     2.152     2.294
   163   1 H        0.924     0.046     2.372     2.409
   164   1 H        0.924     0.048     2.350     2.397
   165   1 H        0.924     0.053     2.287     2.365
   166   1 H        0.924     0.050     2.318     2.381
   167   8 O        1.706    -0.296    18.930     5.874
   168   8 O        1.706    -0.289    18.801     5.854
   169   8 O        1.707    -0.287    18.761     5.848
   170   8 O        1.706    -0.287    18.773     5.850
   171   6 C        2.853     0.137    24.996     8.194
   172   6 C        2.906    -0.047    29.169     8.856
   173   6 C        2.906    -0.048    29.180     8.857
   174   6 C        2.909    -0.032    28.793     8.799
   175   1 H        0.924     0.047     2.353     2.399
   176   6 C        2.909    -0.031    28.772     8.795
   177   1 H        0.924     0.050     2.316     2.380
   178   6 C        2.905    -0.035    28.874     8.811
   179   1 H        0.924     0.051     2.310     2.377
   180   1 H        0.924     0.051     2.304     2.374
   181   1 H        0.923     0.050     2.315     2.379
   182   6 C        2.851     0.139    24.972     8.190
   183   6 C        2.905    -0.050    29.237     8.866
   184   6 C        2.906    -0.047    29.162     8.855
   185   6 C        2.909    -0.032    28.794     8.799
   186   1 H        0.924     0.043     2.415     2.430
   187   6 C        2.909    -0.030    28.748     8.792
   188   1 H        0.924     0.052     2.298     2.370
   189   6 C        2.905    -0.037    28.907     8.816
   190   1 H        0.924     0.048     2.347     2.396
   191   1 H        0.924     0.051     2.305     2.374
   192   1 H        0.923     0.048     2.343     2.394
   193   6 C        2.846     0.137    25.012     8.197
   194   6 C        2.905    -0.055    29.373     8.887
   195   6 C        2.907    -0.046    29.144     8.852
   196   6 C        2.909    -0.032    28.797     8.799
   197   1 H        0.924     0.041     2.434     2.440
   198   6 C        2.908    -0.027    28.678     8.781
   199   1 H        0.924     0.045     2.378     2.411
   200   6 C        2.905    -0.039    28.964     8.825
   201   1 H        0.924     0.046     2.370     2.408
   202   1 H        0.924     0.053     2.283     2.363
   203   1 H        0.924     0.047     2.363     2.404
   204   6 C        2.850     0.138    24.980     8.192
   205   6 C        2.905    -0.051    29.262     8.870
   206   6 C        2.906    -0.049    29.207     8.862
   207   6 C        2.910    -0.032    28.801     8.800
   208   1 H        0.924     0.042     2.426     2.436
   209   6 C        2.909    -0.030    28.759     8.794
   210   1 H        0.924     0.052     2.301     2.372
   211   6 C        2.905    -0.037    28.925     8.819
   212   1 H        0.924     0.049     2.330     2.387
   213   1 H        0.924     0.051     2.313     2.379
   214   1 H        0.923     0.049     2.338     2.391
   215   7 N        1.746    -0.296    28.465     7.896
   216   6 C        2.963     0.112    25.534     8.288
   217   6 C        2.921    -0.038    28.943     8.822
   218   6 C        2.912    -0.030    28.743     8.791
   219   6 C        2.919    -0.034    28.836     8.806
   220   6 C        2.940    -0.037    28.919     8.820
   221   6 C        2.969     0.036    27.184     8.552
   222  16 S        2.081    -0.138   146.856    20.396
   223   6 C        3.800    -0.011    20.782     6.491
   224   6 C        3.014     0.009    27.807     8.650
   225   6 C        2.924    -0.032    28.787     8.799
   226   6 C        2.919    -0.029    28.728     8.789
   227   6 C        2.920    -0.032    28.809     8.802
   228   6 C        2.919    -0.030    28.745     8.792
   229   6 C        2.924    -0.037    28.914     8.818
   230   1 H        0.926     0.034     2.529     2.487
   231   1 H        0.926     0.059     2.208     2.323
   232   1 H        0.926     0.053     2.279     2.361
   233   1 H        0.926     0.060     2.194     2.316
   234   1 H        0.925     0.063     2.162     2.299
   235   1 H        0.925     0.055     2.263     2.353
   236   1 H        0.926     0.033     2.538     2.491
   237   1 H        0.926     0.039     2.464     2.454
   238   1 H        0.926     0.044     2.399     2.422
   239   1 H        0.926     0.044     2.393     2.419
   240   1 H        0.926     0.032     2.561     2.503

 Mol. C6AA /au·bohr⁶  :     746786.818518
 Mol. C8AA /au·bohr⁸  :   18588606.243075
 Mol. α(0) /au        :       1359.401712


Wiberg/Mayer (AO) data.
largest (>0.10) Wiberg bond orders for each atom

 ---------------------------------------------------------------------------
     #   Z sym  total        # sym  WBO       # sym  WBO       # sym  WBO
 ---------------------------------------------------------------------------
     1   7 N    3.450 --     4 C    1.250     9 C    1.243    47 Fe   0.598
     2   7 N    3.443 --    11 C    1.251    16 C    1.246    47 Fe   0.583
     3   6 C    3.927 --    39 C    1.308     4 C    1.301   106 C    1.002
     4   6 C    3.929 --     3 C    1.301     1 N    1.250     5 C    1.166
     5   6 C    3.953 --     7 C    1.652     4 C    1.166     6 H    0.969
     6   1 H    0.997 --     5 C    0.969
     7   6 C    3.955 --     5 C    1.652     9 C    1.167     8 H    0.969
     8   1 H    0.998 --     7 C    0.969
     9   6 C    3.924 --    10 C    1.317     1 N    1.243     7 C    1.167
    10   6 C    3.934 --     9 C    1.317    11 C    1.311    17 C    1.004
    11   6 C    3.923 --    10 C    1.311     2 N    1.251    12 C    1.166
    12   6 C    3.954 --    14 C    1.655    11 C    1.166    13 H    0.970
    13   1 H    0.998 --    12 C    0.970
    14   6 C    3.951 --    12 C    1.655    16 C    1.165    15 H    0.970
    15   1 H    0.997 --    14 C    0.970
    16   6 C    3.928 --    26 C    1.308     2 N    1.246    14 C    1.165
    17   6 C    3.973 --    18 C    1.340    23 C    1.337    10 C    1.004
                            20 C    0.101
    18   6 C    3.920 --    19 C    1.365    17 C    1.340   167 O    1.032
    19   6 C    3.977 --    20 C    1.438    18 C    1.365   163 H    0.964
    20   6 C    3.986 --    22 C    1.442    19 C    1.438    21 H    0.968
                            17 C    0.101
    21   1 H    0.996 --    20 C    0.968
    22   6 C    3.979 --    20 C    1.442    23 C    1.362   164 H    0.964
    23   6 C    3.920 --    22 C    1.362    17 C    1.337   168 O    1.037
    24   7 N    3.450 --    27 C    1.245    32 C    1.244    47 Fe   0.592
    25   7 N    3.442 --    34 C    1.250    39 C    1.243    47 Fe   0.585
    26   6 C    3.926 --    16 C    1.308    27 C    1.302    49 C    0.997
    27   6 C    3.928 --    26 C    1.302    24 N    1.245    28 C    1.169
    28   6 C    3.952 --    30 C    1.648    27 C    1.169    29 H    0.969
    29   1 H    0.997 --    28 C    0.969
    30   6 C    3.954 --    28 C    1.648    32 C    1.171    31 H    0.970
    31   1 H    0.998 --    30 C    0.970
    32   6 C    3.925 --    33 C    1.312    24 N    1.244    30 C    1.171
    33   6 C    3.934 --    32 C    1.312    34 C    1.312    40 C    1.005
    34   6 C    3.924 --    33 C    1.312    25 N    1.250    35 C    1.167
    35   6 C    3.955 --    37 C    1.654    34 C    1.167    36 H    0.970
    36   1 H    0.998 --    35 C    0.970
    37   6 C    3.952 --    35 C    1.654    39 C    1.164    38 H    0.969
    38   1 H    0.997 --    37 C    0.969
    39   6 C    3.929 --     3 C    1.308    25 N    1.243    37 C    1.164
    40   6 C    3.973 --    46 C    1.340    41 C    1.339    33 C    1.005
                            43 C    0.100
    41   6 C    3.920 --    42 C    1.368    40 C    1.339   169 O    1.031
    42   6 C    3.977 --    43 C    1.438    41 C    1.368   165 H    0.964
    43   6 C    3.985 --    45 C    1.441    42 C    1.438    44 H    0.968
                            40 C    0.100
    44   1 H    0.996 --    43 C    0.968
    45   6 C    3.976 --    43 C    1.441    46 C    1.364   166 H    0.964
    46   6 C    3.921 --    45 C    1.364    40 C    1.340   170 O    1.035
    47  26 Fe   5.197 --   215 N    1.548    48 Cl   0.601     1 N    0.598
                            24 N    0.592    25 N    0.585     2 N    0.583
    48  17 Cl   0.757 --    47 Fe   0.601
    49   6 C    3.972 --    50 C    1.348    51 C    1.339    26 C    0.997
    50   6 C    3.950 --    52 C    1.370    49 C    1.348    53 N    1.063
    51   6 C    3.950 --    54 C    1.364    49 C    1.339    55 N    1.077
    52   6 C    3.978 --    57 C    1.438    50 C    1.370    56 H    0.958
    53   7 N    3.499 --    58 C    1.216    50 C    1.063    59 H    0.922
                            64 O    0.167
    54   6 C    3.969 --    57 C    1.444    51 C    1.364    60 H    0.956
    55   7 N    3.500 --    61 C    1.205    51 C    1.077    62 H    0.918
                            66 O    0.160
    56   1 H    0.992 --    52 C    0.958
    57   6 C    3.987 --    54 C    1.444    52 C    1.438    63 H    0.968
    58   6 C    3.950 --    64 O    1.659    53 N    1.216    65 C    0.990
    59   1 H    0.962 --    53 N    0.922
    60   1 H    0.992 --    54 C    0.956
    61   6 C    3.948 --    66 O    1.658    55 N    1.205    67 C    1.000
    62   1 H    0.960 --    55 N    0.918
    63   1 H    0.996 --    57 C    0.968
    64   8 O    1.982 --    58 C    1.659    53 N    0.167
    65   6 C    3.940 --    58 C    0.990    69 H    0.966    68 C    0.958
                            70 C    0.893
    66   8 O    1.987 --    61 C    1.658    55 N    0.160
    67   6 C    3.939 --    61 C    1.000    72 H    0.964    71 C    0.956
                            73 C    0.886
    68   6 C    3.937 --    75 H    0.974    74 H    0.973    65 C    0.958
                            70 C    0.945
    69   1 H    0.997 --    65 C    0.966
    70   6 C    3.937 --    77 C    1.007    76 H    0.964    68 C    0.945
                            65 C    0.893
    71   6 C    3.936 --    78 H    0.974    79 H    0.967    67 C    0.956
                            73 C    0.943
    72   1 H    0.995 --    67 C    0.964
    73   6 C    3.937 --    81 C    1.013    80 H    0.963    71 C    0.943
                            67 C    0.886
    74   1 H    0.993 --    68 C    0.973
    75   1 H    0.994 --    68 C    0.974
    76   1 H    0.993 --    70 C    0.964
    77   6 C    3.919 --    83 O    1.691    82 O    1.149    70 C    1.007
    78   1 H    0.994 --    71 C    0.974
    79   1 H    0.992 --    71 C    0.967
    80   1 H    0.993 --    73 C    0.963
    81   6 C    3.918 --    85 O    1.699    84 O    1.132    73 C    1.013
    82   8 O    2.299 --    77 C    1.149    86 C    0.899    83 O    0.170
    83   8 O    1.993 --    77 C    1.691    82 O    0.170
    84   8 O    2.285 --    81 C    1.132    87 C    0.904    85 O    0.167
    85   8 O    2.005 --    81 C    1.699    84 O    0.167
    86   6 C    3.910 --    89 C    1.007    88 C    1.002    90 H    0.961
                            82 O    0.899
    87   6 C    3.913 --    91 C    1.007    92 C    1.003    93 H    0.962
                            84 O    0.904
    88   6 C    3.990 --    86 C    1.002    94 H    0.986    95 H    0.984
                            96 H    0.982
    89   6 C    3.989 --    86 C    1.007    97 H    0.984    99 H    0.983
                            98 H    0.981
    90   1 H    0.997 --    86 C    0.961
    91   6 C    3.989 --    87 C    1.007   100 H    0.985   101 H    0.983
                           102 H    0.982
    92   6 C    3.990 --    87 C    1.003   103 H    0.985   105 H    0.985
                           104 H    0.982
    93   1 H    0.998 --    87 C    0.962
    94   1 H    0.998 --    88 C    0.986
    95   1 H    0.996 --    88 C    0.984
    96   1 H    0.996 --    88 C    0.982
    97   1 H    0.997 --    89 C    0.984
    98   1 H    0.995 --    89 C    0.981
    99   1 H    0.996 --    89 C    0.983
   100   1 H    0.997 --    91 C    0.985
   101   1 H    0.996 --    91 C    0.983
   102   1 H    0.995 --    91 C    0.982
   103   1 H    0.998 --    92 C    0.985
   104   1 H    0.996 --    92 C    0.982
   105   1 H    0.997 --    92 C    0.985
   106   6 C    3.972 --   107 C    1.342   108 C    1.340     3 C    1.002
   107   6 C    3.950 --   109 C    1.370   106 C    1.342   110 N    1.067
   108   6 C    3.950 --   111 C    1.365   106 C    1.340   112 N    1.075
   109   6 C    3.969 --   114 C    1.438   107 C    1.370   113 H    0.958
   110   7 N    3.501 --   115 C    1.216   107 C    1.067   116 H    0.916
                           121 O    0.167
   111   6 C    3.969 --   114 C    1.443   108 C    1.365   117 H    0.957
   112   7 N    3.500 --   118 C    1.206   108 C    1.075   119 H    0.919
                           123 O    0.161
   113   1 H    0.992 --   109 C    0.958
   114   6 C    3.986 --   111 C    1.443   109 C    1.438   120 H    0.968
   115   6 C    3.949 --   121 O    1.661   110 N    1.216   122 C    0.988
   116   1 H    0.960 --   110 N    0.916
   117   1 H    0.992 --   111 C    0.957
   118   6 C    3.949 --   123 O    1.658   112 N    1.206   124 C    0.999
   119   1 H    0.961 --   112 N    0.919
   120   1 H    0.996 --   114 C    0.968
   121   8 O    1.982 --   115 C    1.661   110 N    0.167
   122   6 C    3.939 --   115 C    0.988   126 H    0.959   125 C    0.959
                           127 C    0.897
   123   8 O    1.978 --   118 C    1.658   112 N    0.161
   124   6 C    3.939 --   118 C    0.999   129 H    0.965   128 C    0.958
                           130 C    0.883
   125   6 C    3.938 --   132 H    0.975   131 H    0.973   122 C    0.959
                           127 C    0.938
   126   1 H    0.996 --   122 C    0.959
   127   6 C    3.937 --   134 C    1.009   133 H    0.964   125 C    0.938
                           122 C    0.897
   128   6 C    3.936 --   135 H    0.973   136 H    0.967   124 C    0.958
                           130 C    0.945
   129   1 H    0.996 --   124 C    0.965
   130   6 C    3.937 --   138 C    1.012   137 H    0.964   128 C    0.945
                           124 C    0.883
   131   1 H    0.994 --   125 C    0.973
   132   1 H    0.995 --   125 C    0.975
   133   1 H    0.993 --   127 C    0.964
   134   6 C    3.918 --   140 O    1.685   139 O    1.147   127 C    1.009
   135   1 H    0.994 --   128 C    0.973
   136   1 H    0.992 --   128 C    0.967
   137   1 H    0.993 --   130 C    0.964
   138   6 C    3.918 --   142 O    1.699   141 O    1.134   130 C    1.012
   139   8 O    2.297 --   134 C    1.147   143 C    0.899   140 O    0.169
   140   8 O    1.992 --   134 C    1.685   139 O    0.169
   141   8 O    2.286 --   138 C    1.134   144 C    0.904   142 O    0.167
   142   8 O    2.005 --   138 C    1.699   141 O    0.167
   143   6 C    3.911 --   145 C    1.007   146 C    1.004   147 H    0.961
                           139 O    0.899
   144   6 C    3.913 --   149 C    1.007   148 C    1.002   150 H    0.961
                           141 O    0.904
   145   6 C    3.988 --   143 C    1.007   151 H    0.984   152 H    0.983
                           153 H    0.981
   146   6 C    3.990 --   143 C    1.004   154 H    0.985   156 H    0.984
                           155 H    0.981
   147   1 H    0.998 --   143 C    0.961
   148   6 C    3.991 --   144 C    1.002   157 H    0.985   158 H    0.985
                           159 H    0.982
   149   6 C    3.989 --   144 C    1.007   160 H    0.984   162 H    0.983
                           161 H    0.982
   150   1 H    0.998 --   144 C    0.961
   151   1 H    0.997 --   145 C    0.984
   152   1 H    0.996 --   145 C    0.983
   153   1 H    0.995 --   145 C    0.981
   154   1 H    0.997 --   146 C    0.985
   155   1 H    0.996 --   146 C    0.981
   156   1 H    0.996 --   146 C    0.984
   157   1 H    0.998 --   148 C    0.985
   158   1 H    0.997 --   148 C    0.985
   159   1 H    0.996 --   148 C    0.982
   160   1 H    0.997 --   149 C    0.984
   161   1 H    0.995 --   149 C    0.982
   162   1 H    0.996 --   149 C    0.983
   163   1 H    0.997 --    19 C    0.964
   164   1 H    0.996 --    22 C    0.964
   165   1 H    0.996 --    42 C    0.964
   166   1 H    0.996 --    45 C    0.964
   167   8 O    2.243 --    18 C    1.032   171 C    0.974
   168   8 O    2.265 --    23 C    1.037   182 C    0.985
   169   8 O    2.277 --    41 C    1.031   193 C    0.999
   170   8 O    2.269 --    46 C    1.035   204 C    0.989
   171   6 C    3.924 --   173 C    1.396   172 C    1.396   167 O    0.974
                           178 C    0.104
   172   6 C    3.987 --   174 C    1.441   171 C    1.396   175 H    0.968
                           176 C    0.112
   173   6 C    3.987 --   176 C    1.441   171 C    1.396   177 H    0.968
                           174 C    0.112
   174   6 C    3.988 --   172 C    1.441   178 C    1.439   179 H    0.969
                           173 C    0.112
   175   1 H    0.998 --   172 C    0.968
   176   6 C    3.988 --   173 C    1.441   178 C    1.439   180 H    0.969
                           172 C    0.112
   177   1 H    0.997 --   173 C    0.968
   178   6 C    3.989 --   176 C    1.439   174 C    1.439   181 H    0.969
                           171 C    0.104
   179   1 H    0.997 --   174 C    0.969
   180   1 H    0.997 --   176 C    0.969
   181   1 H    0.997 --   178 C    0.969
   182   6 C    3.922 --   184 C    1.390   183 C    1.388   168 O    0.985
                           189 C    0.102
   183   6 C    3.986 --   185 C    1.443   182 C    1.388   186 H    0.968
                           187 C    0.111
   184   6 C    3.985 --   187 C    1.442   182 C    1.390   188 H    0.968
                           185 C    0.111
   185   6 C    3.989 --   183 C    1.443   189 C    1.436   190 H    0.969
                           184 C    0.111
   186   1 H    0.998 --   183 C    0.968
   187   6 C    3.988 --   184 C    1.442   189 C    1.438   191 H    0.969
                           183 C    0.111
   188   1 H    0.997 --   184 C    0.968
   189   6 C    3.987 --   187 C    1.438   185 C    1.436   192 H    0.969
                           182 C    0.102
   190   1 H    0.998 --   185 C    0.969
   191   1 H    0.997 --   187 C    0.969
   192   1 H    0.998 --   189 C    0.969
   193   6 C    3.918 --   194 C    1.382   195 C    1.377   169 O    0.999
                           200 C    0.100
   194   6 C    3.985 --   196 C    1.442   193 C    1.382   197 H    0.967
                           198 C    0.109
   195   6 C    3.984 --   198 C    1.449   193 C    1.377   199 H    0.967
                           196 C    0.110
   196   6 C    3.988 --   194 C    1.442   200 C    1.438   201 H    0.970
                           195 C    0.110
   197   1 H    0.998 --   194 C    0.967
   198   6 C    3.987 --   195 C    1.449   200 C    1.432   202 H    0.968
                           194 C    0.109
   199   1 H    0.998 --   195 C    0.967
   200   6 C    3.986 --   196 C    1.438   198 C    1.432   203 H    0.970
                           193 C    0.100
   201   1 H    0.998 --   196 C    0.970
   202   1 H    0.997 --   198 C    0.968
   203   1 H    0.998 --   200 C    0.970
   204   6 C    3.921 --   205 C    1.386   206 C    1.386   170 O    0.989
                           211 C    0.102
   205   6 C    3.986 --   207 C    1.444   204 C    1.386   208 H    0.968
                           209 C    0.110
   206   6 C    3.985 --   209 C    1.444   204 C    1.386   210 H    0.968
                           207 C    0.110
   207   6 C    3.988 --   205 C    1.444   211 C    1.436   212 H    0.969
                           206 C    0.110
   208   1 H    0.998 --   205 C    0.968
   209   6 C    3.988 --   206 C    1.444   211 C    1.437   213 H    0.969
                           205 C    0.110
   210   1 H    0.997 --   206 C    0.968
   211   6 C    3.987 --   209 C    1.437   207 C    1.436   214 H    0.969
                           204 C    0.102
   212   1 H    0.997 --   207 C    0.969
   213   1 H    0.997 --   209 C    0.969
   214   1 H    0.998 --   211 C    0.969
   215   7 N    3.294 --    47 Fe   1.548   216 C    1.429
   216   6 C    3.971 --   215 N    1.429   217 C    1.170   221 C    1.151
   217   6 C    3.933 --   218 C    1.531   216 C    1.170   230 H    0.967
   218   6 C    3.985 --   217 C    1.531   219 C    1.359   231 H    0.961
   219   6 C    3.893 --   220 C    1.426   218 C    1.359   232 H    0.969
   220   6 C    3.985 --   219 C    1.426   221 C    1.426   233 H    0.958
   221   6 C    3.906 --   220 C    1.426   216 C    1.151   222 S    1.075
   222  16 S    2.325 --   221 C    1.075   223 C    0.949
   223   6 C    3.967 --   224 C    1.021   235 H    0.969   234 H    0.964
                           222 S    0.949
   224   6 C    3.986 --   229 C    1.410   225 C    1.403   223 C    1.021
                           227 C    0.108
   225   6 C    3.990 --   226 C    1.451   224 C    1.403   236 H    0.968
                           228 C    0.112
   226   6 C    3.992 --   225 C    1.451   227 C    1.434   237 H    0.970
                           229 C    0.109
   227   6 C    3.990 --   228 C    1.441   226 C    1.434   238 H    0.970
                           224 C    0.108
   228   6 C    3.991 --   229 C    1.442   227 C    1.441   239 H    0.970
                           225 C    0.112
   229   6 C    3.990 --   228 C    1.442   224 C    1.410   240 H    0.967
                           226 C    0.109
   230   1 H    0.998 --   217 C    0.967
   231   1 H    0.989 --   218 C    0.961
   232   1 H    0.997 --   219 C    0.969
   233   1 H    0.991 --   220 C    0.958
   234   1 H    0.995 --   223 C    0.964
   235   1 H    0.995 --   223 C    0.969
   236   1 H    0.999 --   225 C    0.968
   237   1 H    0.998 --   226 C    0.970
   238   1 H    0.998 --   227 C    0.970
   239   1 H    0.998 --   228 C    0.970
   240   1 H    0.999 --   229 C    0.967
 ---------------------------------------------------------------------------

Topologies differ in total number of bonds
Writing topology from bond orders to xtbtopo.mol

molecular dipole:
                 x           y           z       tot (Debye)
 q only:        4.312       1.060      -0.305
   full:        4.810       1.407      -0.105      12.741
molecular quadrupole (traceless):
                xx          xy          yy          xz          yz          zz
 q only:       50.500       1.118      55.144      17.952     -31.527    -105.644
  q+dip:       43.440      -0.891      60.082      16.686     -35.168    -103.522
   full:       48.578      -4.043      66.657      21.696     -41.742    -115.235

           -------------------------------------------------
          |                Geometry Summary                 |
           -------------------------------------------------

      molecular mass/u    :     1962.4129680
   center of mass at/Å    :       -0.1148877      -0.0149395       0.0546900
  moments of inertia/u·Å² :        0.5066520E+05   0.6384297E+05   0.6702345E+05
rotational constants/cm⁻¹ :        0.3327261E-03   0.2640484E-03   0.2515184E-03

 * 231 selected distances

     #   Z          #   Z                                           value/Å
     1   7 N        4   6 C                                       1.3706266
     3   6 C        4   6 C                                       1.4126074
     5   6 C        6   1 H                                       1.0909443
     5   6 C        7   6 C                                       1.3659210
     7   6 C        8   1 H                                       1.0909629
     1   7 N        9   6 C                                       1.3744382
     9   6 C       10   6 C                                       1.4086597
     2   7 N       11   6 C                                       1.3723397
    10   6 C       11   6 C                                       1.4093437
    12   6 C       13   1 H                                       1.0910739
    12   6 C       14   6 C                                       1.3659225
    14   6 C       15   1 H                                       1.0908539
     2   7 N       16   6 C                                       1.3719376
    17   6 C       18   6 C                                       1.4149459
    18   6 C       19   6 C                                       1.4066152
    19   6 C       20   6 C                                       1.3980179
    20   6 C       21   1 H                                       1.0979912
    20   6 C       22   6 C                                       1.3972300
    17   6 C       23   6 C                                       1.4159566
    22   6 C       23   6 C                                       1.4079244
    16   6 C       26   6 C                                       1.4107944
    24   7 N       27   6 C                                       1.3722705
    26   6 C       27   6 C                                       1.4122545
    28   6 C       29   1 H                                       1.0908710
    28   6 C       30   6 C                                       1.3672315
    30   6 C       31   1 H                                       1.0905189
    24   7 N       32   6 C                                       1.3747690
    30   6 C       32   6 C                                       1.4482800
    32   6 C       33   6 C                                       1.4076658
    25   7 N       34   6 C                                       1.3725015
    33   6 C       34   6 C                                       1.4082697
    34   6 C       35   6 C                                       1.4493076
    35   6 C       36   1 H                                       1.0906645
    35   6 C       37   6 C                                       1.3657949
    37   6 C       38   1 H                                       1.0908911
     3   6 C       39   6 C                                       1.4105429
    25   7 N       39   6 C                                       1.3732465
    40   6 C       41   6 C                                       1.4164631
    41   6 C       42   6 C                                       1.4067152
    42   6 C       43   6 C                                       1.3982995
    43   6 C       44   1 H                                       1.0979515
    43   6 C       45   6 C                                       1.3980062
    40   6 C       46   6 C                                       1.4148439
    45   6 C       46   6 C                                       1.4076865
    49   6 C       50   6 C                                       1.4203689
    49   6 C       51   6 C                                       1.4230823
    50   6 C       52   6 C                                       1.4092950
    50   6 C       53   7 N                                       1.4192795
    51   6 C       54   6 C                                       1.4115712
    51   6 C       55   7 N                                       1.4150290
    52   6 C       56   1 H                                       1.0933203
    52   6 C       57   6 C                                       1.3981830
    54   6 C       57   6 C                                       1.3973535
    53   7 N       58   6 C                                       1.3765083
    53   7 N       59   1 H                                       1.0214369 (min)
    54   6 C       60   1 H                                       1.0929443
    55   7 N       61   6 C                                       1.3812162
    55   7 N       62   1 H                                       1.0244635
    57   6 C       63   1 H                                       1.0976630
    58   6 C       64   8 O                                       1.2260970
    61   6 C       66   8 O                                       1.2272604
    65   6 C       68   6 C                                       1.5074616
    65   6 C       69   1 H                                       1.0953718
    65   6 C       70   6 C                                       1.5333817
    68   6 C       70   6 C                                       1.5097242
    67   6 C       71   6 C                                       1.5084888
    67   6 C       72   1 H                                       1.0960788
    67   6 C       73   6 C                                       1.5347173
    71   6 C       73   6 C                                       1.5102482
    68   6 C       74   1 H                                       1.0927431
    68   6 C       75   1 H                                       1.0918538
    70   6 C       76   1 H                                       1.0928661
    71   6 C       78   1 H                                       1.0936896
    71   6 C       79   1 H                                       1.0934833
    73   6 C       80   1 H                                       1.0944489
    77   6 C       82   8 O                                       1.3432907
    77   6 C       83   8 O                                       1.2167784
    81   6 C       84   8 O                                       1.3515172
    81   6 C       85   8 O                                       1.2144908
    86   6 C       88   6 C                                       1.5349315
    86   6 C       89   6 C                                       1.5278694
    86   6 C       90   1 H                                       1.1046428
    87   6 C       91   6 C                                       1.5295360
    87   6 C       92   6 C                                       1.5328325
    87   6 C       93   1 H                                       1.1066169
    88   6 C       94   1 H                                       1.1023337
    88   6 C       95   1 H                                       1.0980937
    88   6 C       96   1 H                                       1.0987200
    89   6 C       97   1 H                                       1.0975661
    89   6 C       98   1 H                                       1.0982526
    89   6 C       99   1 H                                       1.0974712
    91   6 C      100   1 H                                       1.0977255
    91   6 C      101   1 H                                       1.1004320
    91   6 C      102   1 H                                       1.0986636
    92   6 C      103   1 H                                       1.0985220
    92   6 C      104   1 H                                       1.0989134
    92   6 C      105   1 H                                       1.1006783
   106   6 C      107   6 C                                       1.4215411
   106   6 C      108   6 C                                       1.4221156
   107   6 C      109   6 C                                       1.4093147
   107   6 C      110   7 N                                       1.4174720
   108   6 C      111   6 C                                       1.4110825
   108   6 C      112   7 N                                       1.4147146
   109   6 C      113   1 H                                       1.0937810
   109   6 C      114   6 C                                       1.3989551
   111   6 C      114   6 C                                       1.3981016
   110   7 N      115   6 C                                       1.3770659
   110   7 N      116   1 H                                       1.0218142
   111   6 C      117   1 H                                       1.0933084
   112   7 N      118   6 C                                       1.3802622
   112   7 N      119   1 H                                       1.0235556
   114   6 C      120   1 H                                       1.0978001
   115   6 C      121   8 O                                       1.2256455
   118   6 C      123   8 O                                       1.2270322
   122   6 C      125   6 C                                       1.5082646
   122   6 C      126   1 H                                       1.0953316
   122   6 C      127   6 C                                       1.5287596
   125   6 C      127   6 C                                       1.5112704
   124   6 C      128   6 C                                       1.5070229
   124   6 C      129   1 H                                       1.0963481
   124   6 C      130   6 C                                       1.5364134
   128   6 C      130   6 C                                       1.5095491
   125   6 C      131   1 H                                       1.0931121
   125   6 C      132   1 H                                       1.0925557
   127   6 C      133   1 H                                       1.0932298
   128   6 C      135   1 H                                       1.0931864
   128   6 C      136   1 H                                       1.0932546
   130   6 C      137   1 H                                       1.0943511
   134   6 C      139   8 O                                       1.3443845
   134   6 C      140   8 O                                       1.2177697
   138   6 C      141   8 O                                       1.3505829
   138   6 C      142   8 O                                       1.2146095
   143   6 C      145   6 C                                       1.5295615
   143   6 C      146   6 C                                       1.5313077
   143   6 C      147   1 H                                       1.1070602
   144   6 C      148   6 C                                       1.5340669
   144   6 C      149   6 C                                       1.5282583
   144   6 C      150   1 H                                       1.1051966
   145   6 C      151   1 H                                       1.0980305
   145   6 C      152   1 H                                       1.1006465
   145   6 C      153   1 H                                       1.0984581
   146   6 C      154   1 H                                       1.0975464
   146   6 C      155   1 H                                       1.0986725
   146   6 C      156   1 H                                       1.1009341
   148   6 C      157   1 H                                       1.1020892
   148   6 C      158   1 H                                       1.0988007
   148   6 C      159   1 H                                       1.0988579
   149   6 C      160   1 H                                       1.0991378
   149   6 C      161   1 H                                       1.0982651
   149   6 C      162   1 H                                       1.0979131
    19   6 C      163   1 H                                       1.0962956
    22   6 C      164   1 H                                       1.0961399
    42   6 C      165   1 H                                       1.0960641
    45   6 C      166   1 H                                       1.0964319
    18   6 C      167   8 O                                       1.3778187
    23   6 C      168   8 O                                       1.3748740
    41   6 C      169   8 O                                       1.3777558
    46   6 C      170   8 O                                       1.3754887
   167   8 O      171   6 C                                       1.3946856
   171   6 C      172   6 C                                       1.4017656
   171   6 C      173   6 C                                       1.4013270
   172   6 C      174   6 C                                       1.4009911
   172   6 C      175   1 H                                       1.0950811
   173   6 C      176   6 C                                       1.4011374
   173   6 C      177   1 H                                       1.0948617
   174   6 C      178   6 C                                       1.4009881
   176   6 C      178   6 C                                       1.4010746
   174   6 C      179   1 H                                       1.0959951
   176   6 C      180   1 H                                       1.0958103
   178   6 C      181   1 H                                       1.0982228
   168   8 O      182   6 C                                       1.3911271
   182   6 C      183   6 C                                       1.4023571
   182   6 C      184   6 C                                       1.4017350
   183   6 C      185   6 C                                       1.4002230
   183   6 C      186   1 H                                       1.0952586
   184   6 C      187   6 C                                       1.4004056
   184   6 C      188   1 H                                       1.0947659
   185   6 C      189   6 C                                       1.4008040
   187   6 C      189   6 C                                       1.4005824
   185   6 C      190   1 H                                       1.0956200
   187   6 C      191   1 H                                       1.0954015
   189   6 C      192   1 H                                       1.0979999
   169   8 O      193   6 C                                       1.3872125
   193   6 C      194   6 C                                       1.4043116
   193   6 C      195   6 C                                       1.4044322
   194   6 C      196   6 C                                       1.4009339
   194   6 C      197   1 H                                       1.0955275
   195   6 C      198   6 C                                       1.3982481
   195   6 C      199   1 H                                       1.0947507
   196   6 C      200   6 C                                       1.4010566
   198   6 C      200   6 C                                       1.4020106
   196   6 C      201   1 H                                       1.0974055
   198   6 C      202   1 H                                       1.0957104
   200   6 C      203   1 H                                       1.0977963
   170   8 O      204   6 C                                       1.3900595
   204   6 C      205   6 C                                       1.4024472
   204   6 C      206   6 C                                       1.4023970
   205   6 C      207   6 C                                       1.4002871
   205   6 C      208   1 H                                       1.0950949
   206   6 C      209   6 C                                       1.4002909
   206   6 C      210   1 H                                       1.0945663
   207   6 C      211   6 C                                       1.4006578
   209   6 C      211   6 C                                       1.4004726
   207   6 C      212   1 H                                       1.0954508
   209   6 C      213   1 H                                       1.0953474
   211   6 C      214   1 H                                       1.0980566
    47  26 Fe     215   7 N                                       1.6301399 (max)
   215   7 N      216   6 C                                       1.2903526
   216   6 C      217   6 C                                       1.4260946
   217   6 C      218   6 C                                       1.3687531
   218   6 C      219   6 C                                       1.3950875
   219   6 C      220   6 C                                       1.3841875
   216   6 C      221   6 C                                       1.4313752
   220   6 C      221   6 C                                       1.3810525
   224   6 C      225   6 C                                       1.3907024
   225   6 C      226   6 C                                       1.3823459
   226   6 C      227   6 C                                       1.3854727
   227   6 C      228   6 C                                       1.3843272
   224   6 C      229   6 C                                       1.3888783
   228   6 C      229   6 C                                       1.3840060
   217   6 C      230   1 H                                       1.0788675
   218   6 C      231   1 H                                       1.0800632
   219   6 C      232   1 H                                       1.0775797
   220   6 C      233   1 H                                       1.0782876
   223   6 C      234   1 H                                       1.0896258
   223   6 C      235   1 H                                       1.0878733
   225   6 C      236   1 H                                       1.0810080
   226   6 C      237   1 H                                       1.0795999
   227   6 C      238   1 H                                       1.0798159
   228   6 C      239   1 H                                       1.0795166
   229   6 C      240   1 H                                       1.0799368

 * 6 distinct bonds (by element types)

   Z      Z             #   av. dist./Å        max./Å        min./Å
   1 H    6 C          95     1.0946265     1.1070602     1.0775797
   6 C    6 C          94     1.4280122     1.5364134     1.3657949
   1 H    7 N           4     1.0228176     1.0244635     1.0214369
   6 C    7 N          17     1.3796488     1.4192795     1.2903526
   6 C    8 O          20     1.3114240     1.3946856     1.2144908
   7 N   26 Fe          1     1.6301399     1.6301399     1.6301399


optimized geometry written to: xtbopt.xyz


           -------------------------------------------------
          | TOTAL ENERGY             -395.138752543504 Eh   |
          | GRADIENT NORM               0.000439168842 Eh/α |
          | HOMO-LUMO GAP               0.083616788600 eV   |
           -------------------------------------------------

------------------------------------------------------------------------
 * finished run on 2026/07/31 at 15:26:22.528     
------------------------------------------------------------------------
 total:
 * wall-time:     0 d,  0 h,  1 min, 50.956 sec
 *  cpu-time:     0 d,  0 h,  4 min,  9.990 sec
 * ratio c/w:     2.253 speedup
 SCF:
 * wall-time:     0 d,  0 h,  0 min,  1.942 sec
 *  cpu-time:     0 d,  0 h,  0 min,  4.307 sec
 * ratio c/w:     2.218 speedup
 ANC optimizer:
 * wall-time:     0 d,  0 h,  1 min, 48.958 sec
 *  cpu-time:     0 d,  0 h,  4 min,  5.593 sec
 * ratio c/w:     2.254 speedup

