28

N      1.905271   -1.288364    2.757825
C      2.087210   -0.486772    1.592637
C      2.931673    0.628162    1.656034
C      3.117575    1.435660    0.531489
C      2.459747    1.133844   -0.662336
C      1.616618    0.022207   -0.735909
C      1.425597   -0.802877    0.386834
C      0.471143   -1.971755    0.298713
C     -0.916219   -1.620971    0.855092
C     -1.589124   -0.544273    0.042250
C     -2.233168   -0.867012   -1.163633
C     -2.817959    0.137819   -1.940366
C     -2.757408    1.470435   -1.523543
C     -2.110347    1.801196   -0.329378
F     -2.044101    3.095320    0.069308
C     -1.525890    0.798839    0.451263
H      3.442025    0.872011    2.579423
H      3.769384    2.297966    0.586576
H      2.599864    1.764275   -1.530878
H      1.103806   -0.189791   -1.666094
H      0.373619   -2.314899   -0.754973
H      0.882364   -2.832336    0.869016
H     -1.547888   -2.535771    0.844332
H     -0.828676   -1.307246    1.918336
H     -2.276849   -1.894518   -1.503029
H     -3.314252   -0.116128   -2.868071
H     -3.208588    2.246284   -2.128571
H     -1.015427    1.068695    1.367651
