28

N     -1.922784    2.338862    0.787406
C     -2.590767    1.137557    0.407546
C     -3.959981    1.180293    0.117874
C     -4.633960    0.020298   -0.271338
C     -3.942146   -1.187800   -0.377706
C     -2.575514   -1.240437   -0.090452
C     -1.888417   -0.083504    0.316982
C     -0.406222   -0.157435    0.590175
C      0.392531    0.171480   -0.674630
C      1.870598    0.101247   -0.400127
C      2.559407    1.234131    0.064541
C      3.926064    1.158823    0.350645
C      4.611315   -0.047943    0.184715
C      3.930029   -1.183343   -0.263832
F      4.594087   -2.355519   -0.416284
C      2.562889   -1.112013   -0.551104
H     -4.502343    2.114739    0.190470
H     -5.692136    0.058992   -0.495561
H     -4.464514   -2.084097   -0.686421
H     -2.051889   -2.183632   -0.187093
H     -0.138053   -1.177818    0.943703
H     -0.132382    0.547423    1.405369
H      0.125207   -0.544720   -1.482954
H      0.125789    1.189674   -1.034551
H      2.037985    2.172767    0.206355
H      4.453301    2.035364    0.704452
H      5.668933   -0.103305    0.408297
H      2.042973   -2.000085   -0.888966
