28

N     -2.013769    1.116895    2.273087
C     -2.606243    0.258136    1.300905
C     -3.999445    0.242974    1.162194
C     -4.603102   -0.578044    0.206761
C     -3.817317   -1.384888   -0.618447
C     -2.426020   -1.376753   -0.487321
C     -1.806699   -0.566514    0.480436
C     -0.301224   -0.549489    0.581723
C      0.285970    0.560363   -0.295406
C      1.787190    0.578952   -0.190718
C      2.418208    1.337498    0.809396
C      3.811586    1.327948    0.926375
C      4.582794    0.554981    0.053938
C      3.961590   -0.213584   -0.934947
F      4.710324   -0.969599   -1.775214
C      2.567967   -0.206660   -1.055162
H     -4.615683    0.871420    1.793005
H     -5.680415   -0.584983    0.102568
H     -4.286390   -2.014978   -1.363079
H     -1.830615   -2.001531   -1.141755
H      0.109744   -1.532557    0.261156
H      0.008876   -0.400907    1.639132
H     -0.015706    0.399752   -1.354173
H     -0.124209    1.545523    0.018643
H      1.831470    1.933283    1.497733
H      4.293424    1.917208    1.695846
H      5.661097    0.548711    0.147926
H      2.096597   -0.813157   -1.818777
