28

N      1.826984   -2.520574   -0.441452
C      2.527606   -1.278753   -0.466680
C      3.921447   -1.278666   -0.333681
C      4.629353   -0.074443   -0.339845
C      3.947577    1.136565   -0.474254
C      2.556524    1.146600   -0.607817
C      1.833453   -0.059076   -0.618422
C      0.329133   -0.021972   -0.730898
C     -0.315123    0.008733    0.658315
C     -1.815472    0.041875    0.545079
C     -2.547085   -1.155383    0.473533
C     -3.938162   -1.123113    0.335178
C     -4.606440    0.101938    0.257472
C     -3.884190    1.297624    0.313762
F     -4.532785    2.485257    0.229740
C     -2.492521    1.269486    0.452144
H      4.457122   -2.213028   -0.221269
H      5.706635   -0.079754   -0.235239
H      4.497076    2.069069   -0.471547
H      2.042207    2.095189   -0.701600
H     -0.033563   -0.907349   -1.297388
H      0.015708    0.877905   -1.305410
H     -0.002411   -0.887353    1.238536
H      0.040263    0.903418    1.216018
H     -2.040270   -2.111267    0.523068
H     -4.497891   -2.048116    0.284655
H     -5.683193    0.123528    0.149080
H     -1.941985    2.201663    0.485209
