28

N     -1.662893    1.821168    1.835537
C     -2.454933    0.999652    0.980310
C     -3.817253    1.285572    0.829258
C     -4.611229    0.505237   -0.014545
C     -4.046938   -0.562238   -0.715613
C     -2.688228   -0.855507   -0.571157
C     -1.881223   -0.087516    0.286474
C     -0.409934   -0.402309    0.401451
C      0.397698    0.417149   -0.609559
C      1.865271    0.105301   -0.491460
C      2.672487    0.825063    0.405283
C      4.028906    0.512395    0.538118
C      4.585820   -0.525339   -0.214439
C      3.786092   -1.255518   -1.098605
F      4.325636   -2.267489   -1.821802
C      2.428771   -0.945756   -1.234298
H     -4.261096    2.116399    1.363438
H     -5.663508    0.731350   -0.128949
H     -4.662142   -1.161291   -1.374537
H     -2.264296   -1.681163   -1.129470
H     -0.240738   -1.486960    0.219835
H     -0.053228   -0.189688    1.432908
H      0.229611    1.502773   -0.434682
H      0.046425    0.190811   -1.640660
H      2.251031    1.625271    1.001162
H      4.647694    1.072453    1.227260
H      5.635845   -0.765765   -0.108360
H      1.816352   -1.524054   -1.915217
