28

N      1.988117   -2.172207    0.355499
C      2.631715   -0.949495    0.012040
C      4.033004   -0.937160   -0.005092
C      4.730824    0.224417   -0.332253
C      4.034421    1.388303   -0.646391
C      2.638694    1.393445   -0.634126
C      1.906662    0.234522   -0.307347
C      0.388842    0.385109   -0.334048
C     -0.465027   -0.841437    0.012874
C     -1.930614   -0.500129   -0.066714
C     -2.625689   -0.635742   -1.280513
C     -3.977586   -0.287665   -1.360808
C     -4.642043    0.206694   -0.235107
C     -3.954546    0.358017    0.972630
F     -4.598115    0.845712    2.061753
C     -2.602138    0.010938    1.057110
H      4.586003   -1.836334    0.237440
H      5.813183    0.221663   -0.342106
H      4.576412    2.290173   -0.900420
H      2.121823    2.312974   -0.882651
H      0.101675    0.725815   -1.353750
H      0.118596    1.202035    0.371604
H     -0.248002   -1.666045   -0.700341
H     -0.230679   -1.184793    1.043864
H     -2.120563   -1.008691   -2.162949
H     -4.509385   -0.397942   -2.297033
H     -5.688233    0.476448   -0.300931
H     -2.077350    0.141374    1.995554
