28

N      2.984530    1.330878    1.412059
C      2.595554    0.388596    0.415004
C      3.306774   -0.811421    0.295263
C      2.938319   -1.755531   -0.666044
C      1.856400   -1.505909   -1.512323
C      1.141808   -0.310438   -1.401756
C      1.506098    0.651461   -0.442669
C      0.688885    1.915996   -0.308007
C     -0.348705    1.809605    0.818701
C     -1.377026    0.744689    0.533563
C     -2.450243    1.011811   -0.332437
C     -3.378730    0.010434   -0.632671
C     -3.238438   -1.264566   -0.077725
C     -2.168057   -1.541279    0.777748
F     -2.027711   -2.781080    1.308116
C     -1.238376   -0.541865    1.082010
H      4.144275   -1.014949    0.950808
H      3.489793   -2.682803   -0.752678
H      1.568231   -2.241312   -2.252311
H      0.296980   -0.138741   -2.057462
H      0.174823    2.150063   -1.266374
H      1.362753    2.774586   -0.099026
H      0.162477    1.606880    1.785226
H     -0.859467    2.790934    0.928680
H     -2.563392    1.992514   -0.777728
H     -4.204722    0.221616   -1.299431
H     -3.957290   -2.038377   -0.314438
H     -0.405543   -0.771794    1.735220
