28

N      2.496500   -2.419338    0.899941
C      2.398722   -1.044797    0.533348
C      3.214769   -0.106815    1.177142
C      3.129809    1.247041    0.843867
C      2.228097    1.671014   -0.133993
C      1.411018    0.742194   -0.783371
C      1.490922   -0.624636   -0.462130
C      0.563186   -1.605316   -1.142274
C     -0.671512   -1.914872   -0.283740
C     -1.529057   -0.692521   -0.075731
C     -2.419632   -0.274534   -1.078362
C     -3.181887    0.884646   -0.904433
C     -3.055144    1.637682    0.266098
C     -2.164394    1.233680    1.264829
F     -2.035420    1.970022    2.395872
C     -1.401641    0.073837    1.095464
H      3.913523   -0.426632    1.940051
H      3.761028    1.968438    1.346473
H      2.158975    2.721223   -0.386434
H      0.707749    1.090017   -1.530095
H      0.239610   -1.211914   -2.131236
H      1.107488   -2.552198   -1.347446
H     -0.354972   -2.338180    0.694621
H     -1.272212   -2.700873   -0.791029
H     -2.518443   -0.843252   -1.994692
H     -3.867713    1.201800   -1.679343
H     -3.644538    2.536123    0.396417
H     -0.704832   -0.221840    1.870186
