31

C     -4.420748    1.702209    0.350834
C     -3.539069    0.518293    0.084145
C     -4.087300   -0.672804   -0.415393
C     -3.270299   -1.784290   -0.637425
C     -1.905220   -1.721480   -0.346901
C     -1.348820   -0.547248    0.184242
C      0.126269   -0.470717    0.473476
C      0.891339    0.021683   -0.758621
C      2.370703    0.096468   -0.470802
C      2.921430    1.295469    0.014674
C      4.283488    1.377673    0.316344
C      5.106760    0.262851    0.146575
C      4.569282   -0.938848   -0.320719
C      3.205779   -1.031011   -0.625427
N      2.678810   -2.273593   -1.085771
C     -2.170541    0.572842    0.392701
H     -3.854593    2.649032    0.220267
H     -5.280886    1.717492   -0.352017
H     -4.804113    1.649823    1.391172
H     -5.145196   -0.739198   -0.637785
H     -3.696037   -2.696368   -1.035410
H     -1.282537   -2.588064   -0.532223
H      0.307327    0.219457    1.327094
H      0.502588   -1.473238    0.774764
H      0.703144   -0.658098   -1.618174
H      0.513113    1.025640   -1.053771
H      2.294968    2.166832    0.161017
H      4.700319    2.305876    0.685408
H      6.161152    0.328434    0.382083
H      5.213214   -1.800933   -0.442273
H     -1.744327    1.485816    0.791971
