31

C      2.386613   -2.377921   -0.215965
C      2.232230   -0.886255   -0.238026
C      2.964699   -0.112237   -1.150675
C      2.779995    1.271595   -1.206668
C      1.854953    1.891234   -0.362873
C      1.109432    1.129075    0.549830
C      0.061963    1.788093    1.410977
C     -1.258322    1.983259    0.651430
C     -1.880441    0.663716    0.254758
C     -1.663603    0.156337   -1.038927
C     -2.185144   -1.085834   -1.408920
C     -2.925731   -1.834974   -0.492807
C     -3.144423   -1.345086    0.796923
C     -2.623448   -0.102638    1.177882
N     -2.849456    0.368935    2.504466
C      1.295332   -0.262743    0.600242
H      2.220371   -2.772134    0.809201
H      1.645460   -2.835136   -0.904356
H      3.408814   -2.672754   -0.535630
H      3.674510   -0.580093   -1.821663
H      3.347387    1.863777   -1.912973
H      1.710343    2.962532   -0.428338
H      0.433126    2.781359    1.745146
H     -0.116096    1.189164    2.330827
H     -1.965252    2.550328    1.294550
H     -1.080061    2.614109   -0.247336
H     -1.079027    0.717675   -1.757482
H     -2.010813   -1.469960   -2.405657
H     -3.327767   -2.797616   -0.781143
H     -3.715997   -1.934650    1.502809
H      0.700352   -0.861158    1.280398
