31

C     -4.641169    1.056006   -0.347902
C     -3.574111    0.156403    0.201863
C     -3.887248   -0.789704    1.189605
C     -2.899104   -1.646324    1.681501
C     -1.596955   -1.577327    1.180067
C     -1.276766   -0.658266    0.168474
C      0.131745   -0.566124   -0.354027
C      0.946466    0.436217    0.469014
C      2.359582    0.527729   -0.052215
C      2.675534    1.486815   -1.030438
C      3.970702    1.568982   -1.548850
C      4.959860    0.689484   -1.104468
C      4.655362   -0.277964   -0.143920
C      3.360539   -0.368200    0.381221
N      3.071529   -1.374851    1.349081
C     -2.269327    0.211105   -0.313502
H     -5.413257    1.265898    0.422744
H     -4.206916    2.026073   -0.671086
H     -5.123345    0.566530   -1.219644
H     -4.894117   -0.860481    1.582312
H     -3.143046   -2.365306    2.452920
H     -0.839284   -2.241742    1.576973
H      0.117765   -0.250793   -1.420872
H      0.614081   -1.567667   -0.312754
H      0.952585    0.132060    1.538500
H      0.461370    1.436497    0.421904
H      1.917657    2.170473   -1.392899
H      4.206671    2.313231   -2.298471
H      5.961977    0.754104   -1.508316
H      5.426401   -0.961206    0.189688
H     -2.025179    0.930447   -1.086506
