31

C     -4.569151    1.281047    0.334954
C     -3.574845    0.206441    0.008273
C     -3.990642   -0.969088   -0.635197
C     -3.069294   -1.981692   -0.914376
C     -1.731495   -1.836752   -0.538778
C     -1.307702   -0.680466    0.134954
C      0.138409   -0.512762    0.517105
C      0.919120    0.162602   -0.614367
C      2.369704    0.329094   -0.233534
C      2.787991    1.514107    0.396840
C      4.120519    1.676934    0.785194
C      5.045755    0.656271    0.558017
C      4.639962   -0.532166   -0.053766
C      3.307022   -0.704680   -0.446182
N      2.914907   -1.933492   -1.054369
C     -2.233808    0.341652    0.401199
H     -4.998966    1.092574    1.340813
H     -4.082083    2.279443    0.330024
H     -5.390395    1.296653   -0.412966
H     -5.025989   -1.099256   -0.925240
H     -3.392801   -2.880774   -1.422827
H     -1.026765   -2.626183   -0.769429
H      0.585195   -1.506306    0.742260
H      0.214741    0.100231    1.442416
H      0.835098   -0.440083   -1.544991
H      0.469984    1.156783   -0.833410
H      2.081052    2.311894    0.588975
H      4.435214    2.594213    1.265908
H      6.077017    0.784049    0.860802
H      5.362212   -1.321821   -0.219341
H     -1.909966    1.241532    0.911041
