31

C     -4.354904    1.261757    1.315364
C     -3.483280    0.222197    0.675263
C     -3.969027   -1.077984    0.469385
C     -3.166726   -2.038368   -0.152035
C     -1.881970   -1.704611   -0.587692
C     -1.394943   -0.399019   -0.418139
C     -0.001562   -0.045715   -0.864308
C      1.004728   -0.299666    0.262077
C      2.402503    0.051798   -0.184742
C      2.893668    1.350420    0.036457
C      4.174029    1.706143   -0.396094
C      4.972302    0.774000   -1.061897
C      4.490520   -0.515128   -1.301404
C      3.208954   -0.880796   -0.872035
N      2.734604   -2.198091   -1.142873
C     -2.198931    0.560043    0.219894
H     -5.062008    0.793627    2.032951
H     -4.933559    1.792160    0.530605
H     -3.739154    1.999445    1.872790
H     -4.965873   -1.349370    0.794441
H     -3.541514   -3.043465   -0.296406
H     -1.268114   -2.461686   -1.059990
H      0.037094    1.024277   -1.166648
H      0.271778   -0.650461   -1.757062
H      0.728369    0.309630    1.151168
H      0.960631   -1.365299    0.576450
H      2.283782    2.088357    0.543044
H      4.546241    2.706740   -0.217813
H      5.963144    1.052097   -1.397163
H      5.113103   -1.229682   -1.825254
H     -1.823885    1.566651    0.363690
