31

C      2.548495    0.059740   -2.204857
C      2.300377    0.149309   -0.728455
C      3.021387    1.061800    0.056442
C      2.751542    1.181930    1.422089
C      1.752531    0.403384    2.011574
C      1.017233   -0.507616    1.237434
C     -0.106412   -1.297178    1.858815
C     -1.409757   -0.487175    1.914378
C     -1.931768   -0.165906    0.531820
C     -2.622644   -1.156435   -0.187843
C     -3.073669   -0.904566   -1.486059
C     -2.834762    0.334985   -2.081962
C     -2.143785    1.326110   -1.381421
C     -1.689157    1.084324   -0.079612
N     -0.974215    2.110305    0.605700
C      1.289619   -0.623160   -0.136113
H      2.363070   -0.973025   -2.569576
H      3.600410    0.324718   -2.444160
H      1.868800    0.758699   -2.735615
H      3.788385    1.683114   -0.389220
H      3.310524    1.887779    2.022740
H      1.542710    0.518931    3.067740
H      0.177879   -1.589813    2.893056
H     -0.273489   -2.241753    1.295704
H     -1.253754    0.437308    2.510893
H     -2.173453   -1.082629    2.460632
H     -2.805731   -2.127374    0.255850
H     -3.604949   -1.673197   -2.032328
H     -3.182552    0.526949   -3.088764
H     -1.957917    2.282888   -1.853217
H      0.705055   -1.302447   -0.745666
