31

C     -4.292418    2.043598   -0.124330
C     -3.493280    0.786852    0.054866
C     -4.109746   -0.380971    0.529172
C     -3.371360   -1.558791    0.669587
C     -2.018472   -1.584943    0.322026
C     -1.396442   -0.433142   -0.184874
C      0.067143   -0.453857   -0.535434
C      0.917170   -0.074246    0.680792
C      2.384938   -0.097052    0.331386
C      3.005049    1.077863   -0.128647
C      4.355951    1.071779   -0.486401
C      5.098218   -0.107522   -0.398578
C      4.490360   -1.285312    0.042610
C      3.137383   -1.289176    0.403053
N      2.536596   -2.508173    0.835174
C     -2.138321    0.753006   -0.311184
H     -4.720930    2.065520   -1.148005
H     -3.650936    2.939071    0.019492
H     -5.119393    2.091957    0.615835
H     -5.159658   -0.378234    0.795047
H     -3.848692   -2.453287    1.048482
H     -1.456533   -2.502719    0.444325
H      0.353419   -1.467387   -0.893545
H      0.265203    0.257747   -1.367407
H      0.628835    0.941116    1.032931
H      0.713050   -0.775239    1.519418
H      2.441282    1.998960   -0.211664
H      4.826807    1.981748   -0.835358
H      6.144043   -0.110204   -0.677415
H      5.071229   -2.197374    0.100490
H     -1.660494    1.648413   -0.691347
