31

C     -4.019746    0.269865    1.320294
C     -2.899087    0.247464    0.323621
C     -2.692097    1.340627   -0.531239
C     -1.620875    1.339348   -1.428052
C     -0.743421    0.253503   -1.471784
C     -0.931684   -0.843078   -0.615159
C      0.049919   -1.987507   -0.616704
C      1.081031   -1.855355    0.513288
C      1.945221   -0.626389    0.346613
C      1.614582    0.552381    1.038739
C      2.373536    1.712346    0.864236
C      3.466665    1.709570   -0.004170
C      3.801967    0.547418   -0.702895
C      3.046220   -0.619313   -0.536156
N      3.402014   -1.789060   -1.269920
C     -2.004974   -0.834220    0.290642
H     -3.661947    0.724809    2.267428
H     -4.380564   -0.760343    1.526488
H     -4.876442    0.862471    0.934368
H     -3.357422    2.194676   -0.500983
H     -1.465364    2.185577   -2.084686
H      0.091310    0.274120   -2.161574
H      0.570671   -2.051842   -1.597149
H     -0.503025   -2.943191   -0.486824
H      1.722019   -2.763047    0.525892
H      0.556965   -1.831042    1.494232
H      0.761810    0.575829    1.706158
H      2.111142    2.615511    1.399850
H      4.052557    2.609620   -0.138715
H      4.648454    0.555187   -1.378150
H     -2.139435   -1.665935    0.972311
