31

C     -3.921619    0.562155    1.585031
C     -2.845239    0.507550    0.541881
C     -2.558020    1.638940   -0.236642
C     -1.525082    1.602293   -1.176583
C     -0.765403    0.441614   -1.339700
C     -1.034293   -0.695164   -0.560486
C     -0.175572   -1.927626   -0.690488
C      0.903141   -1.988217    0.400495
C      1.882033   -0.841760    0.289281
C      1.698498    0.305562    1.081635
C      2.565437    1.394637    0.962001
C      3.621002    1.352080    0.049293
C      3.810638    0.221300   -0.748591
C      2.945919   -0.874191   -0.637339
N      3.153904   -2.011766   -1.471589
C     -2.068191   -0.651505    0.389069
H     -3.485745    0.902989    2.547270
H     -4.378384   -0.440222    1.728698
H     -4.726361    1.265522    1.282185
H     -3.131005    2.549713   -0.113547
H     -1.307256    2.478178   -1.773938
H      0.042026    0.433781   -2.061507
H     -0.818403   -2.830987   -0.608896
H      0.300703   -1.965586   -1.694636
H      0.419494   -1.989666    1.402280
H      1.447964   -2.953176    0.317123
H      0.876851    0.360666    1.785252
H      2.415995    2.274186    1.574783
H      4.290731    2.197354   -0.042551
H      4.628953    0.198405   -1.457398
H     -2.262718   -1.517061    1.011544
