31

C      4.494697   -0.030212   -1.590823
C      3.550029    0.211311   -0.450906
C      4.042704    0.373978    0.852786
C      3.164844    0.626596    1.910016
C      1.792503    0.735847    1.672253
C      1.288612    0.608168    0.368295
C     -0.192236    0.700419    0.115352
C     -0.845500   -0.679741    0.234765
C     -2.330646   -0.588296   -0.016087
C     -2.824410   -0.767023   -1.320252
C     -4.193066   -0.656771   -1.580228
C     -5.080557   -0.357382   -0.544781
C     -4.601269   -0.162522    0.752770
C     -3.231686   -0.270679    1.023006
N     -2.766138   -0.051540    2.352994
C      2.172591    0.340006   -0.689984
H      5.394116   -0.582964   -1.245015
H      4.004782   -0.634644   -2.383730
H      4.810852    0.943132   -2.020550
H      5.104826    0.299994    1.051370
H      3.548943    0.738053    2.915787
H      1.123047    0.923271    2.502763
H     -0.375606    1.114741   -0.900768
H     -0.655177    1.400718    0.845221
H     -0.653913   -1.103533    1.244737
H     -0.380946   -1.375133   -0.499210
H     -2.148502   -0.990477   -2.136562
H     -4.565431   -0.800275   -2.586344
H     -6.140040   -0.271202   -0.748680
H     -5.295417    0.076935    1.548656
H      1.787994    0.229225   -1.697162
