31

C      4.115793   -0.719065   -0.902427
C      2.906329    0.083715   -0.524967
C      2.580369    1.247515   -1.237678
C      1.428907    1.970219   -0.915768
C      0.589780    1.532506    0.111446
C      0.897399    0.363935    0.826676
C     -0.039249   -0.144527    1.893175
C     -0.961414   -1.251011    1.361349
C     -1.880013   -0.744251    0.273079
C     -1.526021   -0.930742   -1.075168
C     -2.338274   -0.430711   -2.096047
C     -3.508766    0.262842   -1.783002
C     -3.868608    0.460937   -0.447893
C     -3.060052   -0.034639    0.582086
N     -3.443371    0.191164    1.936851
C      2.051515   -0.364185    0.494465
H      3.834641   -1.471614   -1.668377
H      4.910372   -0.061355   -1.314870
H      4.530472   -1.242628   -0.014757
H      3.215281    1.593102   -2.044169
H      1.181768    2.866856   -1.469321
H     -0.307366    2.095013    0.338871
H     -0.648916    0.689305    2.305030
H      0.556647   -0.550984    2.739136
H     -0.347003   -2.099301    0.986657
H     -1.566133   -1.653114    2.202514
H     -0.614602   -1.454855   -1.335625
H     -2.057526   -0.577606   -3.130959
H     -4.135949    0.650341   -2.575434
H     -4.775617    1.004143   -0.213732
H      2.279605   -1.281004    1.025427
