31

C     -4.101451    1.403928    2.081191
C     -3.406556    0.501588    1.104950
C     -4.097244   -0.569016    0.517104
C     -3.457937   -1.392490   -0.413145
C     -2.131998   -1.144007   -0.776365
C     -1.438829   -0.056873   -0.221233
C     -0.002434    0.196022   -0.593003
C      0.938434   -0.562919    0.347545
C      2.378861   -0.312593   -0.025893
C      3.074919    0.750564    0.575597
C      4.400117    1.018860    0.222275
C      5.040079    0.236485   -0.740930
C      4.354996   -0.813402   -1.357148
C      3.027006   -1.089770   -1.009955
N      2.344899   -2.157047   -1.665147
C     -2.080167    0.760292    0.724394
H     -3.377920    1.816217    2.816430
H     -4.881780    0.847726    2.643149
H     -4.578681    2.242827    1.532996
H     -5.127967   -0.769234    0.782688
H     -3.991296   -2.224981   -0.853617
H     -1.646534   -1.795864   -1.492223
H      0.214076    1.286007   -0.539674
H      0.175831   -0.124331   -1.643258
H      0.758163   -0.236435    1.395882
H      0.716976   -1.651818    0.307474
H      2.590240    1.373033    1.317731
H      4.930219    1.836489    0.693436
H      6.066083    0.446908   -1.013959
H      4.856194   -1.410503   -2.108739
H     -1.546298    1.594338    1.164789
