31

C     -4.494335    1.485486   -0.475111
C     -3.557138    0.339606   -0.232698
C     -4.052084   -0.896837    0.208939
C     -3.182349   -1.972076    0.407962
C     -1.816657   -1.827144    0.151707
C     -1.311991   -0.605881   -0.321945
C      0.162781   -0.441579   -0.573840
C      0.874483    0.041936    0.693262
C      2.353582    0.204690    0.442813
C      2.850282    1.448616    0.015579
C      4.212168    1.613206   -0.251142
C      5.089468    0.537006   -0.104305
C      4.606524   -0.708221    0.304967
C      3.243658   -0.882941    0.574318
N      2.773513   -2.168150    0.975351
C     -2.187181    0.477175   -0.507194
H     -3.981891    2.454723   -0.296123
H     -5.368702    1.428845    0.207783
H     -4.852377    1.453460   -1.525251
H     -5.109463   -1.026729    0.404108
H     -3.567600   -2.919787    0.761455
H     -1.153097   -2.666687    0.318748
H      0.325129    0.289580   -1.396542
H      0.597878   -1.410758   -0.903723
H      0.704351   -0.679461    1.522112
H      0.437522    1.012678    1.017030
H      2.181852    2.291206   -0.112435
H      4.587045    2.575434   -0.575338
H      6.143665    0.666438   -0.312687
H      5.292432   -1.539684    0.408963
H     -1.801469    1.425854   -0.861922
