31

C     -4.111976    1.002832   -0.239175
C     -2.862978    0.235921   -0.557904
C     -2.396870    0.162675   -1.879272
C     -1.209093   -0.513038   -2.169772
C     -0.473142   -1.111329   -1.144433
C     -0.921568   -1.037462    0.184175
C     -0.097014   -1.628044    1.299787
C      0.757255   -0.563042    2.002305
C      1.779001    0.045318    1.069085
C      1.491319    1.261738    0.424553
C      2.402705    1.818470   -0.476227
C      3.607450    1.166589   -0.745870
C      3.902724   -0.045594   -0.117643
C      2.994853   -0.612351    0.785005
N      3.314672   -1.856454    1.404062
C     -2.111833   -0.350194    0.473025
H     -3.851019    2.060301   -0.025355
H     -4.622060    0.568881    0.647127
H     -4.821426    0.970049   -1.093374
H     -2.950740    0.631300   -2.683380
H     -0.853691   -0.565802   -3.190733
H      0.453643   -1.618211   -1.383489
H      0.556059   -2.440527    0.912541
H     -0.774809   -2.093910    2.047793
H      0.096014    0.227033    2.421864
H      1.274206   -1.028156    2.869115
H      0.555586    1.774052    0.612047
H      2.172587    2.754321   -0.968841
H      4.311546    1.599102   -1.444901
H      4.837270   -0.547078   -0.336067
H     -2.448670   -0.267391    1.499762
