31

C      2.592710    1.300905   -1.839279
C      2.261158    0.687268   -0.511462
C      2.916868    1.117979    0.651776
C      2.620434    0.530824    1.884520
C      1.678283   -0.497642    1.963962
C      1.035384   -0.958340    0.804515
C     -0.014933   -2.035605    0.896545
C     -1.389501   -1.461177    1.268389
C     -1.925449   -0.543727    0.192199
C     -2.511820   -1.103068   -0.956578
C     -2.971714   -0.281725   -1.989105
C     -2.845804    1.104945   -1.889372
C     -2.259201    1.674200   -0.756945
C     -1.796586    0.860102    0.283777
N     -1.189149    1.468909    1.421237
C      1.333296   -0.362555   -0.432604
H      1.698754    1.308321   -2.498871
H      2.934598    2.350398   -1.713956
H      3.398407    0.713282   -2.326627
H      3.652238    1.911718    0.605558
H      3.119601    0.875862    2.780761
H      1.447869   -0.933915    2.928034
H     -0.085943   -2.590452   -0.064874
H      0.284700   -2.776487    1.669485
H     -1.327712   -0.940136    2.247952
H     -2.098950   -2.305274    1.411134
H     -2.606305   -2.177587   -1.054510
H     -3.422051   -0.721368   -2.869657
H     -3.200223    1.739162   -2.691627
H     -2.160482    2.750470   -0.690173
H      0.831524   -0.705284   -1.330067
