31

C     -2.521533    2.260899    0.150582
C     -2.228881    0.861762   -0.303717
C     -2.887706    0.327168   -1.421187
C     -2.627837   -0.983276   -1.830439
C     -1.719869   -1.773387   -1.121199
C     -1.075418   -1.261912    0.015813
C     -0.060582   -2.098079    0.753388
C      1.319040   -2.041404    0.081559
C      1.901503   -0.646565    0.107912
C      1.754732    0.187159   -1.015201
C      2.239579    1.497246   -0.992676
C      2.873056    1.989582    0.149805
C      3.021010    1.173828    1.274020
C      2.536098   -0.139536    1.261930
N      2.688030   -0.947595    2.426940
C     -1.335782    0.057964    0.421263
H     -1.618290    2.718935    0.607332
H     -2.831956    2.896475   -0.705989
H     -3.338178    2.241795    0.902037
H     -3.597042    0.926145   -1.978865
H     -3.128973   -1.386364   -2.700993
H     -1.517671   -2.782737   -1.457660
H      0.020155   -1.765384    1.811370
H     -0.403776   -3.155264    0.777983
H      1.237744   -2.408535   -0.965413
H      2.005199   -2.741738    0.604669
H      1.252949   -0.173885   -1.904588
H      2.119777    2.132818   -1.860502
H      3.246750    3.005237    0.165548
H      3.509490    1.565047    2.157702
H     -0.831618    0.463600    1.290725
