32

C      4.478520    1.655565    0.338063
O      3.978099    0.733025   -0.624164
C      2.794824   -0.004938   -0.472598
C      2.416954   -0.874904   -1.501972
C      1.245016   -1.629637   -1.400406
C      0.435827   -1.530033   -0.258765
C     -0.854583   -2.304883   -0.172635
C     -1.987244   -1.612580   -0.944218
C     -2.329655   -0.264133   -0.352982
C     -1.767931    0.899215   -0.908828
C     -2.034909    2.151301   -0.349377
C     -2.861277    2.255535    0.771022
C     -3.420543    1.107400    1.336920
C     -3.157116   -0.151911    0.784681
N     -3.730528   -1.309593    1.388236
C      0.808331   -0.654559    0.773268
C      1.979455    0.101518    0.670393
H      5.425062    2.094441   -0.038488
H      3.745920    2.474556    0.498752
H      4.684942    1.133528    1.296236
H      3.032873   -0.962292   -2.388062
H      0.964649   -2.287368   -2.213862
H     -0.700431   -3.320479   -0.597825
H     -1.152547   -2.446360    0.889342
H     -1.698028   -1.505642   -2.013060
H     -2.886501   -2.265308   -0.929366
H     -1.113941    0.835224   -1.769858
H     -1.597086    3.041267   -0.782640
H     -3.065859    3.226401    1.203488
H     -4.056570    1.196642    2.208743
H      0.185621   -0.549119    1.653207
H      2.238656    0.768120    1.481438
