32

C     -6.031547    0.203714    0.272054
O     -5.076580   -0.848124    0.176720
C     -3.705758   -0.654787   -0.049733
C     -2.877815   -1.781246   -0.120122
C     -1.505269   -1.641668   -0.344447
C     -0.941623   -0.367774   -0.512541
C      0.541387   -0.214838   -0.718576
C      1.262275   -0.093617    0.627372
C      2.749720    0.055848    0.422061
C      3.307717    1.341838    0.315001
C      4.678324    1.502616    0.094650
C      5.503320    0.383248   -0.031130
C      4.959186   -0.900210    0.058190
C      3.587106   -1.071397    0.278582
N      3.053992   -2.392122    0.350021
C     -1.765810    0.764868   -0.429147
C     -3.138705    0.624834   -0.204681
H     -5.777932    0.873931    1.120416
H     -7.035142   -0.233003    0.452134
H     -6.059774    0.780923   -0.676247
H     -3.300573   -2.770311    0.003272
H     -0.881609   -2.526231   -0.385535
H      0.744814    0.688853   -1.334832
H      0.934728   -1.091542   -1.279026
H      1.050921   -0.988570    1.252466
H      0.867508    0.786534    1.181963
H      2.680356    2.220584    0.400815
H      5.100564    2.496271    0.017941
H      6.564380    0.510139   -0.203049
H      5.604768   -1.763072   -0.048148
H     -1.344491    1.756900   -0.536467
H     -3.748438    1.516264   -0.149978
