32

C      6.034281   -0.296686   -0.215097
O      5.081571    0.274590    0.675633
C      3.706349    0.363227    0.413483
C      2.881350    0.949849    1.380233
C      1.504637    1.062182    1.166389
C      0.933608    0.596338   -0.027626
C     -0.553280    0.684758   -0.243272
C     -1.251272   -0.566172    0.298883
C     -2.742536   -0.476937    0.086387
C     -3.306698   -1.002784   -1.089112
C     -4.681439   -0.904137   -1.320028
C     -5.504637   -0.271608   -0.386393
C     -4.954651    0.268443    0.778589
C     -3.578401    0.174729    1.018664
N     -3.039613    0.748091    2.208030
C      1.755053   -0.004727   -0.993579
C      3.132120   -0.116952   -0.779276
H      5.793014   -1.365081   -0.398269
H      7.042401   -0.233728    0.243252
H      6.044006    0.263149   -1.174123
H      3.309719    1.317591    2.304064
H      0.883530    1.510723    1.931979
H     -0.770588    0.793739   -1.328957
H     -0.953050    1.589620    0.265493
H     -0.850011   -1.467529   -0.215531
H     -1.026125   -0.686831    1.381058
H     -2.680968   -1.488248   -1.827981
H     -5.108339   -1.315617   -2.225544
H     -6.568929   -0.195221   -0.567926
H     -5.599007    0.764145    1.493922
H      1.328394   -0.388000   -1.912392
H      3.739512   -0.580916   -1.544276
