32

C      5.994802   -0.579504   -0.566023
O      5.122679    0.353780    0.063101
C      3.736883    0.179126    0.193022
C      2.997648    1.179501    0.835001
C      1.614345    1.052428    0.989968
C      0.950415   -0.087410    0.511715
C     -0.543681   -0.208387    0.646621
C     -1.245760    0.414857   -0.563587
C     -2.743994    0.297569   -0.427477
C     -3.402049   -0.822653   -0.964747
C     -4.784984   -0.966195   -0.823845
C     -5.522903    0.000156   -0.137502
C     -4.879205    1.110395    0.414172
C     -3.493994    1.262826    0.278400
N     -2.858732    2.397133    0.864417
C      1.685677   -1.086334   -0.144529
C      3.069365   -0.958824   -0.299398
H      5.706320   -0.714442   -1.629883
H      7.032540   -0.189813   -0.526079
H      5.959895   -1.553499   -0.033712
H      3.498178    2.062070    1.212813
H      1.060533    1.843035    1.481214
H     -0.828443   -1.280387    0.733435
H     -0.878522    0.298266    1.578617
H     -0.909875   -0.097803   -1.492263
H     -0.953609    1.483126   -0.662592
H     -2.843230   -1.586175   -1.491904
H     -5.284449   -1.829444   -1.244385
H     -6.593722   -0.113727   -0.028476
H     -5.457815    1.851358    0.951575
H      1.186661   -1.963544   -0.537775
H      3.609026   -1.747484   -0.805557
