32

C      4.422438    1.804598    0.275877
O      3.951385    0.858002   -0.677771
C      2.793050    0.083066   -0.518285
C      1.975914    0.172562    0.624897
C      0.830262   -0.620497    0.735831
C      0.485440   -1.516466   -0.288202
C     -0.778839   -2.332332   -0.193686
C     -1.934404   -1.684039   -0.969527
C     -2.320081   -0.342523   -0.389269
C     -1.797328    0.833793   -0.955736
C     -2.104496    2.081201   -0.406551
C     -2.932586    2.167898    0.714071
C     -3.453369    1.006951    1.290458
C     -3.149505   -0.247731    0.748550
N     -3.684072   -1.418361    1.362694
C      1.296177   -1.599306   -1.430084
C      2.442687   -0.807552   -1.539698
H      3.663622    2.600541    0.430618
H      5.353697    2.270956   -0.105713
H      4.646894    1.297796    1.238166
H      2.214080    0.854186    1.429884
H      0.205419   -0.527962    1.615709
H     -1.070820   -2.474413    0.869871
H     -0.592030   -3.345934   -0.610456
H     -1.650039   -1.576812   -2.039642
H     -2.811810   -2.365676   -0.947884
H     -1.142552    0.783888   -1.817101
H     -1.696499    2.981284   -0.847950
H     -3.168334    3.135204    1.138575
H     -4.091006    1.082772    2.162375
H      1.036565   -2.272778   -2.237527
H      3.060142   -0.882318   -2.425873
