32

C      6.039133    0.159137   -0.137873
O      5.044560   -0.763488   -0.570311
C      3.680044   -0.658856   -0.262155
C      3.160109    0.391860    0.517999
C      1.791551    0.451412    0.797814
C      0.924706   -0.539966    0.313157
C     -0.553156   -0.455384    0.585053
C     -1.255759    0.357484   -0.506526
C     -2.736969    0.446582   -0.232551
C     -3.600644   -0.520456   -0.776144
C     -4.971861   -0.474223   -0.510444
C     -5.493089    0.530083    0.307550
C     -4.643805    1.488187    0.866188
C     -3.268560    1.449981    0.605951
N     -2.420967    2.430283    1.201118
C      1.441548   -1.579022   -0.475492
C      2.809807   -1.638257   -0.754931
H      5.818249    1.172506   -0.534765
H      7.027156   -0.165737   -0.523389
H      6.080756    0.183535    0.971592
H      3.803319    1.168104    0.909328
H      1.406754    1.271727    1.391295
H     -0.725639    0.017642    1.576984
H     -0.987522   -1.478771    0.627692
H     -1.083046   -0.122038   -1.495619
H     -0.815597    1.377037   -0.562428
H     -3.211350   -1.311692   -1.405059
H     -5.630462   -1.220004   -0.936560
H     -6.555254    0.563190    0.513023
H     -5.055100    2.259201    1.505710
H      0.784879   -2.342048   -0.875014
H      3.196208   -2.448012   -1.360894
