32

C     -5.916233    0.380601    1.330162
O     -5.024988   -0.671239    0.974171
C     -3.693947   -0.479986    0.574715
C     -3.106683    0.797084    0.489847
C     -1.775324    0.935155    0.085798
C     -1.014794   -0.195643   -0.248873
C      0.428589   -0.049263   -0.649345
C      1.337524   -0.107151    0.582092
C      2.785264    0.035604    0.181276
C      3.370619    1.313365    0.145519
C      4.701081    1.471569   -0.251736
C      5.456884    0.359074   -0.626621
C      4.882816   -0.914305   -0.610012
C      3.550510   -1.082814   -0.213721
N      2.983391   -2.391231   -0.220651
C     -1.596602   -1.468695   -0.150919
C     -2.927619   -1.606304    0.252994
H     -5.519441    0.937519    2.205165
H     -6.057110    1.069129    0.470323
H     -6.899835   -0.054079    1.602069
H     -3.668294    1.687591    0.736837
H     -1.336319    1.924030    0.035247
H      0.576396    0.918197   -1.178480
H      0.704835   -0.859320   -1.359928
H      1.059166    0.707067    1.287531
H      1.183464   -1.066850    1.122089
H      2.795519    2.187869    0.424161
H      5.145411    2.458318   -0.272160
H      6.486768    0.484116   -0.935184
H      5.473623   -1.770928   -0.909610
H     -1.019022   -2.354326   -0.385758
H     -3.365651   -2.594156    0.319893
