32

C      6.020053   -0.008540   -0.634558
O      5.035828    0.977910   -0.341935
C      3.683503    0.698274   -0.095294
C      3.166624   -0.611436   -0.117249
C      1.810370   -0.838211    0.135701
C      0.953521    0.235026    0.423947
C     -0.513065   -0.006042    0.660952
C     -1.288189    0.050678   -0.658866
C     -2.759350   -0.187026   -0.421875
C     -3.269085   -1.495377   -0.492442
C     -4.622550   -1.741920   -0.246846
C     -5.477901   -0.688274    0.081224
C     -4.981140    0.614326    0.169453
C     -3.626552    0.871213   -0.074638
N     -3.141242    2.207457    0.037404
C      1.466608    1.540947    0.432177
C      2.822535    1.767238    0.179308
H      5.751652   -0.551299   -1.565476
H      6.999675    0.489858   -0.783868
H      6.109232   -0.721812    0.211923
H      3.802606   -1.459318   -0.331815
H      1.427357   -1.850899    0.105331
H     -0.910193    0.758845    1.364279
H     -0.659007   -1.000363    1.138273
H     -1.134431    1.038029   -1.146566
H     -0.889265   -0.718449   -1.356994
H     -2.617294   -2.325298   -0.736445
H     -5.007779   -2.751584   -0.307654
H     -6.525552   -0.881734    0.272294
H     -5.649694    1.424717    0.431976
H      0.816349    2.383570    0.632783
H      3.206376    2.779498    0.193296
