32

C      6.022826    0.002430   -0.489973
O      5.063246    0.856489    0.124196
C      3.701248    0.549035    0.259270
C      2.867333    1.483106    0.884931
C      1.503145    1.223675    1.044223
C      0.954318    0.016047    0.586858
C     -0.520723   -0.248540    0.726164
C     -1.280374    0.281676   -0.493571
C     -2.759894    0.020375   -0.353121
C     -3.304796   -1.168166   -0.869886
C     -4.667000   -1.444196   -0.724373
C     -5.496268   -0.543100   -0.053728
C     -4.964677    0.634351    0.477633
C     -3.601080    0.919537    0.337094
N     -3.080251    2.120704    0.902392
C      1.784137   -0.917217   -0.053089
C      3.148666   -0.657311   -0.212292
H      7.017322    0.492668   -0.458394
H      6.083544   -0.960868    0.059217
H      5.749156   -0.178671   -1.550887
H      3.278804    2.416965    1.246591
H      0.874363    1.964583    1.522531
H     -0.698959   -1.341629    0.831988
H     -0.903795    0.238966    1.649758
H     -0.895671   -0.211644   -1.413743
H     -1.094420    1.371566   -0.611529
H     -2.673688   -1.882242   -1.384606
H     -5.079304   -2.359457   -1.129122
H     -6.550766   -0.759556    0.058915
H     -5.613270    1.324218    1.003016
H      1.373650   -1.845865   -0.430277
H      3.763176   -1.397930   -0.705523
