32

C      4.295173    2.094199   -0.286116
O      3.756960    1.064069   -1.108636
C      2.691548    0.230402   -0.737693
C      2.046362    0.338847    0.509128
C      0.987623   -0.515049    0.831156
C      0.560123   -1.491256   -0.082391
C     -0.616478   -2.376180    0.242402
C     -1.915680   -1.848763   -0.383259
C     -2.305139   -0.500699    0.179021
C     -1.954563    0.668887   -0.518862
C     -2.264521    1.926139    0.005758
C     -2.923614    2.029767    1.232095
C     -3.271868    0.876219    1.938692
C     -2.963596   -0.388040    1.422125
N     -3.319242   -1.549785    2.168567
C      1.198719   -1.593385   -1.327306
C      2.258588   -0.740655   -1.648095
H      5.125591    2.592930   -0.826502
H      3.513385    2.849830   -0.060066
H      4.693005    1.661729    0.656183
H      2.351545    1.081604    1.233360
H      0.493418   -0.407767    1.788981
H     -0.738931   -2.470935    1.343593
H     -0.422249   -3.399848   -0.145363
H     -1.799268   -1.789609   -1.488001
H     -2.730599   -2.580563   -0.195341
H     -1.431098    0.607031   -1.465081
H     -1.989539    2.821080   -0.537297
H     -3.161757    3.004774    1.637200
H     -3.778686    0.965593    2.891434
H      0.871445   -2.329492   -2.051160
H      2.743341   -0.831074   -2.611934
