32

C     -6.033017    0.208545    0.386254
O     -5.086150   -0.624392   -0.274859
C     -3.708956   -0.364521   -0.334994
C     -2.890320   -1.270573   -1.019289
C     -1.511952   -1.056293   -1.108020
C     -0.932802    0.078142   -0.519460
C      0.555727    0.290880   -0.584142
C      1.248138   -0.383776    0.603864
C      2.741071   -0.174578    0.537767
C      3.313482    0.935651    1.183004
C      4.690048    1.165032    1.109415
C      5.506917    0.295805    0.383747
C      4.948778   -0.802596   -0.274522
C      3.570638   -1.040556   -0.206803
N      3.023552   -2.159829   -0.900744
C     -1.747910    0.981877    0.179092
C     -3.126633    0.767144    0.267685
H     -5.791652    0.276969    1.468054
H     -7.044368   -0.233264    0.275225
H     -6.035131    1.221003   -0.069997
H     -3.324965   -2.147637   -1.481935
H     -0.895903   -1.775266   -1.633996
H      0.781044    1.380384   -0.579280
H      0.952976   -0.123756   -1.536877
H      1.014651   -1.470875    0.611227
H      0.849739    0.037158    1.553690
H      2.692778    1.624914    1.742274
H      5.123296    2.019665    1.612822
H      6.572644    0.476132    0.327051
H      5.588297   -1.467535   -0.841520
H     -1.315025    1.852339    0.656653
H     -3.728993    1.483805    0.808955
