32

C      4.576656   -0.653239    2.057259
O      3.286132   -0.100455    2.294609
C      2.398354    0.299638    1.284913
C      2.710985    0.188483   -0.083580
C      1.790498    0.599065   -1.052381
C      0.550146    1.132670   -0.671305
C     -0.460661    1.527156   -1.718037
C     -1.228739    0.311035   -2.255231
C     -2.057019   -0.352690   -1.178915
C     -1.541983   -1.470537   -0.498473
C     -2.271920   -2.071362    0.530213
C     -3.520115   -1.561850    0.892792
C     -4.040463   -0.448039    0.229547
C     -3.315538    0.162115   -0.801188
N     -3.863540    1.304958   -1.454576
C      0.237016    1.237108    0.692874
C      1.156890    0.825350    1.660881
H      5.059431   -0.877784    3.030324
H      5.208577    0.075062    1.506363
H      4.487264   -1.596779    1.478479
H      3.659047   -0.217508   -0.408713
H      2.041737    0.495901   -2.100846
H      0.063657    2.021797   -2.564440
H     -1.175111    2.273365   -1.306538
H     -1.890415    0.639204   -3.085549
H     -0.512155   -0.416010   -2.697290
H     -0.569480   -1.870622   -0.757993
H     -1.867306   -2.930454    1.049531
H     -4.083385   -2.028170    1.690747
H     -5.007223   -0.056290    0.520200
H     -0.723326    1.627391    1.006686
H      0.901987    0.910557    2.709637
