32

C      6.019646   -0.389142    0.289086
O      5.008597    0.328752    0.988958
C      3.663535    0.388606    0.595209
C      2.773541    1.132497    1.378722
C      1.423437    1.223542    1.028554
C      0.945453    0.577078   -0.121392
C     -0.514830    0.645396   -0.479255
C     -1.287475   -0.494247    0.191704
C     -2.752421   -0.424382   -0.163313
C     -3.226818   -1.126540   -1.285149
C     -4.573896   -1.051603   -1.649474
C     -5.458010   -0.268208   -0.905123
C     -4.996480    0.446427    0.202854
C     -3.648560    0.377822    0.575527
N     -3.199443    1.129387    1.701171
C      1.831482   -0.180887   -0.902133
C      3.181900   -0.271764   -0.551494
H      5.768474   -1.470445    0.258609
H      6.986023   -0.263763    0.818944
H      6.125452    0.008221   -0.742489
H      3.130155    1.640037    2.266094
H      0.750332    1.796486    1.654458
H     -0.635497    0.580194   -1.583337
H     -0.934229    1.624656   -0.158961
H     -1.158782   -0.441375    1.294879
H     -0.866181   -1.470977   -0.134774
H     -2.552403   -1.731321   -1.878903
H     -4.931838   -1.598895   -2.511952
H     -6.500650   -0.210622   -1.189893
H     -5.687180    1.057720    0.770190
H      1.475752   -0.702959   -1.781936
H      3.840912   -0.859691   -1.175560
