33

N      3.306577   -0.079711    2.167905
C      3.722473   -0.100303    0.804001
C      5.066401    0.144179    0.496488
C      5.495805    0.144739   -0.832774
C      4.583429   -0.094400   -1.862244
C      3.240081   -0.339642   -1.565199
C      2.797718   -0.358068   -0.230821
C      1.336547   -0.592503    0.064036
C      0.581894    0.737913    0.142386
C     -0.873981    0.502714    0.439213
C     -1.323541    0.422522    1.779093
C     -2.675762    0.168563    2.061460
C     -3.550384   -0.010487    0.992611
O     -4.900860   -0.270623    1.067258
C     -5.450662   -0.395696   -0.244446
C     -4.268135   -0.183340   -1.222025
C     -3.125536    0.053816   -0.302064
C     -1.789517    0.303822   -0.616145
H      5.778970    0.338142    1.288473
H      6.535511    0.335730   -1.065245
H      4.916573   -0.086403   -2.892035
H      2.543575   -0.513911   -2.376156
H      1.224170   -1.148856    1.020177
H      0.888016   -1.227399   -0.732106
H      1.027495    1.377973    0.935504
H      0.685812    1.284638   -0.820966
H     -0.627205    0.553903    2.597979
H     -3.028343    0.108543    3.082714
H     -5.890650   -1.407806   -0.371624
H     -6.233026    0.377877   -0.398176
H     -4.088114   -1.090916   -1.837238
H     -4.435999    0.704610   -1.868492
H     -1.469332    0.340378   -1.650007
