33

N      3.900629   -0.843201    1.098336
C      3.188073   -0.200689    0.043479
C      3.567448    1.088069   -0.350751
C      2.876775    1.743970   -1.372521
C      1.803060    1.115515   -2.005874
C      1.418902   -0.171524   -1.621407
C      2.108850   -0.845397   -0.597687
C      1.639600   -2.213951   -0.158888
C      0.735153   -2.138682    1.079749
C     -0.535004   -1.378811    0.797003
C     -1.618334   -2.019799    0.150026
C     -2.781446   -1.300688   -0.170355
C     -2.831446    0.052168    0.156395
O     -3.872048    0.921112   -0.086552
C     -3.541618    2.227696    0.384904
C     -2.117205    2.115301    0.982753
C     -1.791358    0.680681    0.775648
C     -0.624341   -0.005286    1.110092
H      4.396059    1.584599    0.138556
H      3.171921    2.741563   -1.671094
H      1.264549    1.627861   -2.792601
H      0.574435   -0.638482   -2.113332
H      1.095276   -2.721054   -0.985985
H      2.518557   -2.853074    0.073194
H      0.480419   -3.171965    1.401117
H      1.287440   -1.669023    1.922918
H     -1.554811   -3.068701   -0.111343
H     -3.613534   -1.782546   -0.666606
H     -4.271399    2.541509    1.161478
H     -3.558409    2.947091   -0.461447
H     -1.398434    2.758493    0.430969
H     -2.115454    2.360891    2.066345
H      0.197692    0.516353    1.584392
