33

N     -1.288496    1.274861    1.686326
C     -1.954867    0.914899    0.478098
C     -2.256539    1.913813   -0.455174
C     -2.896446    1.588739   -1.653249
C     -3.236728    0.262762   -1.926520
C     -2.938491   -0.741860   -1.002384
C     -2.300993   -0.428450    0.210756
C     -1.943706   -1.544714    1.166566
C     -0.665879   -2.278718    0.735217
C      0.539494   -1.376207    0.781878
C      1.213520   -1.152271    2.006118
C      2.300894   -0.265436    2.067247
C      2.685784    0.387677    0.899011
O      3.711235    1.296906    0.762339
C      3.785864    1.754272   -0.588164
C      2.653651    1.019617   -1.348020
C      2.040671    0.182122   -0.285000
C      0.960119   -0.694042   -0.380112
H     -1.991071    2.944099   -0.253662
H     -3.125856    2.364953   -2.371803
H     -3.728054    0.012009   -2.857746
H     -3.198468   -1.767318   -1.234674
H     -1.827830   -1.164488    2.204282
H     -2.779513   -2.277303    1.197010
H     -0.797721   -2.695349   -0.287644
H     -0.503033   -3.144236    1.413676
H      0.889199   -1.656084    2.908070
H      2.820234   -0.086622    2.999514
H      4.778507    1.498192   -1.016192
H      3.633309    2.854181   -0.620516
H      3.063054    0.379249   -2.158454
H      1.908616    1.738716   -1.751276
H      0.449538   -0.829356   -1.325520
