33

N     -3.334699   -2.129040   -0.160398
C     -3.734127   -0.762972   -0.071262
C     -5.067993   -0.460007    0.227895
C     -5.480852    0.870109    0.335915
C     -4.561782    1.904632    0.150170
C     -3.228385    1.612169   -0.148966
C     -2.803062    0.278122   -0.275499
C     -1.351618   -0.014197   -0.566669
C     -0.566603   -0.197804    0.735518
C      0.879483   -0.492030    0.443522
C      1.310383   -1.827127    0.254695
C      2.652563   -2.104453   -0.052504
C      3.535830   -1.034692   -0.174621
O      4.878679   -1.104395   -0.472827
C      5.441526    0.207049   -0.515433
C      4.276615    1.178923   -0.203072
C      3.128701    0.256225   -0.005519
C      1.803015    0.565295    0.299654
H     -5.785469   -1.256497    0.381011
H     -6.512799    1.098940    0.568790
H     -4.881932    2.934535    0.241400
H     -2.526266    2.426309   -0.280688
H     -0.908489    0.821536   -1.152589
H     -1.264301   -0.928136   -1.193929
H     -0.645569    0.723954    1.353482
H     -1.006652   -1.030913    1.326755
H      0.607289   -2.646007    0.343098
H      2.990938   -3.122247   -0.195594
H      6.244033    0.295400    0.247664
H      5.858691    0.403356   -1.526158
H      4.473650    1.756752    0.725284
H      4.082588    1.860878   -1.058572
H      1.496614    1.597038    0.419445
