33

N      3.518661   -0.962095   -2.073217
C      3.069156   -0.144068   -0.995229
C      3.448492    1.203085   -0.956196
C      3.010289    2.028368    0.082137
C      2.190463    1.511856    1.087153
C      1.809005    0.168159    1.058352
C      2.247251   -0.675149    0.021574
C      1.775247   -2.110803   -0.020708
C      0.570957   -2.289759   -0.956429
C     -0.628234   -1.514043   -0.475955
C     -1.452790   -2.040460    0.546807
C     -2.536202   -1.295572    1.040724
C     -2.765960   -0.030845    0.504850
O     -3.762683    0.848677    0.865301
C     -3.661932    2.047612    0.096522
C     -2.443604    1.850342   -0.839303
C     -1.974730    0.487790   -0.477627
C     -0.893625   -0.227170   -0.991804
H      4.080221    1.612912   -1.734348
H      3.303595    3.069936    0.105718
H      1.846093    2.154358    1.887173
H      1.160659   -0.212443    1.838066
H      1.507430   -2.461348    1.000530
H      2.603339   -2.765741   -0.367443
H      0.312952   -3.369939   -1.006293
H      0.844774   -1.978865   -1.988370
H     -1.248717   -3.019038    0.963080
H     -3.170446   -1.689753    1.823782
H     -3.503361    2.914523    0.772869
H     -4.592104    2.194033   -0.492939
H     -1.650854    2.600253   -0.629604
H     -2.747345    1.885144   -1.907488
H     -0.265999    0.210045   -1.758443
