33

N     -3.207561    1.715089   -1.972209
C     -2.858883    1.260178   -0.666544
C     -3.069386    2.105211    0.429743
C     -2.723800    1.687898    1.717248
C     -2.165834    0.423760    1.916203
C     -1.954649   -0.427664    0.828849
C     -2.302780   -0.022167   -0.472116
C     -2.012170   -0.936832   -1.640282
C     -0.692420   -0.574075   -2.336399
C      0.489037   -0.750768   -1.417928
C      1.047266   -2.035571   -1.216156
C      2.109493   -2.215842   -0.315173
C      2.585514   -1.103418    0.374319
O      3.603476   -1.081717    1.301802
C      3.790036    0.244813    1.795897
C      2.742339    1.120888    1.065257
C      2.051699    0.138222    0.190852
C      0.999028    0.351397   -0.698403
H     -3.497212    3.089171    0.283637
H     -2.885398    2.346387    2.560887
H     -1.892162    0.104675    2.913560
H     -1.507258   -1.399223    0.999373
H     -2.840126   -0.873410   -2.378776
H     -1.975447   -1.996448   -1.303537
H     -0.738013    0.471820   -2.711310
H     -0.565381   -1.227205   -3.226974
H      0.652980   -2.891895   -1.748877
H      2.540857   -3.194943   -0.153593
H      4.820948    0.588863    1.565739
H      3.622441    0.262988    2.893943
H      3.232856    1.907489    0.452770
H      2.023974    1.570704    1.783875
H      0.576536    1.341625   -0.815679
