33

N     -3.426502    2.004647   -0.179265
C     -3.755740    0.617267   -0.159045
C     -5.090474    0.235104    0.022379
C     -5.436573   -1.117682    0.061265
C     -4.449891   -2.095930   -0.076257
C     -3.115044   -1.724274   -0.257968
C     -2.755275   -0.366336   -0.314171
C     -1.303556    0.011174   -0.478256
C     -0.636554    0.195968    0.887982
C      0.809853    0.574915    0.722745
C      1.180247    1.936031    0.604489
C      2.525404    2.293090    0.415315
C      3.473251    1.275699    0.338075
O      4.829809    1.425285    0.152600
C      5.465714    0.147319    0.122191
C      4.334842   -0.893790    0.312839
C      3.125657   -0.039465    0.439743
C      1.798827   -0.427277    0.627409
H     -5.860769    0.987435    0.137530
H     -6.469611   -1.407840    0.203206
H     -4.718951   -3.143646   -0.038622
H     -2.360770   -2.495694   -0.353495
H     -1.216954    0.947290   -1.072014
H     -0.769518   -0.781550   -1.047910
H     -0.713832   -0.747172    1.473020
H     -1.167712    0.986188    1.463044
H      0.428258    2.713552    0.656391
H      2.817541    3.331216    0.326851
H      6.207971    0.078397    0.945870
H      5.972916    0.004086   -0.855746
H      4.488269   -1.488338    1.238865
H      4.248013   -1.558737   -0.573104
H      1.541156   -1.476930    0.694942
