33

N     -1.288496    1.274861    1.686326
C     -1.954867    0.914899    0.478098
C     -2.256539    1.913812   -0.455174
C     -2.896446    1.588738   -1.653250
C     -3.236728    0.262762   -1.926519
C     -2.938491   -0.741860   -1.002383
C     -2.300993   -0.428450    0.210756
C     -1.943705   -1.544714    1.166566
C     -0.665880   -2.278718    0.735217
C      0.539494   -1.376207    0.781878
C      1.213520   -1.152270    2.006118
C      2.300894   -0.265436    2.067246
C      2.685785    0.387677    0.899010
O      3.711235    1.296906    0.762339
C      3.785863    1.754270   -0.588164
C      2.653650    1.019617   -1.348019
C      2.040671    0.182124   -0.285000
C      0.960120   -0.694041   -0.380112
H     -1.991071    2.944098   -0.253661
H     -3.125856    2.364954   -2.371803
H     -3.728054    0.012009   -2.857747
H     -3.198467   -1.767316   -1.234674
H     -1.827830   -1.164488    2.204282
H     -2.779512   -2.277302    1.197010
H     -0.797720   -2.695350   -0.287643
H     -0.503033   -3.144236    1.413676
H      0.889200   -1.656084    2.908070
H      2.820233   -0.086622    2.999514
H      4.778506    1.498192   -1.016191
H      3.633309    2.854182   -0.620516
H      3.063055    0.379249   -2.158454
H      1.908616    1.738715   -1.751276
H      0.449538   -0.829356   -1.325520
