33

N     -3.476969   -1.546583    1.591629
C     -3.042658   -0.407952    0.851238
C     -3.391601    0.871694    1.299548
C     -2.967165    2.003366    0.599245
C     -2.191560    1.862385   -0.552933
C     -1.840739    0.589532   -1.009695
C     -2.265683   -0.558479   -0.317142
C     -1.826082   -1.923162   -0.796799
C     -0.597471   -2.431223   -0.028486
C      0.603726   -1.549373   -0.252351
C      1.383312   -1.693429   -1.424761
C      2.467692   -0.834516   -1.667626
C      2.743476    0.160148   -0.732708
O      3.748560    1.099388   -0.800319
C      3.699870    1.954482    0.342074
C      2.507260    1.455340    1.195038
C      1.995737    0.310662    0.398008
C      0.914996   -0.527336    0.670213
H     -3.988865    0.990100    2.194990
H     -3.236762    2.990434    0.952040
H     -1.857649    2.740462   -1.090442
H     -1.226238    0.498869   -1.897013
H     -1.598703   -1.897046   -1.885444
H     -2.657871   -2.649052   -0.669850
H     -0.363181   -3.463259   -0.368856
H     -0.831444   -2.498200    1.056551
H      1.143598   -2.462191   -2.148699
H      3.067714   -0.936546   -2.562269
H      4.651236    1.875319    0.910195
H      3.540330    3.004922    0.017657
H      1.725955    2.239723    1.290444
H      2.845103    1.110844    2.195874
H      0.322077   -0.379322    1.564273
