33

N     -1.505314   -0.891974   -1.797929
C     -2.025282   -0.768528   -0.475872
C     -2.259782   -1.927763    0.273135
C     -2.755760   -1.836866    1.575548
C     -3.018289   -0.586424    2.137822
C     -2.786027    0.576652    1.399212
C     -2.293659    0.500189    0.084654
C     -2.002259    1.778176   -0.669740
C     -0.660725    2.395923   -0.249819
C      0.500484    1.504602   -0.605863
C      1.031060    1.517603   -1.917939
C      2.074006    0.646039   -2.271819
C      2.558990   -0.229574   -1.303539
O      3.560833   -1.161289   -1.462091
C      3.763916   -1.876878   -0.243360
C      2.746089   -1.291642    0.766853
C      2.052192   -0.253035   -0.037478
C      1.019298    0.601281    0.346679
H     -2.053572   -2.901506   -0.153331
H     -2.933723   -2.736416    2.150525
H     -3.397846   -0.517730    3.149098
H     -2.983650    1.539522    1.854113
H     -2.011702    1.608480   -1.767905
H     -2.810454    2.513291   -0.463312
H     -0.667461    2.604423    0.842742
H     -0.541536    3.375997   -0.760891
H      0.629616    2.193560   -2.662556
H      2.483775    0.647737   -3.273266
H      3.577426   -2.959476   -0.408658
H      4.805078   -1.723275    0.112321
H      2.023986   -2.066280    1.103453
H      3.262173   -0.829054    1.635275
H      0.618120    0.554234    1.351488
