33

N     -3.195679   -1.659378    1.810825
C     -2.903730   -0.525878    0.996440
C     -3.267859    0.749327    1.445328
C     -2.981014    1.876715    0.672044
C     -2.328576    1.735870   -0.554105
C     -1.963851    0.467261   -1.011782
C     -2.251197   -0.676716   -0.245699
C     -1.796083   -2.033443   -0.733389
C     -0.466778   -2.455872   -0.091195
C      0.655789   -1.524630   -0.469719
C      1.310067   -1.669055   -1.716358
C      2.315784   -0.766990   -2.100297
C      2.639437    0.269974   -1.228841
O      3.581264    1.254136   -1.432135
C      3.612515    2.142835   -0.315061
C      2.546883    1.614662    0.677143
C      2.011927    0.421018   -0.027299
C      1.011918   -0.459025    0.384819
H     -3.769899    0.867879    2.397410
H     -3.261569    2.860564    1.025287
H     -2.100821    2.611038   -1.148783
H     -1.445261    0.377507   -1.958447
H     -1.689704   -2.031995   -1.840734
H     -2.570490   -2.794281   -0.496058
H     -0.217643   -3.485936   -0.426963
H     -0.577968   -2.498506    1.014406
H      1.033400   -2.471842   -2.388319
H      2.819733   -0.869063   -3.052368
H      3.364556    3.173107   -0.648494
H      4.622689    2.128559    0.146965
H      3.008636    1.319942    1.643794
H      1.740960    2.362934    0.836434
H      0.512566   -0.310719    1.334270
