33

N     -3.479980   -1.234573   -1.504348
C     -3.778113   -0.236971   -0.529907
C     -5.097258   -0.091451   -0.083635
C     -5.412352    0.867996    0.881510
C     -4.409914    1.684060    1.409323
C     -3.090438    1.546418    0.970000
C     -2.762389    0.595128   -0.011845
C     -1.325664    0.442038   -0.446941
C     -0.616540   -0.620498    0.397930
C      0.814690   -0.774192   -0.039054
C      1.150852   -1.685905   -1.068418
C      2.480575   -1.808011   -1.503911
C      3.447315   -1.004535   -0.904493
O      4.793107   -0.977392   -1.196270
C      5.455487   -0.017645   -0.372478
C      4.354935    0.605145    0.521974
C      3.132356   -0.114930    0.080504
C      1.821568    0.030819    0.535139
H     -5.879336   -0.725546   -0.482247
H     -6.433395    0.975471    1.224187
H     -4.654703    2.421998    2.162347
H     -2.323280    2.180949    1.396594
H     -0.794313    1.414168   -0.343295
H     -1.279745    0.163766   -1.522497
H     -1.144957   -1.594396    0.300082
H     -0.653013   -0.330905    1.471502
H      0.384203   -2.295284   -1.530616
H      2.746654   -2.504487   -2.288130
H      5.931892    0.757970   -1.009335
H      6.226874   -0.523736    0.246373
H      4.252394    1.695062    0.331828
H      4.553030    0.409212    1.597577
H      1.589459    0.750256    1.310549
