33

N     -3.905049   -1.296389   -0.424260
C     -3.189003   -0.173770    0.085923
C     -3.562127    1.114303   -0.316426
C     -2.867917    2.229404    0.158835
C     -1.796897    2.063329    1.038772
C     -1.418980    0.782163    1.448225
C     -2.112548   -0.348880    0.981492
C     -1.649945   -1.728354    1.392258
C     -0.745696   -2.368672    0.329130
C      0.528149   -1.587007    0.136860
C      1.608729   -1.755773    1.035143
C      2.775359   -0.986098    0.896688
C      2.831594   -0.053602   -0.136158
O      3.876392    0.796607   -0.423360
C      3.551917    1.610839   -1.550461
C      2.126722    1.186683   -1.983961
C      1.794205    0.120328   -1.004409
C      0.623821   -0.629897   -0.896273
H     -4.388604    1.251692   -1.002443
H     -3.158225    3.222756   -0.158059
H     -1.255629    2.927939    1.400591
H     -0.576506    0.670603    2.119757
H     -1.107653   -1.682744    2.362501
H     -2.532004   -2.383355    1.559141
H     -1.296136   -2.454234   -0.633279
H     -0.495971   -3.404183    0.647241
H      1.540379   -2.474128    1.842507
H      3.605386   -1.107461    1.580172
H      4.282823    1.428841   -2.367024
H      3.572478    2.682206   -1.257420
H      1.411240    2.032009   -1.892841
H      2.125647    0.778192   -3.017219
H     -0.195952   -0.463348   -1.584051
