33

N     -3.189385   -1.796649   -1.580101
C     -3.669671   -0.693655   -0.814359
C     -5.035382   -0.612745   -0.516422
C     -5.528297    0.449609    0.245003
C     -4.658203    1.434387    0.716781
C     -3.293546    1.362339    0.424399
C     -2.786758    0.306683   -0.353642
C     -1.305035    0.231856   -0.628997
C     -0.599703   -0.609021    0.439218
C      0.876811   -0.685333    0.161582
C      1.393120   -1.708650   -0.669118
C      2.766208   -1.763832   -0.959478
C      3.594665   -0.783884   -0.418346
O      4.956255   -0.668314   -0.590812
C      5.446728    0.469873    0.118032
C      4.211163    1.111735    0.796649
C      3.105815    0.212883    0.374307
C      1.747521    0.296185    0.681227
H     -5.715788   -1.376450   -0.871975
H     -6.584665    0.506736    0.473766
H     -5.040843    2.252904    1.312714
H     -2.630853    2.129362    0.806050
H     -0.871208    1.256435   -0.641170
H     -1.125042   -0.205330   -1.635393
H     -0.771062   -0.160055    1.442621
H     -1.031087   -1.634127    0.457663
H      0.732429   -2.456399   -1.089926
H      3.169603   -2.544302   -1.591156
H      5.919068    1.179990   -0.593837
H      6.190145    0.146552    0.877596
H      4.037142    2.142708    0.420613
H      4.313091    1.107275    1.903061
H      1.376766    1.101235    1.303450
