34

N     -3.354701    0.414581   -2.549543
C     -3.893524    0.046306   -1.281604
C     -5.270128    0.176227   -1.061234
C     -5.820179   -0.163263    0.177118
C     -4.996701   -0.630008    1.203499
C     -3.621607   -0.763280    0.992978
C     -3.057353   -0.439529   -0.253374
C     -1.565776   -0.560239   -0.447224
C     -0.870328    0.764639   -0.120331
C      0.616733    0.643742   -0.317312
C      1.188842    0.911455   -1.573786
C      2.565911    0.761637   -1.769630
C      3.375867    0.331290   -0.715960
O      4.749829    0.144850   -0.898875
C      5.535471   -0.552869    0.071024
C      5.073289   -0.191799    1.488835
O      3.652410   -0.314188    1.592794
C      2.815458    0.077146    0.542835
C      1.438164    0.212536    0.738605
H     -5.914717    0.544732   -1.849475
H     -6.884748   -0.059613    0.342819
H     -5.423666   -0.885704    2.164666
H     -2.995677   -1.117797    1.802712
H     -1.339465   -0.858831   -1.494117
H     -1.163480   -1.362758    0.210207
H     -1.271045    1.571549   -0.772807
H     -1.088734    1.052364    0.931956
H      0.567125    1.229137   -2.401754
H      2.998959    0.962985   -2.741023
H      6.606545   -0.292601   -0.061462
H      5.413436   -1.646308   -0.084586
H      5.362303    0.858085    1.710033
H      5.559037   -0.858078    2.232212
H      1.012450   -0.006397    1.710212
