34

N     -3.506239    0.558310    2.100488
C     -3.959499    0.408638    0.756695
C     -5.322745    0.199146    0.515544
C     -5.789614    0.034252   -0.790660
C     -4.895853    0.073137   -1.862623
C     -3.533446    0.281920   -1.631927
C     -3.052550    0.464467   -0.323491
C     -1.573158    0.655630   -0.095873
C     -0.887770   -0.690631    0.156387
C      0.586923   -0.498101    0.386560
C      1.076221   -0.259918    1.683312
C      2.441835   -0.041504    1.894289
C      3.322992   -0.046744    0.810322
O      4.687070    0.200504    0.995122
C      5.544613    0.474220   -0.115937
C      5.161319   -0.406065   -1.312745
O      3.752261   -0.338058   -1.546440
C      2.845222   -0.298314   -0.482606
C      1.479688   -0.503383   -0.699071
H     -6.021500    0.159960    1.341874
H     -6.844208   -0.128866   -0.971582
H     -5.258422   -0.062038   -2.873458
H     -2.852310    0.299855   -2.473874
H     -1.404138    1.334733    0.768193
H     -1.114802    1.144905   -0.983913
H     -1.048325   -1.361743   -0.716324
H     -1.344360   -1.185865    1.041640
H      0.398963   -0.236846    2.528164
H      2.811001    0.147792    2.894069
H      6.599917    0.288706    0.174594
H      5.436799    1.542951   -0.400382
H      5.705235   -0.075305   -2.222273
H      5.440646   -1.459235   -1.094744
H      1.118232   -0.676513   -1.705331
