34

N     -3.532047   -0.898615   -2.032727
C     -3.974213   -0.259830   -0.836871
C     -5.306072    0.161259   -0.740348
C     -5.759757    0.803127    0.414425
C     -4.883578    1.031838    1.477170
C     -3.552544    0.615003    1.390224
C     -3.086931   -0.045620    0.239845
C     -1.637687   -0.457296    0.155172
C     -0.800879    0.645886   -0.499466
C      0.643559    0.232576   -0.586306
C      1.111064   -0.477090   -1.706806
C      2.444050   -0.896658   -1.771838
C      3.312686   -0.621280   -0.713024
O      4.640667   -1.058894   -0.743881
C      5.453710   -1.033065    0.432147
C      5.165736    0.232934    1.249758
O      3.756621    0.396580    1.429485
C      2.858190    0.098408    0.399943
C      1.523718    0.507320    0.474583
H     -5.990154   -0.005389   -1.563072
H     -6.789908    1.127988    0.483436
H     -5.235067    1.535795    2.368238
H     -2.883637    0.808638    2.219809
H     -1.541780   -1.400727   -0.425430
H     -1.244398   -0.665862    1.174936
H     -0.889352    1.583840    0.092319
H     -1.191750    0.860784   -1.518505
H      0.441325   -0.710509   -2.525311
H      2.795818   -1.448251   -2.634208
H      5.222267   -1.926719    1.050640
H      6.525250   -1.068377    0.143969
H      5.565347    1.116185    0.706717
H      5.662033    0.170892    2.240884
H      1.177712    1.045132    1.348780
