34

N      3.350153    1.396595    1.973856
C      3.896217    0.696617    0.857848
C      5.253909    0.851732    0.552740
C      5.809308    0.188977   -0.544352
C      5.009726   -0.628723   -1.345265
C      3.653647   -0.789929   -1.048570
C      3.085504   -0.140675    0.061508
C      1.612047   -0.303498    0.343230
C      0.805995    0.803000   -0.343611
C     -0.662887    0.641318   -0.058986
C     -1.234090    1.239964    1.078141
C     -2.591022    1.058424    1.366056
C     -3.380577    0.267854    0.527575
O     -4.731649    0.047806    0.814235
C     -5.473871   -0.968980    0.136000
C     -5.065966   -1.028457   -1.341919
O     -3.641746   -1.073826   -1.461179
C     -2.822178   -0.319469   -0.615429
C     -1.463847   -0.151582   -0.898880
H      5.879289    1.490127    1.164268
H      6.859074    0.313393   -0.776779
H      5.440207   -1.135726   -2.199169
H      3.045371   -1.420300   -1.685572
H      1.427966   -0.281615    1.439584
H      1.265530   -1.296037   -0.021306
H      0.982962    0.768556   -1.441469
H      1.150524    1.798071    0.014906
H     -0.626689    1.840689    1.743859
H     -3.022943    1.516574    2.246522
H     -5.260850   -1.949931    0.612527
H     -6.560223   -0.758742    0.226172
H     -5.508158   -1.924143   -1.826381
H     -5.442923   -0.121045   -1.860790
H     -1.037808   -0.627018   -1.773886
