34

N     -3.463012   -2.352782    0.227529
C     -3.936847   -1.014227    0.359362
C     -5.307743   -0.759768    0.231391
C     -5.795072    0.544764    0.341077
C     -4.914349    1.602699    0.574588
C     -3.544444    1.358608    0.703981
C     -3.042635    0.048607    0.610838
C     -1.556256   -0.186924    0.721096
C     -0.900639   -0.153354   -0.662685
C      0.581112   -0.391722   -0.551503
C      1.092543   -1.701231   -0.588015
C      2.465640   -1.927854   -0.445322
C      3.332523   -0.849557   -0.252347
O      4.704452   -1.056322   -0.076143
C      5.554172   -0.007605    0.396000
C      5.134362    1.334070   -0.218683
O      3.724509    1.524990   -0.075334
C      2.832338    0.459078   -0.229950
C      1.459575    0.688414   -0.358481
H     -5.996667   -1.573615    0.042574
H     -6.855535    0.736309    0.239909
H     -5.292934    2.613732    0.652069
H     -2.873848    2.191692    0.875485
H     -1.359793   -1.166135    1.209878
H     -1.097485    0.593338    1.368255
H     -1.088567    0.832874   -1.142093
H     -1.357818   -0.929670   -1.315160
H      0.426868   -2.545291   -0.720017
H      2.852010   -2.938741   -0.467752
H      5.468777    0.055754    1.502079
H      6.608267   -0.236883    0.133689
H      5.674520    2.168511    0.275711
H      5.390755    1.335686   -1.299875
H      1.081222    1.702554   -0.319076
