34

N     -3.507956    0.235937    2.307426
C     -3.966667    0.072941    0.967036
C     -5.317141    0.300220    0.675417
C     -5.788062    0.162182   -0.632446
C     -4.910849   -0.199189   -1.656816
C     -3.561291   -0.428351   -1.375498
C     -3.077430   -0.307686   -0.060998
C     -1.610069   -0.527900    0.213425
C     -0.840282    0.793154    0.123688
C      0.622340    0.572555    0.400891
C      1.111042    0.636031    1.718028
C      2.462982    0.392434    1.982667
C      3.330179    0.071470    0.935575
O      4.678509   -0.206432    1.182081
C      5.504671   -0.802222    0.178468
C      5.162414   -0.226950   -1.202145
O      3.749228   -0.263073   -1.417283
C      2.853848    0.021156   -0.381159
C      1.501104    0.250489   -0.647773
H     -6.002554    0.588298    1.462713
H     -6.832643    0.340439   -0.852856
H     -5.276084   -0.298609   -2.670837
H     -2.892338   -0.698705   -2.183305
H     -1.473165   -0.978629    1.220629
H     -1.192986   -1.251272   -0.522013
H     -1.255262    1.521478    0.854946
H     -0.969337    1.233476   -0.889849
H      0.443476    0.867244    2.538931
H      2.831356    0.436404    2.999547
H      5.328050   -1.899242    0.170063
H      6.572679   -0.616232    0.417753
H      5.674373   -0.807913   -1.997676
H      5.508512    0.827704   -1.253472
H      1.139355    0.188789   -1.666848
