34

N     -3.139320   -2.716506    0.536956
C     -3.788710   -1.475572    0.268620
C     -5.161532   -1.355996    0.516695
C     -5.817783   -0.146442    0.276612
C     -5.104603    0.951593   -0.208277
C     -3.734204    0.841860   -0.459136
C     -3.064593   -0.374080   -0.236201
C     -1.578419   -0.459628   -0.483025
C     -0.799731   -0.136757    0.795729
C      0.682141   -0.225744    0.548945
C      1.355631   -1.449072    0.715036
C      2.725675   -1.543411    0.448205
C      3.426604   -0.420521    0.001813
O      4.789705   -0.500777   -0.300683
C      5.450044    0.547215   -1.015115
C      4.926805    1.914759   -0.556622
O      3.496925    1.924958   -0.561432
C      2.765710    0.805407   -0.151589
C      1.394265    0.900213    0.100893
H     -5.720522   -2.200494    0.900058
H     -6.878856   -0.058796    0.471416
H     -5.613355    1.890105   -0.386846
H     -3.194035    1.705956   -0.826146
H     -1.287348    0.254455   -1.285184
H     -1.308999   -1.476102   -0.844344
H     -1.062529    0.886063    1.145830
H     -1.089206   -0.845953    1.602356
H      0.817826   -2.329626    1.044241
H      3.236692   -2.489601    0.571744
H      5.249287    0.425760   -2.101238
H      6.545232    0.479108   -0.846549
H      5.306377    2.715012   -1.225958
H      5.285738    2.114810    0.475784
H      0.889087    1.847800   -0.040729
