34

N     -3.433776   -1.011171   -2.382760
C     -3.928845   -0.609334   -1.107197
C     -5.299661   -0.370399   -0.951459
C     -5.807229    0.038988    0.283897
C     -4.946832    0.216347    1.369109
C     -3.577181   -0.019889    1.223463
C     -3.055457   -0.446893   -0.010256
C     -1.569040   -0.664133   -0.152831
C     -0.881248    0.614647   -0.640141
C      0.600561    0.395542   -0.785068
C      1.130545   -0.083788   -1.996293
C      2.502834   -0.325619   -2.120622
C      3.350089   -0.102674   -1.032549
O      4.720144   -0.367744   -1.125685
C      5.544025   -0.413476    0.042167
C      5.120638    0.677545    1.034428
O      3.705305    0.642296    1.235114
C      2.831693    0.389152    0.172683
C      1.459364    0.618951    0.304975
H     -5.972726   -0.498175   -1.790072
H     -6.867508    0.223782    0.398648
H     -5.340923    0.540587    2.323614
H     -2.922290    0.131573    2.072767
H     -1.370900   -1.495606   -0.863993
H     -1.136465   -0.968325    0.826168
H     -1.312148    0.925236   -1.617515
H     -1.071185    1.440033    0.081285
H      0.479778   -0.276091   -2.840393
H      2.903393   -0.700812   -3.053606
H      6.607078   -0.277320   -0.247437
H      5.431556   -1.408178    0.524490
H      5.637470    0.533878    2.006402
H      5.402566    1.671471    0.625353
H      1.066372    0.979600    1.247669
