34

N      3.793311   -0.777387   -2.029512
C      3.298930   -0.036515   -0.915966
C      3.614867    1.323014   -0.805941
C      3.132223    2.073500    0.268804
C      2.330834    1.469464    1.239322
C      2.012340    0.112811    1.139528
C      2.496207   -0.655799    0.065672
C      2.094034   -2.108381   -0.051503
C      0.905908   -2.298168   -1.005618
C     -0.334186   -1.607868   -0.497584
C     -1.127629   -2.216391    0.490935
C     -2.251816   -1.557252    0.999521
C     -2.584411   -0.284669    0.529069
O     -3.717273    0.382106    1.006617
C     -4.215877    1.551765    0.352308
C     -3.052120    2.428589   -0.128474
O     -2.100783    1.638417   -0.846099
C     -1.778051    0.343069   -0.429344
C     -0.665623   -0.319924   -0.953785
H      4.231882    1.800426   -1.556896
H      3.376750    3.124919    0.347418
H      1.952038    2.053987    2.067749
H      1.377791   -0.336436    1.893644
H      2.954964   -2.704952   -0.422743
H      1.837037   -2.521697    0.948812
H      0.702164   -3.385870   -1.112106
H      1.171105   -1.923121   -2.018328
H     -0.873219   -3.199362    0.867579
H     -2.865108   -2.036209    1.751913
H     -4.825641    1.243046   -0.523810
H     -4.862384    2.121855    1.051955
H     -2.551211    2.884670    0.752351
H     -3.429222    3.241822   -0.783387
H     -0.047834    0.176542   -1.692098
