34

N     -3.997006   -1.579189   -0.821291
C     -3.388517   -0.469341   -0.164581
C     -3.817981    0.826709   -0.474508
C     -3.228982    1.931044    0.145795
C     -2.207239    1.746185    1.078992
C     -1.773721    0.456609    1.396737
C     -2.361887   -0.664317    0.783841
C     -1.839774   -2.046930    1.102030
C     -0.830707   -2.533441    0.051750
C      0.402834   -1.667553    0.019195
C      1.420515   -1.850310    0.972059
C      2.544008   -1.016837    0.974777
C      2.652836    0.007479    0.031196
O      3.778411    0.837053    0.001091
C      4.026971    1.703888   -1.108704
C      2.711247    2.309461   -1.615117
O      1.732529    1.283387   -1.798650
C      1.625984    0.218667   -0.898214
C      0.511524   -0.623792   -0.916497
H     -4.606601    0.979181   -1.200727
H     -3.562475    2.931011   -0.099771
H     -1.747233    2.603252    1.553621
H     -0.970288    0.332056    2.112381
H     -2.687392   -2.764063    1.148736
H     -1.364793   -2.060294    2.107875
H     -0.538412   -3.578592    0.292938
H     -1.311997   -2.560463   -0.950348
H      1.341289   -2.636618    1.712503
H      3.329398   -1.170352    1.703623
H      4.727012    2.509033   -0.801844
H      4.496742    1.117020   -1.926997
H      2.877654    2.840426   -2.575767
H      2.333580    3.038630   -0.866485
H     -0.277526   -0.448998   -1.637674
