28

N      1.830526    1.251052   -2.214403
C      2.540042    0.620663   -1.150059
C      3.906834    0.880280   -0.993063
C      4.621082    0.287339    0.050745
C      3.972088   -0.565033    0.946696
F      4.665221   -1.132333    1.964542
C      2.607728   -0.830262    0.797598
C      1.880799   -0.251849   -0.257686
C      0.402031   -0.526753   -0.379141
C     -0.407528    0.536121    0.369745
C     -1.882269    0.263247    0.244889
C     -2.531941   -0.562834    1.177399
C     -3.895466   -0.841794    1.040997
C     -4.616214   -0.307196   -0.030533
C     -3.973689    0.503988   -0.969995
C     -2.610328    0.785491   -0.837368
H      4.416160    1.545987   -1.678662
H      5.677300    0.493466    0.167287
H      2.115912   -1.485892    1.505807
H      0.169587   -1.532090    0.037207
H      0.103604   -0.545640   -1.450092
H     -0.176513    1.543995   -0.040421
H     -0.115191    0.541806    1.443196
H     -1.982661   -0.990851    2.006900
H     -4.392601   -1.475341    1.764147
H     -5.671179   -0.525163   -0.135367
H     -4.531343    0.911907   -1.803118
H     -2.121991    1.407687   -1.577248
