28

N      1.835860   -0.485957    2.610670
C      2.524199   -0.011849    1.455227
C      3.919506   -0.114190    1.402193
C      4.615933    0.328770    0.275233
C      3.921138    0.872387   -0.807447
F      4.598271    1.293349   -1.904058
C      2.528016    0.978776   -0.763280
C      1.816549    0.550661    0.371243
C      0.310557    0.645170    0.382802
C     -0.315413   -0.653017   -0.135648
C     -1.817366   -0.559189   -0.120159
C     -2.538469   -0.927269    1.028150
C     -3.931621   -0.808483    1.052751
C     -4.612349   -0.313188   -0.062923
C     -3.900655    0.068173   -1.203759
C     -2.507431   -0.048949   -1.232600
H      4.465423   -0.541490    2.234067
H      5.694582    0.245399    0.240133
H      2.002036    1.393784   -1.614402
H     -0.051195    0.855338    1.413004
H     -0.019093    1.496262   -0.253632
H      0.013519   -1.508100    0.495265
H      0.038803   -0.851756   -1.171422
H     -2.021933   -1.303582    1.902566
H     -4.483216   -1.097149    1.938125
H     -5.690515   -0.220644   -0.041763
H     -4.428303    0.457919   -2.064664
H     -1.966830    0.258826   -2.119168
