28

N      2.399397   -1.942320   -1.941208
C      2.360559   -0.860965   -1.012507
C      3.249102    0.208924   -1.172959
C      3.223107    1.285661   -0.283499
C      2.307985    1.299688    0.771227
F      2.278330    2.349784    1.628303
C      1.418774    0.234952    0.940606
C      1.438814   -0.858135    0.056000
C      0.434975   -1.974996    0.229077
C     -0.781717   -1.798336   -0.690606
C     -1.563844   -0.554998   -0.351199
C     -1.354588    0.634488   -1.069958
C     -2.047220    1.798194   -0.722453
C     -2.948668    1.784359    0.345387
C     -3.156669    0.607310    1.069679
C     -2.464872   -0.558430    0.726545
H      3.958711    0.208413   -1.990905
H      3.910947    2.111007   -0.415038
H      0.706015    0.266476    1.755655
H      0.919376   -2.949630    0.004609
H      0.096487   -2.032333    1.287210
H     -0.452063   -1.772066   -1.752317
H     -1.442475   -2.686088   -0.584457
H     -0.648762    0.662632   -1.890941
H     -1.881741    2.711988   -1.278323
H     -3.482951    2.686458    0.614024
H     -3.850811    0.599311    1.900054
H     -2.626196   -1.461348    1.302372
