28

N     -2.720546   -2.280602    0.500527
C     -2.492331   -0.973177   -0.020899
C     -3.412575    0.043861    0.259639
C     -3.205625    1.335734   -0.229656
C     -2.076904    1.618826   -1.001627
F     -1.873218    2.875381   -1.468254
C     -1.154091    0.609350   -1.288718
C     -1.353863   -0.696941   -0.807609
C     -0.317650   -1.760976   -1.088890
C      0.657494   -1.934305    0.084318
C      1.474295   -0.689576    0.321581
C      2.594748   -0.415393   -0.480171
C      3.325732    0.761355   -0.289912
C      2.939651    1.674466    0.695217
C      1.820840    1.413193    1.490882
C      1.088022    0.237108    1.305110
H     -4.288012   -0.165812    0.861493
H     -3.919604    2.118096   -0.006571
H     -0.276774    0.847508   -1.877717
H      0.251324   -1.514371   -2.012449
H     -0.823204   -2.730947   -1.285139
H      0.096859   -2.212046    1.003634
H      1.340465   -2.782292   -0.140271
H      2.897183   -1.109835   -1.254216
H      4.189027    0.967516   -0.909299
H      3.504986    2.586075    0.839337
H      1.518663    2.124228    2.248849
H      0.215108    0.053576    1.919386
