28

N     -1.736678   -2.100704   -2.429301
C     -2.005092   -1.354079   -1.244467
C     -2.926540   -1.854023   -0.316617
C     -3.198149   -1.147354    0.857275
C     -2.549469    0.062979    1.111057
F     -2.807842    0.743041    2.255136
C     -1.629850    0.570934    0.189466
C     -1.352098   -0.127382   -0.999222
C     -0.317458    0.416014   -1.958006
C      1.054512   -0.241857   -1.752407
C      1.625599    0.068361   -0.392100
C      2.256956    1.300534   -0.154328
C      2.746502    1.606699    1.119202
C      2.602853    0.689766    2.164145
C      1.967927   -0.534456    1.937796
C      1.478375   -0.845321    0.665628
H     -3.430448   -2.794152   -0.503203
H     -3.909548   -1.541033    1.571803
H     -1.125005    1.504369    0.406621
H     -0.649660    0.240175   -3.003791
H     -0.222588    1.518415   -1.843033
H      1.750942    0.130769   -2.534779
H      0.971800   -1.341280   -1.897390
H      2.364300    2.023833   -0.953190
H      3.233348    2.556830    1.297117
H      2.979957    0.929467    3.149915
H      1.851081   -1.240945    2.749348
H      0.976274   -1.791805    0.507326
