28

N      2.188569   -0.630927   -2.787128
C      2.227124   -0.054101   -1.483628
C      2.992364    1.098503   -1.269550
C      3.037203    1.689400   -0.004637
C      2.316509    1.132043    1.053685
F      2.354242    1.712053    2.278563
C      1.551748   -0.019763    0.849895
C      1.503114   -0.628205   -0.417072
C      0.630283   -1.844515   -0.626314
C     -0.734980   -1.473281   -1.222642
C     -1.539205   -0.609669   -0.284448
C     -1.545421    0.787760   -0.434225
C     -2.254343    1.589151    0.465726
C     -2.957247    1.003237    1.521999
C     -2.949792   -0.385166    1.681966
C     -2.240793   -1.190328    0.785133
H      3.550413    1.540030   -2.085769
H      3.628557    2.582138    0.153292
H      0.987778   -0.432692    1.677392
H      0.482118   -2.385985    0.334085
H      1.141335   -2.557023   -1.309029
H     -0.593767   -0.959451   -2.198669
H     -1.299352   -2.407593   -1.433630
H     -0.993782    1.255740   -1.240255
H     -2.255111    2.664906    0.346786
H     -3.504332    1.625156    2.218650
H     -3.489868   -0.837344    2.503717
H     -2.233365   -2.264075    0.926107
