28

N      2.154612   -0.106479    2.128500
C      2.688583    0.070336    0.818062
C      4.055185   -0.145072    0.603201
C      4.599867    0.006507   -0.674143
C      3.780633    0.369770   -1.745288
F      4.309653    0.507479   -2.986034
C      2.415085    0.587160   -1.540160
C      1.857318    0.452732   -0.256637
C      0.374929    0.660352   -0.065596
C     -0.378472   -0.665343   -0.209964
C     -1.856334   -0.457905   -0.015540
C     -2.676741   -0.133709   -1.109107
C     -4.044146    0.090981   -0.921114
C     -4.599104    0.003502    0.358657
C     -3.786769   -0.304738    1.453435
C     -2.418895   -0.530184    1.269911
H      4.696133   -0.434475    1.426643
H      5.656988   -0.162976   -0.833633
H      1.790480    0.859154   -2.382290
H     -0.004510    1.386824   -0.818151
H      0.176835    1.101794    0.935522
H     -0.000740   -1.396771    0.538198
H     -0.188091   -1.096205   -1.217888
H     -2.257277   -0.053658   -2.104405
H     -4.672976    0.336388   -1.767176
H     -5.657371    0.179002    0.502611
H     -4.216403   -0.365559    2.444992
H     -1.798473   -0.758906    2.127692
