28

N      2.368656   -1.772102   -1.971143
C      2.331164   -0.695624   -1.036738
C      3.127524    0.433223   -1.263529
C      3.099913    1.505967   -0.369309
C      2.275260    1.456990    0.756588
F      2.243205    2.502891    1.618692
C      1.478614    0.333241    0.992360
C      1.501829   -0.756227    0.103376
C      0.595129   -1.939928    0.351916
C     -0.701941   -1.848484   -0.464547
C     -1.537814   -0.662219   -0.056009
C     -2.345365   -0.727637    1.091588
C     -3.085759    0.387481    1.496066
C     -3.019531    1.575791    0.763371
C     -2.211471    1.651619   -0.374333
C     -1.470740    0.538589   -0.783223
H      3.766260    0.481541   -2.136605
H      3.715989    2.376958   -0.552197
H      0.834371    0.315638    1.862972
H      0.349016   -2.020114    1.433815
H      1.125796   -2.878730    0.083617
H     -1.288842   -2.779868   -0.309493
H     -0.462760   -1.799901   -1.549455
H     -2.396275   -1.639306    1.673938
H     -3.707506    0.331746    2.380230
H     -3.591175    2.438789    1.079380
H     -2.155556    2.574436   -0.937074
H     -0.837994    0.615241   -1.658868
