28

N      1.768065   -0.900461    2.425367
C      2.493612   -0.282834    1.364350
C      3.886476   -0.417814    1.321016
C      4.618657    0.164607    0.283730
C      3.962197    0.881501   -0.719058
F      4.673851    1.438299   -1.729899
C      2.571816    1.021709   -0.683864
C      1.824842    0.453309    0.362826
C      0.322038    0.589901    0.362066
C     -0.327335   -0.599085   -0.352461
C     -1.826207   -0.463873   -0.349354
C     -2.478213    0.224220   -1.386405
C     -3.868083    0.377259   -1.364786
C     -4.614147   -0.145853   -0.304979
C     -3.971138   -0.819362    0.737309
C     -2.581478   -0.974663    0.719640
H      4.402672   -0.978507    2.090296
H      5.695177    0.055191    0.255439
H      2.075630    1.572464   -1.473650
H     -0.056004    0.657515    1.405552
H      0.029172    1.534499   -0.147876
H     -0.035164   -1.546797    0.151412
H      0.043597   -0.654351   -1.399911
H     -1.910588    0.642395   -2.208540
H     -4.366420    0.904515   -2.167988
H     -5.689640   -0.025368   -0.289117
H     -4.549211   -1.218139    1.560888
H     -2.094174   -1.490278    1.537995
