28

N     -1.644005    2.260658   -1.405063
C     -2.391314    1.508315   -0.451576
C     -3.788920    1.592674   -0.459619
C     -4.544265    0.853777    0.454059
C     -3.907075    0.022922    1.377689
C     -2.512619   -0.067690    1.393574
C     -1.739947    0.682169    0.489536
C     -0.237437    0.543324    0.503516
C      0.212735   -0.546644   -0.473849
C      1.711596   -0.681565   -0.462113
C      2.337920   -1.553317    0.444286
C      3.732422   -1.652946    0.476293
C      4.510601   -0.877096   -0.387967
F      5.862513   -0.973863   -0.354335
C      3.894707    0.002860   -1.282838
C      2.500495    0.105303   -1.317858
H     -4.291264    2.228782   -1.177695
H     -5.624452    0.921415    0.442718
H     -4.494298   -0.554389    2.080114
H     -2.034569   -0.724133    2.110295
H      0.238244    1.512133    0.236139
H      0.108423    0.287613    1.529708
H     -0.254875   -1.516616   -0.194046
H     -0.133433   -0.297763   -1.501292
H      1.746916   -2.152937    1.125576
H      4.208959   -2.329482    1.174034
H      4.496920    0.608775   -1.947546
H      2.036024    0.797719   -2.009135
