28

N      1.888454   -2.427478    0.496813
C      2.573077   -1.245002    0.088565
C      3.953454   -1.147435    0.301921
C      4.644440    0.006588   -0.075022
C      3.958763    1.071283   -0.662979
C      2.581076    0.983128   -0.880175
C      1.876202   -0.178590   -0.519398
C      0.383675   -0.238300   -0.733423
C     -0.360134    0.244417    0.515440
C     -1.848587    0.180697    0.302433
C     -2.557483   -0.994693    0.601998
C     -3.935243   -1.063855    0.372775
C     -4.612266    0.034527   -0.165404
F     -5.947776   -0.034960   -0.388444
C     -3.910905    1.202512   -0.479017
C     -2.533087    1.275537   -0.251261
H      4.491480   -1.965552    0.764336
H      5.711253    0.077574    0.093435
H      4.494613    1.967535   -0.947783
H      2.062813    1.821802   -1.328694
H      0.101294    0.396777   -1.602338
H      0.074482   -1.277318   -0.980798
H     -0.057786    1.288916    0.750817
H     -0.078856   -0.385098    1.388371
H     -2.043148   -1.855857    1.010519
H     -4.476556   -1.970810    0.609507
H     -4.433385    2.050882   -0.901999
H     -1.999863    2.182773   -0.507341
