28

N      2.742369   -2.304730   -0.348852
C      2.496673   -0.967026    0.079518
C      3.186645   -0.468528    1.191118
C      2.955391    0.834844    1.637168
C      2.032505    1.646815    0.975323
C      1.340549    1.158899   -0.136055
C      1.568612   -0.149090   -0.599673
C      0.773780   -0.672472   -1.774107
C     -0.436186   -1.502477   -1.321981
C     -1.431869   -0.668907   -0.556120
C     -2.339752    0.155287   -1.241382
C     -3.233245    0.962465   -0.530492
C     -3.221813    0.958233    0.867422
F     -4.086583    1.744147    1.554891
C     -2.315149    0.147399    1.556332
C     -1.421227   -0.662225    0.849168
H      3.900692   -1.093282    1.713029
H      3.489496    1.214477    2.498605
H      1.849803    2.654275    1.326160
H      0.618550    1.797807   -0.629695
H      0.429375    0.168559   -2.415638
H      1.426749   -1.304202   -2.414027
H     -0.932167   -1.930661   -2.220110
H     -0.095021   -2.363229   -0.706113
H     -2.350852    0.175735   -2.324125
H     -3.931241    1.594355   -1.064438
H     -2.301118    0.148764    2.638625
H     -0.714964   -1.275232    1.395448
