28

N     -1.948185    2.416761   -0.561758
C     -2.597943    1.148912   -0.498504
C     -3.983912    1.101155   -0.305392
C     -4.641690   -0.128527   -0.224567
C     -3.917174   -1.317241   -0.331606
C     -2.533598   -1.279722   -0.524682
C     -1.861433   -0.048815   -0.622970
C     -0.362806   -0.032890   -0.798672
C      0.339184    0.028879    0.561226
C      1.833638    0.048638    0.384756
C      2.556045   -1.154648    0.321299
C      3.940384   -1.135296    0.124280
C      4.610830    0.082903   -0.020445
F      5.952768    0.099581   -0.213025
C      3.896445    1.283648    0.027576
C      2.512047    1.268427    0.224455
H     -4.552187    2.018364   -0.213699
H     -5.713032   -0.159983   -0.073759
H     -4.427543   -2.269148   -0.261498
H     -1.985293   -2.211057   -0.596200
H     -0.060382    0.837377   -1.421189
H     -0.036946   -0.946728   -1.343458
H      0.014447    0.939241    1.111863
H      0.044074   -0.850835    1.175073
H      2.047311   -2.105396    0.422560
H      4.492008   -2.065577    0.080457
H      4.414019    2.226859   -0.091167
H      1.968924    2.205118    0.250223
