28

N      1.966369   -2.005039    1.238153
C      2.614100   -0.932996    0.556394
C      3.983826   -1.027351    0.281743
C      4.638244    0.002472   -0.398346
C      3.926268    1.130115   -0.811786
C      2.558959    1.233446   -0.542047
C      1.891374    0.211099    0.154898
C      0.408162    0.329471    0.406055
C     -0.385047   -0.329632   -0.726345
C     -1.864052   -0.214575   -0.472904
C     -2.576922    0.905835   -0.931481
C     -3.944665    1.026987   -0.666551
C     -4.607260    0.037104    0.065263
F     -5.932997    0.157123    0.322521
C     -3.901335   -1.073653    0.536782
C     -2.533534   -1.198397    0.273896
H      4.541783   -1.901961    0.592158
H      5.696910   -0.076011   -0.609477
H      4.433520    1.923784   -1.344988
H      2.019593    2.110566   -0.878026
H      0.122926    1.402183    0.483565
H      0.146251   -0.143726    1.377569
H     -0.129899    0.156272   -1.694121
H     -0.101239   -1.401900   -0.810649
H     -2.073486    1.684287   -1.491436
H     -4.489289    1.890544   -1.026115
H     -4.412378   -1.837050    1.109222
H     -1.996180   -2.059001    0.652903
