28

N     -2.297041    2.363341   -1.446425
C     -2.305587    1.238670   -0.569863
C     -3.152286    1.248544    0.545134
C     -3.170870    0.163730    1.424935
C     -2.342558   -0.936471    1.195776
C     -1.495637   -0.956347    0.084760
C     -1.471791    0.126245   -0.812577
C     -0.512983    0.104506   -1.980994
C      0.776117    0.881543   -1.678046
C      1.560458    0.248836   -0.556771
C      1.438555    0.732812    0.756963
C      2.131293    0.114679    1.802284
C      2.945994   -0.991822    1.545373
F      3.615444   -1.591123    2.560646
C      3.066323   -1.483477    0.242258
C      2.373906   -0.868965   -0.805676
H     -3.794494    2.099971    0.732783
H     -3.825362    0.177512    2.286860
H     -2.353511   -1.773381    1.882000
H     -0.850120   -1.812088   -0.070742
H     -0.259997   -0.943216   -2.256289
H     -1.002771    0.550595   -2.873216
H      1.403845    0.904873   -2.595318
H      0.531527    1.938257   -1.432866
H      0.800159    1.580807    0.972281
H      2.032284    0.491664    2.812054
H      3.692563   -2.343691    0.043672
H      2.466539   -1.266003   -1.808996
