28

N     -2.451404   -2.122068    1.562536
C     -2.353626   -0.825865    0.976349
C     -3.051705    0.240160    1.556426
C     -2.963288    1.521636    1.007594
C     -2.175856    1.744940   -0.123399
C     -1.477097    0.687065   -0.710479
C     -1.562531   -0.609322   -0.172083
C     -0.760095   -1.728964   -0.794562
C      0.560604   -1.969412   -0.049389
C      1.478176   -0.776510   -0.137773
C      1.526454    0.161790    0.907335
C      2.343577    1.291378    0.802392
C      3.113924    1.494798   -0.346204
F      3.904213    2.591790   -0.446978
C      3.065401    0.569575   -1.393066
C      2.248247   -0.560642   -1.292555
H     -3.660957    0.076514    2.436541
H     -3.502864    2.342821    1.461442
H     -2.103338    2.739752   -0.543554
H     -0.860495    0.880546   -1.579694
H     -0.548956   -1.507322   -1.864049
H     -1.357249   -2.666105   -0.783464
H      0.354005   -2.222581    1.013533
H      1.066766   -2.853558   -0.494430
H      0.924508    0.023593    1.797036
H      2.375440    2.010829    1.610434
H      3.657359    0.729504   -2.285024
H      2.210787   -1.264343   -2.114915
