      -----------------------------------------------------------      
     |                   =====================                   |     
     |                           x T B                           |     
     |                   =====================                   |     
     |                         S. Grimme                         |     
     |          Mulliken Center for Theoretical Chemistry        |     
     |                    University of Bonn                     |     
      -----------------------------------------------------------      

   * xtb version 6.7.1 (edcfbbe) compiled by 'runner@sat12-gn217-0cbadaec-b866-44ae-a866-732403219ae3-6E01A8DFFD18.local' on 2026-06-10

   xtb is free software: you can redistribute it and/or modify it under
   the terms of the GNU Lesser General Public License as published by
   the Free Software Foundation, either version 3 of the License, or
   (at your option) any later version.
   
   xtb is distributed in the hope that it will be useful,
   but WITHOUT ANY WARRANTY; without even the implied warranty of
   MERCHANTABILITY or FITNESS FOR A PARTICULAR PURPOSE.  See the
   GNU Lesser General Public License for more details.
   
   Cite this work as:
   * C. Bannwarth, E. Caldeweyher, S. Ehlert, A. Hansen, P. Pracht,
     J. Seibert, S. Spicher, S. Grimme, WIREs Comput. Mol. Sci., 2020, 11,
     e01493. DOI: 10.1002/wcms.1493
   
   for GFN2-xTB:
   * C. Bannwarth, S. Ehlert and S. Grimme., J. Chem. Theory Comput., 2019,
     15, 1652-1671. DOI: 10.1021/acs.jctc.8b01176
   for GFN1-xTB:
   * S. Grimme, C. Bannwarth, P. Shushkov, J. Chem. Theory Comput., 2017,
     13, 1989-2009. DOI: 10.1021/acs.jctc.7b00118
   for GFN0-xTB:
   * P. Pracht, E. Caldeweyher, S. Ehlert, S. Grimme, ChemRxiv, 2019, preprint.
     DOI: 10.26434/chemrxiv.8326202.v1
   for GFN-FF:
   * S. Spicher and S. Grimme, Angew. Chem. Int. Ed., 2020, 59, 15665-15673.
     DOI: 10.1002/anie.202004239
   
   for ALPB and GBSA implicit solvation:
   * S. Ehlert, M. Stahn, S. Spicher, S. Grimme, J. Chem. Theory Comput.,
     2021, 17, 4250-4261. DOI: 10.1021/acs.jctc.1c00471
   
   for ddCOSMO and CPCM-X implicit solvation:
   * M. Stahn, S. Ehlert, S. Grimme, J. Phys. Chem. A,
     2023, XX, XXXX-XXXX. DOI: 10.1021/acs.jpca.3c04382
   
   for DFT-D4:
   * E. Caldeweyher, C. Bannwarth and S. Grimme, J. Chem. Phys., 2017,
     147, 034112. DOI: 10.1063/1.4993215
   * E. Caldeweyher, S. Ehlert, A. Hansen, H. Neugebauer, S. Spicher,
     C. Bannwarth and S. Grimme, J. Chem. Phys., 2019, 150, 154122.
     DOI: 10.1063/1.5090222
   * E. Caldeweyher, J.-M. Mewes, S. Ehlert and S. Grimme, Phys. Chem. Chem. Phys.
     2020, 22, 8499-8512. DOI: 10.1039/D0CP00502A
   
   for sTDA-xTB:
   * S. Grimme and C. Bannwarth, J. Chem. Phys., 2016, 145, 054103.
     DOI: 10.1063/1.4959605
   
   in the mass-spec context:
   * V. Asgeirsson, C. Bauer and S. Grimme, Chem. Sci., 2017, 8, 4879.
     DOI: 10.1039/c7sc00601b
   * J. Koopman and S. Grimme, ACS Omega 2019, 4, 12, 15120-15133.
     DOI: 10.1021/acsomega.9b02011
   
   for metadynamics refer to:
   * S. Grimme, J. Chem. Theory Comput., 2019, 155, 2847-2862
     DOI: 10.1021/acs.jctc.9b00143
   
   for SPH calculations refer to:
   * S. Spicher and S. Grimme, J. Chem. Theory Comput., 2021, 17, 1701-1714
     DOI: 10.1021/acs.jctc.0c01306
   
   for ONIOM refer to:
   * C. Plett, A. Katbashev, S. Ehlert, S. Grimme, M. Bursch,
     Phys. Chem. Chem. Phys., 2023, 25, 17860-17868. DOI: 10.1039/D3CP02178E
   
   for DIPRO refer to:
   * J. Kohn, N. Gildemeister, S. Grimme, D. Fazzi, A. Hansen,
     J. Chem. Phys., 2023, just accepted.
   
   for PTB refer to:
   * S. Grimme, M. Mueller, A. Hansen, J. Chem. Phys., 2023, 158, 124111.
     DOI: 10.1063/5.0137838
   
   with help from (in alphabetical order)
   P. Atkinson, C. Bannwarth, F. Bohle, G. Brandenburg, E. Caldeweyher
   M. Checinski, S. Dohm, S. Ehlert, S. Ehrlich, I. Gerasimov, C. Hölzer
   A. Katbashev, J. Kohn, J. Koopman, C. Lavigne, S. Lehtola, F. März, M. Müller,
   F. Musil, H. Neugebauer, J. Pisarek, C. Plett, P. Pracht, F. Pultar,
   J. Seibert, P. Shushkov, S. Spicher, M. Stahn, M. Steiner, T. Strunk,
   J. Stückrath, T. Rose, and J. Unsleber
   
 * started run on 2026/07/31 at 15:27:20.512     
   ID    Z sym.   atoms
    1    7 N      1, 2, 24, 25, 53, 55, 110, 112, 215
    2    6 C      3-5, 7, 9-12, 14, 16-20, 22, 23, 26-28, 30, 32-35, 37,
                  39-43, 45, 46, 49-52, 54, 57, 58, 61, 65, 67, 68, 70, 71,
                  73, 77, 81, 86-89, 91, 92, 106-109, 111, 114, 115, 118,
                  122, 124, 125, 127, 128, 130, 134, 138, 143-146, 148, 149,
                  171-174, 176, 178, 182-185, 187, 189, 193-196, 198, 200,
                  204-207, 209, 211, 216-226
    3    1 H      6, 8, 13, 15, 21, 29, 31, 36, 38, 44, 56, 59, 60, 62, 63,
                  69, 72, 74-76, 78-80, 90, 93-105, 113, 116, 117, 119, 120,
                  126, 129, 131-133, 135-137, 147, 150-166, 175, 177,
                  179-181, 186, 188, 190-192, 197, 199, 201-203, 208, 210,
                  212-214, 227-239
    4   26 Fe     47
    5   17 Cl     48
    6    8 O      64, 66, 82-85, 121, 123, 139-142, 167-170

           -------------------------------------------------
          |                Calculation Setup                |
           -------------------------------------------------

          program call               : /Users/haywoodau3/Documents/genaisubstrate/.chem-env/bin/xtb /Users/haywoodau3/Documents/genaisubstrate/data/jacs_2025/stage3/pilot/reference-optimizations/1am/start-0001/input-assembly.xyz --gfn 2 --alpb ether --opt --input /Users/haywoodau3/Documents/genaisubstrate/data/jacs_2025/stage3/pilot/reference-optimizations/1am/start-0001/xcontrol
          coordinate file            : /Users/haywoodau3/Documents/genaisubstrate/data/jacs_2025/stage3/pilot/reference-optimizations/1am/start-0001/input-assembly.xyz
          omp threads                :                     4


           -------------------------------------------------
          |                 G F N 2 - x T B                 |
           -------------------------------------------------

        Reference                      10.1021/acs.jctc.8b01176
      * Hamiltonian:
        H0-scaling (s, p, d)           1.850000    2.230000    2.230000
        zeta-weighting                 0.500000
      * Dispersion:
        s8                             2.700000
        a1                             0.520000
        a2                             5.000000
        s9                             5.000000
      * Repulsion:
        kExp                           1.500000    1.000000
        rExp                           1.000000
      * Coulomb:
        alpha                          2.000000
        third order                    shell-resolved
        anisotropic                    true
        a3                             3.000000
        a5                             4.000000
        cn-shift                       1.200000
        cn-exp                         4.000000
        max-rad                        5.000000

      * Solvation model:               ALPB
        Solvent                        ether
        Parameter file                 internal GFN2-xTB/ALPB
        Dielectric constant                4.3300E+00
        Reference state                gsolv [1 M gas/solution]
        Free energy shift                  4.9534E-03 Eh       3.1083E+00 kcal/mol
        Temperature                        2.9815E+02 K
        Density                            7.1300E-01 kg/L
        Solvent mass                       7.4120E+01 g/mol
        Interaction kernel             P16
        Born radius scaling (c1)           1.5847E+00
        Born radii integrator          GBOBC
        Born offset                        0.0000E+00 a0       0.0000E+00 AA
        H-bond correction              true
        Ion screening                  false
        Surface tension                    1.0000E-05 Eh       1.5569E+01 dyn/cm
        Grid points                               230 per atom

          ...................................................
          :                      SETUP                      :
          :.................................................:
          :  # basis functions                 665          :
          :  # atomic orbitals                 663          :
          :  # shells                          379          :
          :  # electrons                       701          :
          :  max. iterations                   250          :
          :  Hamiltonian                  GFN2-xTB          :
          :  restarted?                      false          :
          :  GBSA solvation                   true          :
          :  PC potential                    false          :
          :  electronic temp.          300.0000000     K    :
          :  accuracy                    1.0000000          :
          :  -> integral cutoff          0.2500000E+02      :
          :  -> integral neglect         0.1000000E-07      :
          :  -> SCF convergence          0.1000000E-05 Eh   :
          :  -> wf. convergence          0.1000000E-03 e    :
          :  Broyden damping             0.4000000          :
          :  net charge                          0          :
          :  unpaired electrons                  0          :
          ...................................................

 iter      E             dE          RMSdq      gap      omega  full diag
   1   -392.0554003 -0.392055E+03  0.455E+00    0.19       0.0  T
   2   -392.1080913 -0.526910E-01  0.307E+00    0.28       1.0  T
   3   -390.7790030  0.132909E+01  0.299E+00    0.03       1.0  T
   4   -391.6693788 -0.890376E+00  0.239E+00    0.02       1.0  T
   5   -392.6297441 -0.960365E+00  0.128E+00    0.89       1.0  T
   6   -392.9967940 -0.367050E+00  0.503E-01    0.04       1.0  T
   7   -392.9420376  0.547563E-01  0.650E-01    0.08       1.0  T
   8   -392.9942079 -0.521702E-01  0.444E-01    0.09       1.0  T
   9   -393.0021070 -0.789911E-02  0.456E-01    0.06       1.0  T
  10   -392.9665283  0.355787E-01  0.500E-01    0.13       1.0  T
  11   -393.0778103 -0.111282E+00  0.906E-02    0.02       1.0  T
  12   -393.0735184  0.429191E-02  0.109E-01    0.02       1.0  T
  13   -393.0762356 -0.271722E-02  0.712E-02    0.02       1.0  T
  14   -393.0696707  0.656491E-02  0.143E-01    0.02       1.0  T
  15   -393.0782378 -0.856711E-02  0.254E-02    0.02       1.0  T
  16   -393.0783754 -0.137610E-03  0.102E-02    0.02       1.0  T
  17   -393.0783583  0.170879E-04  0.119E-02    0.02       1.0  T
  18   -393.0783561  0.223635E-05  0.113E-02    0.02       1.0  T
  19   -393.0781450  0.211140E-03  0.245E-02    0.02       1.0  T
  20   -393.0783689 -0.224000E-03  0.939E-03    0.02       1.0  T
  21   -393.0784006 -0.316147E-04  0.348E-03    0.02       1.9  T
  22   -393.0784042 -0.358755E-05  0.177E-03    0.02       3.7  T
  23   -393.0784055 -0.136722E-05  0.215E-04    0.02      30.0  T
  24   -393.0784053  0.224698E-06  0.730E-04    0.02       8.9  T
  25   -393.0784054 -0.154933E-06  0.419E-04    0.02      15.4  T

   *** convergence criteria satisfied after 25 iterations ***

         #    Occupation            Energy/Eh            Energy/eV
      -------------------------------------------------------------
         1        2.0000           -0.9882503             -26.8917
       ...           ...                  ...                  ...
       345        2.0000           -0.3540353              -9.6338
       346        2.0000           -0.3531753              -9.6104
       347        2.0000           -0.3472400              -9.4489
       348        2.0000           -0.3413551              -9.2887
       349        2.0000           -0.3321408              -9.0380
       350        1.7126           -0.3001794              -8.1683
       351        0.7596           -0.2975395              -8.0965 (HOMO)
       352        0.5277           -0.2969160              -8.0795 (LUMO)
       353        0.0000           -0.2836053              -7.7173
       354                         -0.2814967              -7.6599
       355                         -0.2610438              -7.1034
       356                         -0.2583994              -7.0314
       ...                                ...                  ...
       663                          1.8194731              49.5104
      -------------------------------------------------------------
                  HL-Gap            0.0006235 Eh            0.0170 eV
             Fermi-level           -0.2981374 Eh           -8.1127 eV

 SCC (total)                   0 d,  0 h,  0 min,  2.075 sec
 SCC setup                      ...        0 min,  0.004 sec (  0.182%)
 Dispersion                     ...        0 min,  0.004 sec (  0.210%)
 classical contributions        ...        0 min,  0.001 sec (  0.035%)
 integral evaluation            ...        0 min,  0.022 sec (  1.083%)
 iterations                     ...        0 min,  1.709 sec ( 82.349%)
 molecular gradient             ...        0 min,  0.315 sec ( 15.195%)
 printout                       ...        0 min,  0.020 sec (  0.945%)

         :::::::::::::::::::::::::::::::::::::::::::::::::::::
         ::                     SUMMARY                     ::
         :::::::::::::::::::::::::::::::::::::::::::::::::::::
         :: total energy            -387.926208488384 Eh    ::
         :: total w/o Gsasa/hb      -387.814529560903 Eh    ::
         :: gradient norm              0.739445789593 Eh/a0 ::
         :: HOMO-LUMO gap              0.016966460485 eV    ::
         ::.................................................::
         :: SCC energy              -393.057204344250 Eh    ::
         :: -> isotropic ES            0.582564253824 Eh    ::
         :: -> anisotropic ES          0.011722304068 Eh    ::
         :: -> anisotropic XC          0.160791852091 Eh    ::
         :: -> dispersion             -0.339956980827 Eh    ::
         :: -> Gsolv                  -0.197615447956 Eh    ::
         ::    -> Gelec               -0.085936520475 Eh    ::
         ::    -> Gsasa               -0.109703207260 Eh    ::
         ::    -> Ghb                 -0.006929157798 Eh    ::
         ::    -> Gshift               0.004953437577 Eh    ::
         :: repulsion energy           5.130995855866 Eh    ::
         :: add. restraining           0.000000000000 Eh    ::
         :: total charge               0.000000000000 e     ::
         :::::::::::::::::::::::::::::::::::::::::::::::::::::

      ----------------------------------------------------------- 
     |                   =====================                   |
     |                        A N C O P T                        |
     |                   =====================                   |
     |               Approximate Normal Coordinate               |
     |                Rational Function Optimizer                |
      ----------------------------------------------------------- 
      ----------------------------------------------------------- 
     |                   =====================                   |
     |                        A N C O P T                        |
     |                   =====================                   |
     |               Approximate Normal Coordinate               |
     |                Rational Function Optimizer                |
      ----------------------------------------------------------- 

          ...................................................
          :                      SETUP                      :
          :.................................................:
          :   optimization level            normal          :
          :   max. optcycles                   717          :
          :   ANC micro-cycles                  20          :
          :   degrees of freedom               711          :
          :.................................................:
          :   RF solver                   davidson          :
          :   write xtbopt.log                true          :
          :   linear?                        false          :
          :   energy convergence         0.5000000E-05 Eh   :
          :   grad. convergence          0.1000000E-02 Eh/α :
          :   maxmium RF displ.          1.0000000          :
          :   Hlow (freq-cutoff)         0.1000000E-01      :
          :   Hmax (freq-cutoff)         5.0000000          :
          :   S6 in model hess.         20.0000000          :
          ...................................................

generating ANC from exact Hessian ...
Using Lindh-Hessian (1995)
 Shifting diagonal of input Hessian by    8.9055591386512367E-003
 Lowest  eigenvalues of input Hessian
    0.000000    0.000000    0.000000    0.000000    0.000000    0.000000
    0.010000    0.011337    0.012092    0.012832    0.014077    0.019373
    0.020642    0.023528    0.026097    0.029067    0.032963    0.034424
 Highest eigenvalues
    3.146812    3.173710    3.208676    3.292588    3.296405    3.484485


........................................................................
.............................. CYCLE    1 ..............................
........................................................................

 iter      E             dE          RMSdq      gap      omega  full diag
   1   -393.0784055 -0.393078E+03  0.522E-05    0.02       0.0  T
   2   -393.0784050  0.553157E-06  0.112E-03    0.02       5.8  T
   3   -393.0784055 -0.545310E-06  0.144E-04    0.02      44.8  T
   4   -393.0784055 -0.616308E-08  0.815E-05    0.02      79.4  T
     SCC iter.                  ...        0 min,  0.267 sec
     gradient                   ...        0 min,  0.307 sec
 * total energy  :  -387.9262086 Eh     change       -0.7260758E-07 Eh
   gradient norm :     0.7394213 Eh/α   predicted     0.0000000E+00 (-100.00%)
   displ. norm   :     0.4916369 α      lambda       -0.2741552E+00
   maximum displ.:     0.1126131 α      in ANC's #11, #45, #31, ...

........................................................................
.............................. CYCLE    2 ..............................
........................................................................

 iter      E             dE          RMSdq      gap      omega  full diag
   1   -393.2037272 -0.393204E+03  0.501E-01    0.07       0.0  T
   2   -392.6919985  0.511729E+00  0.141E+00    1.06       1.0  T
   3   -393.0371071 -0.345109E+00  0.814E-01    0.49       1.0  T
   4   -393.3017287 -0.264622E+00  0.173E-01    0.02       1.0  T
   5   -393.2687390  0.329896E-01  0.312E-01    0.03       1.0  T
   6   -393.2279844  0.407546E-01  0.434E-01    0.05       1.0  T
   7   -393.2391580 -0.111737E-01  0.389E-01    0.05       1.0  T
   8   -393.3012895 -0.621314E-01  0.120E-01    0.04       1.0  T
   9   -393.3024955 -0.120606E-02  0.101E-01    0.02       1.0  T
  10   -393.3069633 -0.446780E-02  0.278E-02    0.03       1.0  T
  11   -393.3069437  0.195856E-04  0.252E-02    0.03       1.0  T
  12   -393.3071868 -0.243035E-03  0.718E-03    0.03       1.0  T
  13   -393.3071887 -0.192044E-05  0.647E-03    0.03       1.0  T
  14   -393.3072070 -0.183005E-04  0.137E-03    0.03       4.7  T
  15   -393.3072070  0.918538E-08  0.769E-04    0.03       8.4  T
  16   -393.3072071 -0.742310E-07  0.559E-04    0.03      11.6  T
     SCC iter.                  ...        0 min,  1.088 sec
     gradient                   ...        0 min,  0.306 sec
 * total energy  :  -388.1176922 Eh     change       -0.1914836E+00 Eh
   gradient norm :     0.2901013 Eh/α   predicted    -0.1704000E+00 ( -11.01%)
   displ. norm   :     0.6005191 α      lambda       -0.1312813E+00
   maximum displ.:     0.1925691 α      in ANC's #11, #9, #45, ...

........................................................................
.............................. CYCLE    3 ..............................
........................................................................

 iter      E             dE          RMSdq      gap      omega  full diag
   1   -393.4103615 -0.393410E+03  0.414E-01    0.08       0.0  T
   2   -392.8844681  0.525893E+00  0.136E+00    1.01       1.0  T
   3   -393.1620305 -0.277562E+00  0.867E-01    0.24       1.0  T
   4   -393.4496241 -0.287594E+00  0.291E-01    0.06       1.0  T
   5   -393.3567724  0.928516E-01  0.539E-01    0.03       1.0  T
   6   -393.4688395 -0.112067E+00  0.141E-01    0.05       1.0  T
   7   -393.4600646  0.877492E-02  0.196E-01    0.03       1.0  T
   8   -393.4728417 -0.127771E-01  0.103E-01    0.05       1.0  T
   9   -393.4656502  0.719151E-02  0.160E-01    0.05       1.0  T
  10   -393.4766766 -0.110264E-01  0.401E-02    0.05       1.0  T
  11   -393.4771728 -0.496193E-03  0.196E-02    0.05       1.0  T
  12   -393.4770452  0.127649E-03  0.212E-02    0.05       1.0  T
  13   -393.4772213 -0.176099E-03  0.624E-03    0.04       1.0  T
  14   -393.4772328 -0.115681E-04  0.304E-03    0.05       2.1  T
  15   -393.4772364 -0.353018E-05  0.899E-04    0.05       7.2  T
  16   -393.4772360  0.310490E-06  0.113E-03    0.05       5.7  T
  17   -393.4772362 -0.131686E-06  0.882E-04    0.05       7.3  T
  18   -393.4772358  0.418984E-06  0.130E-03    0.05       5.0  T
  19   -393.4772363 -0.552834E-06  0.588E-04    0.05      11.0  T
     SCC iter.                  ...        0 min,  1.359 sec
     gradient                   ...        0 min,  0.312 sec
 * total energy  :  -388.2225374 Eh     change       -0.1048453E+00 Eh
   gradient norm :     0.1746266 Eh/α   predicted    -0.8931239E-01 ( -14.82%)
   displ. norm   :     0.7045979 α      lambda       -0.9551968E-01
   maximum displ.:     0.2549960 α      in ANC's #9, #11, #10, ...

........................................................................
.............................. CYCLE    4 ..............................
........................................................................

 iter      E             dE          RMSdq      gap      omega  full diag
   1   -393.5363752 -0.393536E+03  0.337E-01    0.07       0.0  T
   2   -393.0174106  0.518965E+00  0.127E+00    0.95       1.0  T
   3   -393.3086505 -0.291240E+00  0.798E-01    0.09       1.0  T
   4   -393.5558850 -0.247234E+00  0.248E-01    0.05       1.0  T
   5   -393.5343210  0.215640E-01  0.345E-01    0.02       1.0  T
   6   -393.5326529  0.166802E-02  0.323E-01    0.02       1.0  T
   7   -393.5718968 -0.392439E-01  0.123E-01    0.04       1.0  T
   8   -393.5621499  0.974689E-02  0.180E-01    0.05       1.0  T
   9   -393.5717011 -0.955120E-02  0.974E-02    0.05       1.0  T
  10   -393.5756158 -0.391473E-02  0.273E-02    0.05       1.0  T
  11   -393.5757900 -0.174114E-03  0.732E-03    0.05       1.0  T
  12   -393.5757962 -0.625878E-05  0.676E-03    0.04       1.0  T
  13   -393.5758055 -0.928583E-05  0.136E-03    0.04       4.7  T
  14   -393.5758041  0.141956E-05  0.230E-03    0.04       2.8  T
  15   -393.5758048 -0.667387E-06  0.169E-03    0.05       3.8  T
  16   -393.5758058 -0.106371E-05  0.649E-04    0.04      10.0  T
  17   -393.5758059 -0.577848E-07  0.385E-04    0.04      16.8  T
  18   -393.5758054  0.523378E-06  0.116E-03    0.05       5.6  T
  19   -393.5758059 -0.570083E-06  0.116E-04    0.04      55.9  T
     SCC iter.                  ...        0 min,  1.314 sec
     gradient                   ...        0 min,  0.306 sec
 * total energy  :  -388.2979760 Eh     change       -0.7543857E-01 Eh
   gradient norm :     0.1312015 Eh/α   predicted    -0.7147104E-01 (  -5.26%)
   displ. norm   :     0.7447039 α      lambda       -0.6122486E-01
   maximum displ.:     0.3224411 α      in ANC's #9, #11, #10, ...

........................................................................
.............................. CYCLE    5 ..............................
........................................................................

 iter      E             dE          RMSdq      gap      omega  full diag
   1   -393.5920007 -0.393592E+03  0.273E-01    0.06       0.0  T
   2   -393.0871043  0.504896E+00  0.118E+00    0.84       1.0  T
   3   -393.5893976 -0.502293E+00  0.301E-01    0.03       1.0  T
   4   -393.6046725 -0.152749E-01  0.163E-01    0.04       1.0  T
   5   -393.6113809 -0.670844E-02  0.103E-01    0.03       1.0  T
   6   -393.6126826 -0.130172E-02  0.572E-02    0.03       1.0  T
   7   -393.6138507 -0.116806E-02  0.191E-02    0.03       1.0  T
   8   -393.6133758  0.474860E-03  0.370E-02    0.04       1.0  T
   9   -393.6138709 -0.495080E-03  0.313E-03    0.04       2.1  T
  10   -393.6138680  0.295994E-05  0.356E-03    0.04       1.8  T
  11   -393.6138714 -0.348213E-05  0.156E-03    0.04       4.1  T
  12   -393.6138724 -0.923518E-06  0.456E-04    0.04      14.2  T
  13   -393.6138723  0.781051E-07  0.533E-04    0.04      12.1  T
     SCC iter.                  ...        0 min,  0.881 sec
     gradient                   ...        0 min,  0.305 sec
 * total energy  :  -388.3503174 Eh     change       -0.5234142E-01 Eh
   gradient norm :     0.1198017 Eh/α   predicted    -0.4758961E-01 (  -9.08%)
   displ. norm   :     0.7878228 α      lambda       -0.5268924E-01
   maximum displ.:     0.3346307 α      in ANC's #9, #11, #10, ...

........................................................................
.............................. CYCLE    6 ..............................
........................................................................

 iter      E             dE          RMSdq      gap      omega  full diag
   1   -393.6236734 -0.393624E+03  0.302E-01    0.06       0.0  T
   2   -393.1018973  0.521776E+00  0.117E+00    0.59       1.0  T
   3   -393.6308694 -0.528972E+00  0.215E-01    0.08       1.0  T
   4   -393.6366282 -0.575879E-02  0.151E-01    0.05       1.0  T
   5   -393.6407190 -0.409084E-02  0.962E-02    0.05       1.0  T
   6   -393.6392468  0.147222E-02  0.938E-02    0.03       1.0  T
   7   -393.6419816 -0.273475E-02  0.411E-02    0.03       1.0  T
   8   -393.6426536 -0.672051E-03  0.938E-03    0.03       1.0  T
   9   -393.6426010  0.526293E-04  0.135E-02    0.04       1.0  T
  10   -393.6426674 -0.664402E-04  0.357E-03    0.03       1.8  T
  11   -393.6426719 -0.442817E-05  0.111E-03    0.03       5.8  T
  12   -393.6426720 -0.112294E-06  0.618E-04    0.03      10.5  T
  13   -393.6426720  0.102579E-07  0.506E-04    0.03      12.8  T
     SCC iter.                  ...        0 min,  0.903 sec
     gradient                   ...        0 min,  0.307 sec
 * total energy  :  -388.3984802 Eh     change       -0.4816278E-01 Eh
   gradient norm :     0.1348610 Eh/α   predicted    -0.4269586E-01 ( -11.35%)
   displ. norm   :     0.8437889 α      lambda       -0.5814503E-01
   maximum displ.:     0.3163349 α      in ANC's #9, #10, #11, ...

........................................................................
.............................. CYCLE    7 ..............................
........................................................................

 iter      E             dE          RMSdq      gap      omega  full diag
   1   -393.6682321 -0.393668E+03  0.308E-01    0.08       0.0  T
   2   -393.4072804  0.260952E+00  0.853E-01    0.17       1.0  T
   3   -393.6708107 -0.263530E+00  0.233E-01    0.09       1.0  T
   4   -393.6746949 -0.388423E-02  0.183E-01    0.06       1.0  T
   5   -393.6772734 -0.257841E-02  0.132E-01    0.06       1.0  T
   6   -393.6801575 -0.288414E-02  0.836E-02    0.06       1.0  T
   7   -393.6813068 -0.114935E-02  0.485E-02    0.05       1.0  T
   8   -393.6819115 -0.604709E-03  0.188E-02    0.04       1.0  T
   9   -393.6819426 -0.310027E-04  0.975E-03    0.04       1.0  T
  10   -393.6819613 -0.187211E-04  0.471E-03    0.04       1.4  T
  11   -393.6819668 -0.552130E-05  0.199E-03    0.04       3.2  T
  12   -393.6819672 -0.406331E-06  0.144E-03    0.04       4.5  T
  13   -393.6819672 -0.358342E-07  0.121E-03    0.04       5.4  T
  14   -393.6819676 -0.349015E-06  0.578E-04    0.04      11.2  T
  15   -393.6819676 -0.187926E-07  0.346E-04    0.04      18.7  T
     SCC iter.                  ...        0 min,  1.060 sec
     gradient                   ...        0 min,  0.311 sec
 * total energy  :  -388.4529052 Eh     change       -0.5442500E-01 Eh
   gradient norm :     0.1616655 Eh/α   predicted    -0.4977157E-01 (  -8.55%)
   displ. norm   :     0.8272997 α      lambda       -0.6762025E-01
   maximum displ.:     0.2649791 α      in ANC's #9, #23, #10, ...

........................................................................
.............................. CYCLE    8 ..............................
........................................................................

 iter      E             dE          RMSdq      gap      omega  full diag
   1   -393.7265743 -0.393727E+03  0.221E-01    0.08       0.0  T
   2   -393.7151385  0.114358E-01  0.358E-01    0.03       1.0  T
   3   -393.7312614 -0.161228E-01  0.118E-01    0.06       1.0  T
   4   -393.7315464 -0.285007E-03  0.589E-02    0.06       1.0  T
   5   -393.7317287 -0.182374E-03  0.370E-02    0.04       1.0  T
   6   -393.7318443 -0.115559E-03  0.143E-02    0.05       1.0  T
   7   -393.7318623 -0.179848E-04  0.782E-03    0.05       1.0  T
   8   -393.7318665 -0.422069E-05  0.420E-03    0.05       1.5  T
   9   -393.7318690 -0.253750E-05  0.175E-03    0.05       3.7  T
  10   -393.7318693 -0.287215E-06  0.115E-03    0.05       5.6  T
  11   -393.7318694 -0.793010E-07  0.821E-04    0.05       7.9  T
  12   -393.7318695 -0.405602E-07  0.529E-04    0.05      12.2  T
     SCC iter.                  ...        0 min,  0.850 sec
     gradient                   ...        0 min,  0.309 sec
 * total energy  :  -388.5071261 Eh     change       -0.5422092E-01 Eh
   gradient norm :     0.1525536 Eh/α   predicted    -0.5695064E-01 (   5.03%)
   displ. norm   :     0.7092443 α      lambda       -0.4172869E-01
   maximum displ.:     0.2630925 α      in ANC's #9, #23, #6, ...

........................................................................
.............................. CYCLE    9 ..............................
........................................................................

 iter      E             dE          RMSdq      gap      omega  full diag
   1   -393.7709355 -0.393771E+03  0.122E-01    0.08       0.0  T
   2   -393.7705708  0.364714E-03  0.115E-01    0.04       1.0  T
   3   -393.7712286 -0.657821E-03  0.727E-02    0.08       1.0  T
   4   -393.7712642 -0.356236E-04  0.475E-02    0.06       1.0  T
   5   -393.7715246 -0.260421E-03  0.198E-02    0.06       1.0  T
   6   -393.7715712 -0.465980E-04  0.346E-03    0.06       1.9  T
   7   -393.7715716 -0.361643E-06  0.186E-03    0.06       3.5  T
   8   -393.7715717 -0.104628E-06  0.110E-03    0.06       5.9  T
   9   -393.7715720 -0.325389E-06  0.413E-04    0.06      15.6  T
  10   -393.7715720 -0.144045E-07  0.252E-04    0.06      25.7  T
     SCC iter.                  ...        0 min,  0.705 sec
     gradient                   ...        0 min,  0.315 sec
 * total energy  :  -388.5398678 Eh     change       -0.3274169E-01 Eh
   gradient norm :     0.1169320 Eh/α   predicted    -0.3135971E-01 (  -4.22%)
   displ. norm   :     0.7234764 α      lambda       -0.3279082E-01
   maximum displ.:     0.2881159 α      in ANC's #3, #9, #6, ...

........................................................................
.............................. CYCLE   10 ..............................
........................................................................

 iter      E             dE          RMSdq      gap      omega  full diag
   1   -393.7998912 -0.393800E+03  0.128E-01    0.07       0.0  T
   2   -393.7988195  0.107173E-02  0.123E-01    0.07       1.0  T
   3   -393.7995399 -0.720409E-03  0.950E-02    0.06       1.0  T
   4   -393.8002485 -0.708593E-03  0.412E-02    0.08       1.0  T
   5   -393.8003309 -0.824371E-04  0.155E-02    0.07       1.0  T
   6   -393.8003623 -0.314351E-04  0.343E-03    0.07       1.9  T
   7   -393.8003632 -0.811595E-06  0.154E-03    0.07       4.2  T
   8   -393.8003631  0.131978E-07  0.974E-04    0.07       6.6  T
   9   -393.8003634 -0.218301E-06  0.433E-04    0.07      14.9  T
     SCC iter.                  ...        0 min,  0.634 sec
     gradient                   ...        0 min,  0.308 sec
 * total energy  :  -388.5666372 Eh     change       -0.2676938E-01 Eh
   gradient norm :     0.0554457 Eh/α   predicted    -0.2497715E-01 (  -6.70%)
   displ. norm   :     0.7639355 α      lambda       -0.2262482E-01
   maximum displ.:     0.3757333 α      in ANC's #3, #9, #6, ...

........................................................................
.............................. CYCLE   11 ..............................
........................................................................

 iter      E             dE          RMSdq      gap      omega  full diag
   1   -393.8223959 -0.393822E+03  0.115E-01    0.08       0.0  T
   2   -393.8218845  0.511372E-03  0.946E-02    0.08       1.0  T
   3   -393.8214835  0.400977E-03  0.103E-01    0.07       1.0  T
   4   -393.8225353 -0.105175E-02  0.295E-02    0.08       1.0  T
   5   -393.8226076 -0.723360E-04  0.117E-02    0.07       1.0  T
   6   -393.8226261 -0.184897E-04  0.247E-03    0.08       2.6  T
   7   -393.8226265 -0.395762E-06  0.117E-03    0.08       5.5  T
   8   -393.8226265 -0.294274E-07  0.657E-04    0.08       9.9  T
   9   -393.8226266 -0.989426E-07  0.339E-04    0.08      19.1  T
     SCC iter.                  ...        0 min,  0.621 sec
     gradient                   ...        0 min,  0.308 sec
 * total energy  :  -388.5852965 Eh     change       -0.1865928E-01 Eh
   gradient norm :     0.0382587 Eh/α   predicted    -0.1791431E-01 (  -3.99%)
   displ. norm   :     0.7683016 α      lambda       -0.1577668E-01
   maximum displ.:     0.4265831 α      in ANC's #3, #9, #6, ...

........................................................................
.............................. CYCLE   12 ..............................
........................................................................

 iter      E             dE          RMSdq      gap      omega  full diag
   1   -393.8332522 -0.393833E+03  0.948E-02    0.09       0.0  T
   2   -393.8331606  0.916208E-04  0.638E-02    0.08       1.0  T
   3   -393.8323925  0.768045E-03  0.873E-02    0.09       1.0  T
   4   -393.8332831 -0.890601E-03  0.263E-02    0.09       1.0  T
   5   -393.8333368 -0.536361E-04  0.106E-02    0.08       1.0  T
   6   -393.8333533 -0.165836E-04  0.207E-03    0.09       3.1  T
   7   -393.8333536 -0.301433E-06  0.985E-04    0.09       6.6  T
   8   -393.8333537 -0.690780E-07  0.564E-04    0.09      11.5  T
     SCC iter.                  ...        0 min,  0.551 sec
     gradient                   ...        0 min,  0.306 sec
 * total energy  :  -388.5987219 Eh     change       -0.1342540E-01 Eh
   gradient norm :     0.0357898 Eh/α   predicted    -0.1254475E-01 (  -6.56%)
   displ. norm   :     0.7720128 α      lambda       -0.1213497E-01
   maximum displ.:     0.4568098 α      in ANC's #3, #9, #6, ...

........................................................................
.............................. CYCLE   13 ..............................
........................................................................

 iter      E             dE          RMSdq      gap      omega  full diag
   1   -393.8390916 -0.393839E+03  0.820E-02    0.10       0.0  T
   2   -393.8390985 -0.686863E-05  0.508E-02    0.09       1.0  T
   3   -393.8388801  0.218408E-03  0.462E-02    0.11       1.0  T
   4   -393.8390957 -0.215627E-03  0.193E-02    0.09       1.0  T
   5   -393.8391438 -0.481085E-04  0.956E-03    0.09       1.0  T
   6   -393.8391560 -0.121810E-04  0.172E-03    0.10       3.8  T
   7   -393.8391561 -0.112220E-06  0.868E-04    0.10       7.5  T
   8   -393.8391562 -0.744433E-07  0.506E-04    0.10      12.8  T
     SCC iter.                  ...        0 min,  0.544 sec
     gradient                   ...        0 min,  0.307 sec
 * total energy  :  -388.6090288 Eh     change       -0.1030686E-01 Eh
   gradient norm :     0.0290692 Eh/α   predicted    -0.9683757E-02 (  -6.05%)
   displ. norm   :     0.7614891 α      lambda       -0.9040274E-02
   maximum displ.:     0.4692173 α      in ANC's #3, #9, #4, ...

........................................................................
.............................. CYCLE   14 ..............................
........................................................................

 iter      E             dE          RMSdq      gap      omega  full diag
   1   -393.8424640 -0.393842E+03  0.752E-02    0.12       0.0  T
   2   -393.8424708 -0.685083E-05  0.468E-02    0.10       1.0  T
   3   -393.8423176  0.153218E-03  0.398E-02    0.12       1.0  T
   4   -393.8424874 -0.169740E-03  0.169E-02    0.10       1.0  T
   5   -393.8425189 -0.315348E-04  0.107E-02    0.11       1.0  T
   6   -393.8425343 -0.154429E-04  0.142E-03    0.11       4.5  T
   7   -393.8425344 -0.559021E-07  0.776E-04    0.11       8.3  T
   8   -393.8425345 -0.545149E-07  0.441E-04    0.11      14.7  T
     SCC iter.                  ...        0 min,  0.551 sec
     gradient                   ...        0 min,  0.306 sec
 * total energy  :  -388.6166157 Eh     change       -0.7586974E-02 Eh
   gradient norm :     0.0240285 Eh/α   predicted    -0.7141208E-02 (  -5.88%)
   displ. norm   :     0.7396042 α      lambda       -0.6472914E-02
   maximum displ.:     0.4786758 α      in ANC's #3, #9, #4, ...

........................................................................
.............................. CYCLE   15 ..............................
........................................................................

 iter      E             dE          RMSdq      gap      omega  full diag
   1   -393.8446656 -0.393845E+03  0.704E-02    0.13       0.0  T
   2   -393.8446298  0.358330E-04  0.481E-02    0.11       1.0  T
   3   -393.8443567  0.273036E-03  0.559E-02    0.13       1.0  T
   4   -393.8446618 -0.305027E-03  0.218E-02    0.12       1.0  T
   5   -393.8447247 -0.628873E-04  0.609E-03    0.12       1.1  T
   6   -393.8447319 -0.726109E-05  0.141E-03    0.12       4.6  T
   7   -393.8447321 -0.141166E-06  0.685E-04    0.12       9.4  T
   8   -393.8447321 -0.343496E-07  0.334E-04    0.12      19.4  T
     SCC iter.                  ...        0 min,  0.542 sec
     gradient                   ...        0 min,  0.307 sec
 * total energy  :  -388.6219679 Eh     change       -0.5352168E-02 Eh
   gradient norm :     0.0196197 Eh/α   predicted    -0.5006847E-02 (  -6.45%)
   displ. norm   :     0.7102074 α      lambda       -0.4549497E-02
   maximum displ.:     0.4694002 α      in ANC's #3, #9, #4, ...

........................................................................
.............................. CYCLE   16 ..............................
........................................................................

 iter      E             dE          RMSdq      gap      omega  full diag
   1   -393.8466882 -0.393847E+03  0.695E-02    0.14       0.0  T
   2   -393.8466662  0.220672E-04  0.451E-02    0.13       1.0  T
   3   -393.8463696  0.296509E-03  0.553E-02    0.14       1.0  T
   4   -393.8467082 -0.338572E-03  0.205E-02    0.14       1.0  T
   5   -393.8467440 -0.357622E-04  0.665E-03    0.13       1.0  T
   6   -393.8467531 -0.908027E-05  0.153E-03    0.14       4.2  T
   7   -393.8467533 -0.258403E-06  0.610E-04    0.14      10.6  T
   8   -393.8467533 -0.117879E-07  0.275E-04    0.14      23.6  T
     SCC iter.                  ...        0 min,  0.572 sec
     gradient                   ...        0 min,  0.310 sec
 * total energy  :  -388.6256673 Eh     change       -0.3699398E-02 Eh
   gradient norm :     0.0157212 Eh/α   predicted    -0.3422133E-02 (  -7.49%)
   displ. norm   :     0.6879516 α      lambda       -0.3305645E-02
   maximum displ.:     0.4671386 α      in ANC's #3, #9, #11, ...

........................................................................
.............................. CYCLE   17 ..............................
........................................................................

 iter      E             dE          RMSdq      gap      omega  full diag
   1   -393.8469786 -0.393847E+03  0.751E-02    0.14       0.0  T
   2   -393.8468930  0.855797E-04  0.534E-02    0.14       1.0  T
   3   -393.8466964  0.196637E-03  0.566E-02    0.15       1.0  T
   4   -393.8469945 -0.298141E-03  0.236E-02    0.14       1.0  T
   5   -393.8470383 -0.437570E-04  0.402E-03    0.14       1.6  T
   6   -393.8470421 -0.375513E-05  0.151E-03    0.14       4.3  T
   7   -393.8470424 -0.347538E-06  0.539E-04    0.14      12.0  T
   8   -393.8470424 -0.704762E-08  0.271E-04    0.14      23.9  T
     SCC iter.                  ...        0 min,  0.548 sec
     gradient                   ...        0 min,  0.349 sec
 * total energy  :  -388.6282551 Eh     change       -0.2587858E-02 Eh
   gradient norm :     0.0160088 Eh/α   predicted    -0.2435070E-02 (  -5.90%)
   displ. norm   :     0.6545534 α      lambda       -0.2546810E-02
   maximum displ.:     0.4291888 α      in ANC's #3, #11, #9, ...

........................................................................
.............................. CYCLE   18 ..............................
........................................................................

 iter      E             dE          RMSdq      gap      omega  full diag
   1   -393.8486069 -0.393849E+03  0.749E-02    0.15       0.0  T
   2   -393.8483443  0.262636E-03  0.642E-02    0.15       1.0  T
   3   -393.8483412  0.306122E-05  0.601E-02    0.15       1.0  T
   4   -393.8486966 -0.355404E-03  0.161E-02    0.16       1.0  T
   5   -393.8487033 -0.663997E-05  0.466E-03    0.15       1.4  T
   6   -393.8487077 -0.442595E-05  0.129E-03    0.15       5.0  T
   7   -393.8487079 -0.211613E-06  0.498E-04    0.15      13.0  T
   8   -393.8487079 -0.358403E-08  0.224E-04    0.15      28.9  T
     SCC iter.                  ...        0 min,  0.566 sec
     gradient                   ...        0 min,  0.308 sec
 * total energy  :  -388.6301157 Eh     change       -0.1860507E-02 Eh
   gradient norm :     0.0145045 Eh/α   predicted    -0.1818985E-02 (  -2.23%)
   displ. norm   :     0.6072982 α      lambda       -0.1964509E-02
   maximum displ.:     0.3973936 α      in ANC's #3, #9, #12, ...

........................................................................
.............................. CYCLE   19 ..............................
........................................................................

 iter      E             dE          RMSdq      gap      omega  full diag
   1   -393.8481377 -0.393848E+03  0.725E-02    0.15       0.0  T
   2   -393.8481438 -0.604835E-05  0.420E-02    0.15       1.0  T
   3   -393.8480797  0.640223E-04  0.328E-02    0.15       1.0  T
   4   -393.8480037  0.760301E-04  0.352E-02    0.16       1.0  T
   5   -393.8481595 -0.155775E-03  0.226E-03    0.15       2.9  T
   6   -393.8481601 -0.564381E-06  0.136E-03    0.15       4.8  T
   7   -393.8481604 -0.343900E-06  0.499E-04    0.15      13.0  T
   8   -393.8481604 -0.101265E-07  0.271E-04    0.15      23.9  T
     SCC iter.                  ...        0 min,  0.546 sec
     gradient                   ...        0 min,  0.306 sec
 * total energy  :  -388.6314843 Eh     change       -0.1368635E-02 Eh
   gradient norm :     0.0156190 Eh/α   predicted    -0.1344527E-02 (  -1.76%)
   displ. norm   :     0.5489770 α      lambda       -0.1660348E-02
   maximum displ.:     0.3363319 α      in ANC's #3, #11, #2, ...

........................................................................
.............................. CYCLE   20 ..............................
........................................................................

 iter      E             dE          RMSdq      gap      omega  full diag
   1   -393.8494282 -0.393849E+03  0.719E-02    0.15       0.0  T
   2   -393.8493953  0.328909E-04  0.443E-02    0.15       1.0  T
   3   -393.8492542  0.141075E-03  0.456E-02    0.15       1.0  T
   4   -393.8493848 -0.130524E-03  0.277E-02    0.15       1.0  T
   5   -393.8494598 -0.750000E-04  0.246E-03    0.15       2.6  T
   6   -393.8494616 -0.180463E-05  0.951E-04    0.15       6.8  T
   7   -393.8494617 -0.140389E-06  0.486E-04    0.15      13.3  T
   8   -393.8494617 -0.252058E-07  0.236E-04    0.15      27.4  T
     SCC iter.                  ...        0 min,  0.539 sec
     gradient                   ...        0 min,  0.306 sec
 * total energy  :  -388.6325855 Eh     change       -0.1101217E-02 Eh
   gradient norm :     0.0145541 Eh/α   predicted    -0.1080374E-02 (  -1.89%)
   displ. norm   :     0.5148117 α      lambda       -0.1398811E-02
   maximum displ.:     0.2733600 α      in ANC's #3, #2, #11, ...
 * RMSD in coord.:     0.7768095 α      energy gain  -0.7063770E+00 Eh

generating ANC from exact Hessian ...
Using Lindh-Hessian (1995)
 Shifting diagonal of input Hessian by    9.9106756814652357E-003
 Lowest  eigenvalues of input Hessian
    0.000000    0.000000    0.000000    0.000000    0.000000    0.000000
    0.010000    0.010566    0.011019    0.011160    0.011393    0.012667
    0.014118    0.015218    0.017669    0.022107    0.024246    0.025487
 Highest eigenvalues
    3.129349    3.202158    3.211850    3.246536    3.329578    3.333956


........................................................................
.............................. CYCLE   21 ..............................
........................................................................

 iter      E             dE          RMSdq      gap      omega  full diag
   1   -393.8513941 -0.393851E+03  0.671E-02    0.14       0.0  T
   2   -393.8514065 -0.123214E-04  0.375E-02    0.14       1.0  T
   3   -393.8514032  0.322908E-05  0.227E-02    0.14       1.0  T
   4   -393.8513492  0.540042E-04  0.221E-02    0.14       1.0  T
   5   -393.8514145 -0.652291E-04  0.329E-03    0.14       2.0  T
   6   -393.8514162 -0.174234E-05  0.105E-03    0.14       6.2  T
   7   -393.8514164 -0.172846E-06  0.552E-04    0.14      11.7  T
   8   -393.8514164 -0.396214E-07  0.246E-04    0.14      26.3  T
     SCC iter.                  ...        0 min,  0.528 sec
     gradient                   ...        0 min,  0.305 sec
 * total energy  :  -388.6335741 Eh     change       -0.9885829E-03 Eh
   gradient norm :     0.0148010 Eh/α   predicted     0.0000000E+00 (-100.00%)
   displ. norm   :     0.2519249 α      lambda       -0.1280313E-02
   maximum displ.:     0.1320680 α      in ANC's #1, #4, #3, ...

........................................................................
.............................. CYCLE   22 ..............................
........................................................................

 iter      E             dE          RMSdq      gap      omega  full diag
   1   -393.8538098 -0.393854E+03  0.303E-02    0.14       0.0  T
   2   -393.8538142 -0.447243E-05  0.182E-02    0.14       1.0  T
   3   -393.8537819  0.323109E-04  0.150E-02    0.14       1.0  T
   4   -393.8538039 -0.220152E-04  0.110E-02    0.14       1.0  T
   5   -393.8538185 -0.145101E-04  0.151E-03    0.14       4.3  T
   6   -393.8538190 -0.502242E-06  0.775E-04    0.14       8.3  T
   7   -393.8538191 -0.139720E-06  0.301E-04    0.14      21.5  T
     SCC iter.                  ...        0 min,  0.478 sec
     gradient                   ...        0 min,  0.306 sec
 * total energy  :  -388.6345899 Eh     change       -0.1015812E-02 Eh
   gradient norm :     0.0053005 Eh/α   predicted    -0.6807964E-03 ( -32.98%)
   displ. norm   :     0.4884610 α      lambda       -0.1457177E-02
   maximum displ.:     0.2583847 α      in ANC's #1, #4, #3, ...

........................................................................
.............................. CYCLE   23 ..............................
........................................................................

 iter      E             dE          RMSdq      gap      omega  full diag
   1   -393.8553011 -0.393855E+03  0.463E-02    0.13       0.0  T
   2   -393.8553003  0.846792E-06  0.281E-02    0.13       1.0  T
   3   -393.8551356  0.164634E-03  0.373E-02    0.13       1.0  T
   4   -393.8553140 -0.178400E-03  0.117E-02    0.13       1.0  T
   5   -393.8553259 -0.118357E-04  0.396E-03    0.13       1.6  T
   6   -393.8553305 -0.461578E-05  0.163E-03    0.13       4.0  T
   7   -393.8553309 -0.387096E-06  0.490E-04    0.13      13.2  T
   8   -393.8553309  0.617769E-08  0.310E-04    0.13      20.9  T
     SCC iter.                  ...        0 min,  0.546 sec
     gradient                   ...        0 min,  0.307 sec
 * total energy  :  -388.6357286 Eh     change       -0.1138742E-02 Eh
   gradient norm :     0.0084718 Eh/α   predicted    -0.9025074E-03 ( -20.75%)
   displ. norm   :     0.5538257 α      lambda       -0.1194900E-02
   maximum displ.:     0.3037238 α      in ANC's #1, #4, #3, ...

........................................................................
.............................. CYCLE   24 ..............................
........................................................................

 iter      E             dE          RMSdq      gap      omega  full diag
   1   -393.8555975 -0.393856E+03  0.517E-02    0.12       0.0  T
   2   -393.8555876  0.982118E-05  0.311E-02    0.12       1.0  T
   3   -393.8554657  0.121937E-03  0.373E-02    0.12       1.0  T
   4   -393.8556120 -0.146268E-03  0.161E-02    0.12       1.0  T
   5   -393.8556273 -0.153126E-04  0.578E-03    0.12       1.1  T
   6   -393.8556363 -0.903805E-05  0.168E-03    0.12       3.8  T
   7   -393.8556366 -0.275360E-06  0.572E-04    0.12      11.3  T
   8   -393.8556366  0.543548E-08  0.404E-04    0.12      16.0  T
     SCC iter.                  ...        0 min,  0.542 sec
     gradient                   ...        0 min,  0.307 sec
 * total energy  :  -388.6367591 Eh     change       -0.1030415E-02 Eh
   gradient norm :     0.0110558 Eh/α   predicted    -0.7807187E-03 ( -24.23%)
   displ. norm   :     0.6375776 α      lambda       -0.1287846E-02
   maximum displ.:     0.3604144 α      in ANC's #1, #4, #3, ...

........................................................................
.............................. CYCLE   25 ..............................
........................................................................

 iter      E             dE          RMSdq      gap      omega  full diag
   1   -393.8558694 -0.393856E+03  0.627E-02    0.10       0.0  T
   2   -393.8558616  0.781496E-05  0.364E-02    0.11       1.0  T
   3   -393.8557778  0.837817E-04  0.359E-02    0.11       1.0  T
   4   -393.8558655 -0.876504E-04  0.238E-02    0.11       1.0  T
   5   -393.8559044 -0.389017E-04  0.902E-03    0.11       1.0  T
   6   -393.8559214 -0.170043E-04  0.183E-03    0.11       3.5  T
   7   -393.8559217 -0.310372E-06  0.720E-04    0.11       9.0  T
   8   -393.8559217 -0.697270E-08  0.529E-04    0.11      12.2  T
     SCC iter.                  ...        0 min,  0.543 sec
     gradient                   ...        0 min,  0.305 sec
 * total energy  :  -388.6378856 Eh     change       -0.1126587E-02 Eh
   gradient norm :     0.0079176 Eh/α   predicted    -0.9056809E-03 ( -19.61%)
   displ. norm   :     0.7027512 α      lambda       -0.1242790E-02
   maximum displ.:     0.4146217 α      in ANC's #1, #4, #3, ...

........................................................................
.............................. CYCLE   26 ..............................
........................................................................

 iter      E             dE          RMSdq      gap      omega  full diag
   1   -393.8562917 -0.393856E+03  0.687E-02    0.09       0.0  T
   2   -393.8562881  0.354168E-05  0.395E-02    0.10       1.0  T
   3   -393.8562493  0.388399E-04  0.319E-02    0.09       1.0  T
   4   -393.8562796 -0.302799E-04  0.266E-02    0.10       1.0  T
   5   -393.8563307 -0.511188E-04  0.104E-02    0.10       1.0  T
   6   -393.8563492 -0.184894E-04  0.231E-03    0.10       2.8  T
   7   -393.8563497 -0.575058E-06  0.825E-04    0.10       7.8  T
   8   -393.8563498 -0.361089E-07  0.593E-04    0.10      10.9  T
     SCC iter.                  ...        0 min,  0.538 sec
     gradient                   ...        0 min,  0.306 sec
 * total energy  :  -388.6389445 Eh     change       -0.1058877E-02 Eh
   gradient norm :     0.0048896 Eh/α   predicted    -0.9282770E-03 ( -12.33%)
   displ. norm   :     0.6862588 α      lambda       -0.1004727E-02
   maximum displ.:     0.4242604 α      in ANC's #1, #4, #3, ...

........................................................................
.............................. CYCLE   27 ..............................
........................................................................

 iter      E             dE          RMSdq      gap      omega  full diag
   1   -393.8568540 -0.393857E+03  0.615E-02    0.08       0.0  T
   2   -393.8568490  0.500909E-05  0.364E-02    0.09       1.0  T
   3   -393.8568230  0.260053E-04  0.281E-02    0.08       1.0  T
   4   -393.8568608 -0.377918E-04  0.208E-02    0.09       1.0  T
   5   -393.8568967 -0.359515E-04  0.291E-03    0.09       2.2  T
   6   -393.8568982 -0.146450E-05  0.196E-03    0.09       3.3  T
   7   -393.8568986 -0.461516E-06  0.986E-04    0.09       6.6  T
   8   -393.8568987 -0.466306E-07  0.620E-04    0.09      10.4  T
     SCC iter.                  ...        0 min,  0.544 sec
     gradient                   ...        0 min,  0.307 sec
 * total energy  :  -388.6398010 Eh     change       -0.8564774E-03 Eh
   gradient norm :     0.0061496 Eh/α   predicted    -0.7389539E-03 ( -13.72%)
   displ. norm   :     0.6105856 α      lambda       -0.8149464E-03
   maximum displ.:     0.3955356 α      in ANC's #1, #2, #4, ...

........................................................................
.............................. CYCLE   28 ..............................
........................................................................

 iter      E             dE          RMSdq      gap      omega  full diag
   1   -393.8585418 -0.393859E+03  0.474E-02    0.08       0.0  T
   2   -393.8585353  0.648990E-05  0.293E-02    0.09       1.0  T
   3   -393.8585040  0.313407E-04  0.248E-02    0.08       1.0  T
   4   -393.8585474 -0.434273E-04  0.153E-02    0.09       1.0  T
   5   -393.8585627 -0.152627E-04  0.508E-03    0.08       1.3  T
   6   -393.8585663 -0.359300E-05  0.213E-03    0.08       3.0  T
   7   -393.8585669 -0.566630E-06  0.603E-04    0.08      10.7  T
   8   -393.8585669 -0.246114E-07  0.395E-04    0.08      16.4  T
     SCC iter.                  ...        0 min,  0.544 sec
     gradient                   ...        0 min,  0.306 sec
 * total energy  :  -388.6405278 Eh     change       -0.7268207E-03 Eh
   gradient norm :     0.0067015 Eh/α   predicted    -0.5593917E-03 ( -23.04%)
   displ. norm   :     0.6280429 α      lambda       -0.8436239E-03
   maximum displ.:     0.4151633 α      in ANC's #1, #2, #4, ...

........................................................................
.............................. CYCLE   29 ..............................
........................................................................

 iter      E             dE          RMSdq      gap      omega  full diag
   1   -393.8600733 -0.393860E+03  0.422E-02    0.08       0.0  T
   2   -393.8600708  0.252393E-05  0.260E-02    0.08       1.0  T
   3   -393.8600256  0.452315E-04  0.239E-02    0.07       1.0  T
   4   -393.8600784 -0.528292E-04  0.108E-02    0.08       1.0  T
   5   -393.8600866 -0.818949E-05  0.230E-03    0.08       2.8  T
   6   -393.8600872 -0.602892E-06  0.184E-03    0.08       3.5  T
   7   -393.8600876 -0.435192E-06  0.512E-04    0.08      12.6  T
   8   -393.8600877 -0.165689E-07  0.316E-04    0.08      20.5  T
     SCC iter.                  ...        0 min,  0.542 sec
     gradient                   ...        0 min,  0.306 sec
 * total energy  :  -388.6413109 Eh     change       -0.7830792E-03 Eh
   gradient norm :     0.0059416 Eh/α   predicted    -0.5881908E-03 ( -24.89%)
   displ. norm   :     0.6957311 α      lambda       -0.9678574E-03
   maximum displ.:     0.4634849 α      in ANC's #1, #2, #4, ...

........................................................................
.............................. CYCLE   30 ..............................
........................................................................

 iter      E             dE          RMSdq      gap      omega  full diag
   1   -393.8617654 -0.393862E+03  0.408E-02    0.08       0.0  T
   2   -393.8617664 -0.938626E-06  0.243E-02    0.08       1.0  T
   3   -393.8617097  0.566719E-04  0.221E-02    0.08       1.0  T
   4   -393.8617591 -0.493993E-04  0.108E-02    0.08       1.0  T
   5   -393.8617705 -0.114430E-04  0.390E-03    0.08       1.7  T
   6   -393.8617726 -0.205298E-05  0.105E-03    0.08       6.2  T
   7   -393.8617727 -0.127220E-06  0.363E-04    0.08      17.8  T
   8   -393.8617727 -0.925695E-08  0.254E-04    0.08      25.5  T
     SCC iter.                  ...        0 min,  0.547 sec
     gradient                   ...        0 min,  0.306 sec
 * total energy  :  -388.6421957 Eh     change       -0.8848428E-03 Eh
   gradient norm :     0.0046150 Eh/α   predicted    -0.7181721E-03 ( -18.84%)
   displ. norm   :     0.7357232 α      lambda       -0.9736019E-03
   maximum displ.:     0.4893337 α      in ANC's #1, #2, #4, ...

........................................................................
.............................. CYCLE   31 ..............................
........................................................................

 iter      E             dE          RMSdq      gap      omega  full diag
   1   -393.8620253 -0.393862E+03  0.404E-02    0.08       0.0  T
   2   -393.8620225  0.285205E-05  0.244E-02    0.08       1.0  T
   3   -393.8619325  0.899345E-04  0.289E-02    0.09       1.0  T
   4   -393.8620086 -0.760768E-04  0.126E-02    0.08       1.0  T
   5   -393.8620301 -0.215067E-04  0.259E-03    0.08       2.5  T
   6   -393.8620309 -0.762593E-06  0.801E-04    0.08       8.1  T
   7   -393.8620309 -0.490498E-07  0.347E-04    0.08      18.6  T
     SCC iter.                  ...        0 min,  0.477 sec
     gradient                   ...        0 min,  0.308 sec
 * total energy  :  -388.6430872 Eh     change       -0.8914598E-03 Eh
   gradient norm :     0.0044834 Eh/α   predicted    -0.7503012E-03 ( -15.83%)
   displ. norm   :     0.7724505 α      lambda       -0.1004653E-02
   maximum displ.:     0.5135748 α      in ANC's #1, #2, #5, ...

........................................................................
.............................. CYCLE   32 ..............................
........................................................................

 iter      E             dE          RMSdq      gap      omega  full diag
   1   -393.8643873 -0.393864E+03  0.387E-02    0.09       0.0  T
   2   -393.8643651  0.221938E-04  0.269E-02    0.08       1.0  T
   3   -393.8643190  0.461506E-04  0.284E-02    0.09       1.0  T
   4   -393.8643595 -0.405795E-04  0.161E-02    0.08       1.0  T
   5   -393.8643965 -0.369484E-04  0.404E-03    0.08       1.6  T
   6   -393.8643984 -0.194759E-05  0.563E-04    0.09      11.5  T
   7   -393.8643984 -0.107928E-07  0.301E-04    0.09      21.5  T
   8   -393.8643984 -0.424143E-08  0.172E-04    0.09      37.5  T
     SCC iter.                  ...        0 min,  0.548 sec
     gradient                   ...        0 min,  0.307 sec
 * total energy  :  -388.6439712 Eh     change       -0.8839758E-03 Eh
   gradient norm :     0.0055097 Eh/α   predicted    -0.8020568E-03 (  -9.27%)
   displ. norm   :     0.7526258 α      lambda       -0.8981587E-03
   maximum displ.:     0.5048926 α      in ANC's #1, #2, #7, ...

........................................................................
.............................. CYCLE   33 ..............................
........................................................................

 iter      E             dE          RMSdq      gap      omega  full diag
   1   -393.8617716 -0.393862E+03  0.430E-02    0.09       0.0  T
   2   -393.8617430  0.285748E-04  0.314E-02    0.08       1.0  T
   3   -393.8617392  0.385366E-05  0.253E-02    0.09       1.0  T
   4   -393.8617295  0.969196E-05  0.199E-02    0.08       1.0  T
   5   -393.8617857 -0.562292E-04  0.664E-03    0.09       1.0  T
   6   -393.8617907 -0.499648E-05  0.793E-04    0.09       8.2  T
   7   -393.8617907 -0.422338E-07  0.324E-04    0.09      19.9  T
   8   -393.8617907 -0.174487E-08  0.185E-04    0.09      35.0  T
     SCC iter.                  ...        0 min,  0.547 sec
     gradient                   ...        0 min,  0.306 sec
 * total energy  :  -388.6447303 Eh     change       -0.7590992E-03 Eh
   gradient norm :     0.0070755 Eh/α   predicted    -0.7034643E-03 (  -7.33%)
   displ. norm   :     0.6665287 α      lambda       -0.8431735E-03
   maximum displ.:     0.4488725 α      in ANC's #1, #2, #7, ...

........................................................................
.............................. CYCLE   34 ..............................
........................................................................

 iter      E             dE          RMSdq      gap      omega  full diag
   1   -393.8666030 -0.393867E+03  0.351E-02    0.10       0.0  T
   2   -393.8665640  0.389438E-04  0.294E-02    0.09       1.0  T
   3   -393.8666000 -0.359651E-04  0.189E-02    0.10       1.0  T
   4   -393.8665871  0.128459E-04  0.160E-02    0.09       1.0  T
   5   -393.8666247 -0.375959E-04  0.573E-03    0.09       1.1  T
   6   -393.8666282 -0.345536E-05  0.624E-04    0.09      10.4  T
   7   -393.8666282 -0.299241E-08  0.364E-04    0.09      17.8  T
   8   -393.8666282 -0.773224E-08  0.228E-04    0.09      28.4  T
     SCC iter.                  ...        0 min,  0.544 sec
     gradient                   ...        0 min,  0.307 sec
 * total energy  :  -388.6454163 Eh     change       -0.6860034E-03 Eh
   gradient norm :     0.0059256 Eh/α   predicted    -0.6088839E-03 ( -11.24%)
   displ. norm   :     0.6797367 α      lambda       -0.7452713E-03
   maximum displ.:     0.4620571 α      in ANC's #1, #7, #3, ...

........................................................................
.............................. CYCLE   35 ..............................
........................................................................

 iter      E             dE          RMSdq      gap      omega  full diag
   1   -393.8656110 -0.393866E+03  0.376E-02    0.10       0.0  T
   2   -393.8655773  0.337178E-04  0.297E-02    0.09       1.0  T
   3   -393.8656017 -0.243965E-04  0.204E-02    0.10       1.0  T
   4   -393.8655897  0.120584E-04  0.171E-02    0.09       1.0  T
   5   -393.8656315 -0.418449E-04  0.591E-03    0.09       1.1  T
   6   -393.8656352 -0.366312E-05  0.717E-04    0.10       9.0  T
   7   -393.8656352 -0.257202E-07  0.341E-04    0.10      18.9  T
   8   -393.8656352 -0.105698E-07  0.198E-04    0.10      32.7  T
     SCC iter.                  ...        0 min,  0.594 sec
     gradient                   ...        0 min,  0.315 sec
 * total energy  :  -388.6460490 Eh     change       -0.6327326E-03 Eh
   gradient norm :     0.0074793 Eh/α   predicted    -0.5448135E-03 ( -13.90%)
   displ. norm   :     0.6369313 α      lambda       -0.8209244E-03
   maximum displ.:     0.4322430 α      in ANC's #1, #3, #7, ...

........................................................................
.............................. CYCLE   36 ..............................
........................................................................

 iter      E             dE          RMSdq      gap      omega  full diag
   1   -393.8670978 -0.393867E+03  0.354E-02    0.10       0.0  T
   2   -393.8670682  0.296285E-04  0.280E-02    0.09       1.0  T
   3   -393.8671009 -0.327462E-04  0.171E-02    0.10       1.0  T
   4   -393.8670944  0.654876E-05  0.137E-02    0.10       1.0  T
   5   -393.8671189 -0.245505E-04  0.694E-03    0.10       1.0  T
   6   -393.8671238 -0.485655E-05  0.768E-04    0.10       8.4  T
   7   -393.8671238 -0.329572E-07  0.348E-04    0.10      18.6  T
   8   -393.8671238 -0.146675E-07  0.202E-04    0.10      31.9  T
     SCC iter.                  ...        0 min,  0.561 sec
     gradient                   ...        0 min,  0.306 sec
 * total energy  :  -388.6467245 Eh     change       -0.6755212E-03 Eh
   gradient norm :     0.0068580 Eh/α   predicted    -0.5769807E-03 ( -14.59%)
   displ. norm   :     0.6402901 α      lambda       -0.7638083E-03
   maximum displ.:     0.4143092 α      in ANC's #1, #3, #7, ...

........................................................................
.............................. CYCLE   37 ..............................
........................................................................

 iter      E             dE          RMSdq      gap      omega  full diag
   1   -393.8693439 -0.393869E+03  0.343E-02    0.11       0.0  T
   2   -393.8693150  0.288420E-04  0.262E-02    0.10       1.0  T
   3   -393.8693274 -0.123680E-04  0.201E-02    0.11       1.0  T
   4   -393.8693318 -0.441979E-05  0.147E-02    0.10       1.0  T
   5   -393.8693629 -0.310562E-04  0.485E-03    0.10       1.3  T
   6   -393.8693649 -0.202064E-05  0.585E-04    0.10      11.1  T
   7   -393.8693649 -0.138061E-07  0.306E-04    0.10      21.1  T
   8   -393.8693649 -0.105030E-07  0.180E-04    0.10      36.0  T
     SCC iter.                  ...        0 min,  0.541 sec
     gradient                   ...        0 min,  0.307 sec
 * total energy  :  -388.6473627 Eh     change       -0.6381845E-03 Eh
   gradient norm :     0.0056467 Eh/α   predicted    -0.5384736E-03 ( -15.62%)
   displ. norm   :     0.7391722 α      lambda       -0.7968005E-03
   maximum displ.:     0.4901900 α      in ANC's #1, #3, #7, ...

........................................................................
.............................. CYCLE   38 ..............................
........................................................................

 iter      E             dE          RMSdq      gap      omega  full diag
   1   -393.8702958 -0.393870E+03  0.366E-02    0.11       0.0  T
   2   -393.8702638  0.319315E-04  0.272E-02    0.10       1.0  T
   3   -393.8702518  0.120663E-04  0.246E-02    0.11       1.0  T
   4   -393.8702847 -0.329404E-04  0.148E-02    0.11       1.0  T
   5   -393.8703156 -0.309069E-04  0.374E-03    0.11       1.7  T
   6   -393.8703169 -0.130911E-05  0.486E-04    0.11      13.3  T
   7   -393.8703169  0.225793E-08  0.301E-04    0.11      21.5  T
   8   -393.8703169 -0.140311E-07  0.162E-04    0.11      40.0  T
     SCC iter.                  ...        0 min,  0.544 sec
     gradient                   ...        0 min,  0.307 sec
 * total energy  :  -388.6479726 Eh     change       -0.6098849E-03 Eh
   gradient norm :     0.0073390 Eh/α   predicted    -0.6160783E-03 (   1.02%)
   displ. norm   :     0.6155635 α      lambda       -0.6022700E-03
   maximum displ.:     0.4237663 α      in ANC's #1, #3, #7, ...

........................................................................
.............................. CYCLE   39 ..............................
........................................................................

 iter      E             dE          RMSdq      gap      omega  full diag
   1   -393.8697504 -0.393870E+03  0.286E-02    0.11       0.0  T
   2   -393.8697375  0.129034E-04  0.197E-02    0.11       1.0  T
   3   -393.8697157  0.218160E-04  0.196E-02    0.12       1.0  T
   4   -393.8697460 -0.302983E-04  0.993E-03    0.11       1.0  T
   5   -393.8697601 -0.140669E-04  0.338E-03    0.11       1.9  T
   6   -393.8697610 -0.881143E-06  0.443E-04    0.11      14.6  T
   7   -393.8697610  0.571902E-09  0.264E-04    0.11      24.5  T
     SCC iter.                  ...        0 min,  0.476 sec
     gradient                   ...        0 min,  0.308 sec
 * total energy  :  -388.6483840 Eh     change       -0.4113498E-03 Eh
   gradient norm :     0.0068745 Eh/α   predicted    -0.4152463E-03 (   0.95%)
   displ. norm   :     0.4803558 α      lambda       -0.3774753E-03
   maximum displ.:     0.3447375 α      in ANC's #1, #3, #4, ...

........................................................................
.............................. CYCLE   40 ..............................
........................................................................

 iter      E             dE          RMSdq      gap      omega  full diag
   1   -393.8721476 -0.393872E+03  0.223E-02    0.11       0.0  T
   2   -393.8721449  0.274289E-05  0.136E-02    0.11       1.0  T
   3   -393.8721147  0.301957E-04  0.162E-02    0.11       1.0  T
   4   -393.8721470 -0.323154E-04  0.614E-03    0.11       1.1  T
   5   -393.8721502 -0.317071E-05  0.277E-03    0.11       2.3  T
   6   -393.8721510 -0.848746E-06  0.568E-04    0.11      11.4  T
   7   -393.8721510 -0.253140E-07  0.266E-04    0.11      24.3  T
     SCC iter.                  ...        0 min,  0.481 sec
     gradient                   ...        0 min,  0.309 sec
 * total energy  :  -388.6486690 Eh     change       -0.2850110E-03 Eh
   gradient norm :     0.0060606 Eh/α   predicted    -0.2322892E-03 ( -18.50%)
   displ. norm   :     0.4744164 α      lambda       -0.3730569E-03
   maximum displ.:     0.3615315 α      in ANC's #1, #4, #3, ...

........................................................................
.............................. CYCLE   41 ..............................
........................................................................

 iter      E             dE          RMSdq      gap      omega  full diag
   1   -393.8743102 -0.393874E+03  0.239E-02    0.11       0.0  T
   2   -393.8743108 -0.551850E-06  0.142E-02    0.11       1.0  T
   3   -393.8742987  0.120334E-04  0.125E-02    0.11       1.0  T
   4   -393.8743035 -0.479227E-05  0.956E-03    0.11       1.0  T
   5   -393.8743137 -0.101319E-04  0.132E-03    0.11       4.9  T
   6   -393.8743139 -0.255656E-06  0.634E-04    0.11      10.2  T
   7   -393.8743139 -0.387129E-07  0.257E-04    0.11      25.2  T
     SCC iter.                  ...        0 min,  0.482 sec
     gradient                   ...        0 min,  0.310 sec
 * total energy  :  -388.6489536 Eh     change       -0.2845884E-03 Eh
   gradient norm :     0.0048477 Eh/α   predicted    -0.2285118E-03 ( -19.70%)
   displ. norm   :     0.5511410 α      lambda       -0.3971344E-03
   maximum displ.:     0.4166269 α      in ANC's #1, #4, #5, ...

........................................................................
.............................. CYCLE   42 ..............................
........................................................................

 iter      E             dE          RMSdq      gap      omega  full diag
   1   -393.8727011 -0.393873E+03  0.304E-02    0.11       0.0  T
   2   -393.8727029 -0.184186E-05  0.182E-02    0.11       1.0  T
   3   -393.8726866  0.162720E-04  0.145E-02    0.10       1.0  T
   4   -393.8727058 -0.191299E-04  0.505E-03    0.11       1.3  T
   5   -393.8727082 -0.243606E-05  0.755E-04    0.11       8.6  T
   6   -393.8727082  0.168928E-07  0.635E-04    0.11      10.2  T
   7   -393.8727082 -0.443547E-07  0.454E-04    0.11      14.3  T
     SCC iter.                  ...        0 min,  0.481 sec
     gradient                   ...        0 min,  0.308 sec
 * total energy  :  -388.6492304 Eh     change       -0.2768593E-03 Eh
   gradient norm :     0.0072624 Eh/α   predicted    -0.2588861E-03 (  -6.49%)
   displ. norm   :     0.4475635 α      lambda       -0.3550104E-03
   maximum displ.:     0.3084058 α      in ANC's #1, #4, #2, ...
 * RMSD in coord.:     0.7118190 α      energy gain  -0.1664491E-01 Eh

generating ANC from exact Hessian ...
Using Lindh-Hessian (1995)
 Shifting diagonal of input Hessian by    9.8168178292995251E-003
 Lowest  eigenvalues of input Hessian
    0.000000    0.000000    0.000000    0.000000    0.000000    0.000000
    0.010000    0.010547    0.010947    0.011093    0.011272    0.012122
    0.013797    0.014784    0.017903    0.021615    0.024158    0.025312
 Highest eigenvalues
    3.129245    3.202218    3.211597    3.246232    3.329147    3.333459


........................................................................
.............................. CYCLE   43 ..............................
........................................................................

 iter      E             dE          RMSdq      gap      omega  full diag
   1   -393.8756242 -0.393876E+03  0.291E-02    0.10       0.0  T
   2   -393.8756160  0.816686E-05  0.208E-02    0.11       1.0  T
   3   -393.8756082  0.776980E-05  0.177E-02    0.10       1.0  T
   4   -393.8756263 -0.180242E-04  0.931E-03    0.11       1.0  T
   5   -393.8756377 -0.114948E-04  0.489E-03    0.11       1.3  T
   6   -393.8756400 -0.229370E-05  0.630E-04    0.10      10.3  T
   7   -393.8756400 -0.166011E-08  0.361E-04    0.10      17.9  T
   8   -393.8756400 -0.605036E-08  0.229E-04    0.10      28.3  T
     SCC iter.                  ...        0 min,  0.536 sec
     gradient                   ...        0 min,  0.306 sec
 * total energy  :  -388.6494135 Eh     change       -0.1830577E-03 Eh
   gradient norm :     0.0082728 Eh/α   predicted     0.0000000E+00 (-100.00%)
   displ. norm   :     0.0704936 α      lambda       -0.1982263E-03
   maximum displ.:     0.0331471 α      in ANC's #7, #5, #1, ...

........................................................................
.............................. CYCLE   44 ..............................
........................................................................

 iter      E             dE          RMSdq      gap      omega  full diag
   1   -393.8745171 -0.393875E+03  0.139E-02    0.10       0.0  T
   2   -393.8745170  0.162045E-06  0.842E-03    0.10       1.0  T
   3   -393.8745127  0.424192E-05  0.765E-03    0.11       1.0  T
   4   -393.8745140 -0.125035E-05  0.557E-03    0.10       1.2  T
   5   -393.8745182 -0.426969E-05  0.106E-03    0.10       6.1  T
   6   -393.8745184 -0.145543E-06  0.320E-04    0.10      20.2  T
   7   -393.8745184 -0.607031E-08  0.161E-04    0.10      40.3  T
     SCC iter.                  ...        0 min,  0.478 sec
     gradient                   ...        0 min,  0.307 sec
 * total energy  :  -388.6495505 Eh     change       -0.1370672E-03 Eh
   gradient norm :     0.0033940 Eh/α   predicted    -0.1002249E-03 ( -26.88%)
   displ. norm   :     0.0959770 α      lambda       -0.9276147E-04
   maximum displ.:     0.0459740 α      in ANC's #7, #5, #2, ...

........................................................................
.............................. CYCLE   45 ..............................
........................................................................

 iter      E             dE          RMSdq      gap      omega  full diag
   1   -393.8740063 -0.393874E+03  0.109E-02    0.10       0.0  T
   2   -393.8740060  0.324080E-06  0.690E-03    0.10       1.0  T
   3   -393.8740056  0.332328E-06  0.507E-03    0.10       1.3  T
   4   -393.8740042  0.143434E-05  0.481E-03    0.10       1.3  T
   5   -393.8740074 -0.317376E-05  0.127E-03    0.10       5.1  T
   6   -393.8740076 -0.182914E-06  0.335E-04    0.10      19.3  T
   7   -393.8740076 -0.839350E-08  0.134E-04    0.10      48.2  T
     SCC iter.                  ...        0 min,  0.483 sec
     gradient                   ...        0 min,  0.307 sec
 * total energy  :  -388.6496122 Eh     change       -0.6169313E-04 Eh
   gradient norm :     0.0015171 Eh/α   predicted    -0.4681573E-04 ( -24.12%)
   displ. norm   :     0.1515485 α      lambda       -0.4716624E-04
   maximum displ.:     0.0693024 α      in ANC's #5, #7, #2, ...

........................................................................
.............................. CYCLE   46 ..............................
........................................................................

 iter      E             dE          RMSdq      gap      omega  full diag
   1   -393.8741364 -0.393874E+03  0.112E-02    0.10       0.0  T
   2   -393.8741359  0.472810E-06  0.711E-03    0.10       1.0  T
   3   -393.8741353  0.625935E-06  0.546E-03    0.10       1.2  T
   4   -393.8741344  0.872226E-06  0.499E-03    0.10       1.3  T
   5   -393.8741376 -0.321575E-05  0.112E-03    0.10       5.8  T
   6   -393.8741378 -0.158006E-06  0.367E-04    0.10      17.6  T
   7   -393.8741378 -0.110252E-07  0.150E-04    0.10      43.1  T
     SCC iter.                  ...        0 min,  0.481 sec
     gradient                   ...        0 min,  0.307 sec
 * total energy  :  -388.6496607 Eh     change       -0.4844231E-04 Eh
   gradient norm :     0.0031390 Eh/α   predicted    -0.2382399E-04 ( -50.82%)
   displ. norm   :     0.1184818 α      lambda       -0.4980536E-04
   maximum displ.:     0.0590620 α      in ANC's #5, #1, #2, ...

........................................................................
.............................. CYCLE   47 ..............................
........................................................................

 iter      E             dE          RMSdq      gap      omega  full diag
   1   -393.8745743 -0.393875E+03  0.689E-03    0.10       0.0  T
   2   -393.8745744 -0.243239E-07  0.413E-03    0.10       1.6  T
   3   -393.8745729  0.151235E-05  0.406E-03    0.10       1.6  T
   4   -393.8745739 -0.104848E-05  0.259E-03    0.10       2.5  T
   5   -393.8745747 -0.791861E-06  0.370E-04    0.10      17.5  T
   6   -393.8745747 -0.290119E-07  0.193E-04    0.10      33.5  T
     SCC iter.                  ...        0 min,  0.406 sec
     gradient                   ...        0 min,  0.306 sec
 * total energy  :  -388.6497050 Eh     change       -0.4428084E-04 Eh
   gradient norm :     0.0027763 Eh/α   predicted    -0.2525282E-04 ( -42.97%)
   displ. norm   :     0.2891226 α      lambda       -0.1121673E-03
   maximum displ.:     0.1442805 α      in ANC's #5, #1, #2, ...

........................................................................
.............................. CYCLE   48 ..............................
........................................................................

 iter      E             dE          RMSdq      gap      omega  full diag
   1   -393.8749950 -0.393875E+03  0.167E-02    0.10       0.0  T
   2   -393.8749954 -0.374347E-06  0.996E-03    0.10       1.0  T
   3   -393.8749846  0.107980E-04  0.942E-03    0.10       1.0  T
   4   -393.8749952 -0.105976E-04  0.439E-03    0.10       1.5  T
   5   -393.8749968 -0.164597E-05  0.150E-03    0.10       4.3  T
   6   -393.8749972 -0.351145E-06  0.421E-04    0.10      15.4  T
   7   -393.8749972 -0.118584E-07  0.176E-04    0.10      36.7  T
     SCC iter.                  ...        0 min,  0.475 sec
     gradient                   ...        0 min,  0.306 sec
 * total energy  :  -388.6497922 Eh     change       -0.8720223E-04 Eh
   gradient norm :     0.0021746 Eh/α   predicted    -0.6077869E-04 ( -30.30%)
   displ. norm   :     0.3178687 α      lambda       -0.8666365E-04
   maximum displ.:     0.1634761 α      in ANC's #5, #1, #2, ...

........................................................................
.............................. CYCLE   49 ..............................
........................................................................

 iter      E             dE          RMSdq      gap      omega  full diag
   1   -393.8747689 -0.393875E+03  0.177E-02    0.10       0.0  T
   2   -393.8747693 -0.418179E-06  0.107E-02    0.10       1.0  T
   3   -393.8747589  0.104059E-04  0.967E-03    0.10       1.0  T
   4   -393.8747710 -0.120365E-04  0.257E-03    0.10       2.5  T
   5   -393.8747713 -0.357323E-06  0.645E-04    0.10      10.0  T
   6   -393.8747713 -0.134259E-07  0.552E-04    0.10      11.7  T
     SCC iter.                  ...        0 min,  0.411 sec
     gradient                   ...        0 min,  0.308 sec
 * total energy  :  -388.6498560 Eh     change       -0.6389323E-04 Eh
   gradient norm :     0.0022378 Eh/α   predicted    -0.4771858E-04 ( -25.32%)
   displ. norm   :     0.2181820 α      lambda       -0.4502427E-04
   maximum displ.:     0.1191362 α      in ANC's #5, #1, #2, ...

........................................................................
.............................. CYCLE   50 ..............................
........................................................................

 iter      E             dE          RMSdq      gap      omega  full diag
   1   -393.8748264 -0.393875E+03  0.115E-02    0.10       0.0  T
   2   -393.8748264 -0.237580E-07  0.715E-03    0.10       1.0  T
   3   -393.8748214  0.507019E-05  0.701E-03    0.10       1.0  T
   4   -393.8748266 -0.520717E-05  0.240E-03    0.10       2.7  T
   5   -393.8748273 -0.745925E-06  0.134E-03    0.10       4.8  T
   6   -393.8748275 -0.227097E-06  0.247E-04    0.10      26.2  T
   7   -393.8748275 -0.883631E-09  0.127E-04    0.10      50.9  T
     SCC iter.                  ...        0 min,  0.486 sec
     gradient                   ...        0 min,  0.306 sec
 * total energy  :  -388.6498886 Eh     change       -0.3258194E-04 Eh
   gradient norm :     0.0016218 Eh/α   predicted    -0.2358830E-04 ( -27.60%)
   displ. norm   :     0.1747910 α      lambda       -0.2312009E-04
   maximum displ.:     0.1053589 α      in ANC's #5, #1, #7, ...

........................................................................
.............................. CYCLE   51 ..............................
........................................................................

 iter      E             dE          RMSdq      gap      omega  full diag
   1   -393.8753637 -0.393875E+03  0.877E-03    0.10       0.0  T
   2   -393.8753633  0.385413E-06  0.576E-03    0.10       1.1  T
   3   -393.8753589  0.441773E-05  0.673E-03    0.10       1.0  T
   4   -393.8753636 -0.464596E-05  0.226E-03    0.10       2.9  T
   5   -393.8753643 -0.738501E-06  0.437E-04    0.10      14.8  T
   6   -393.8753643 -0.189902E-07  0.235E-04    0.10      27.5  T
     SCC iter.                  ...        0 min,  0.408 sec
     gradient                   ...        0 min,  0.308 sec
 * total energy  :  -388.6499090 Eh     change       -0.2037838E-04 Eh
   gradient norm :     0.0009165 Eh/α   predicted    -0.1172797E-04 ( -42.45%)
   displ. norm   :     0.0536322 α      lambda       -0.7411833E-05
   maximum displ.:     0.0339285 α      in ANC's #5, #1, #4, ...

........................................................................
.............................. CYCLE   52 ..............................
........................................................................

 iter      E             dE          RMSdq      gap      omega  full diag
   1   -393.8753211 -0.393875E+03  0.377E-03    0.10       0.0  T
   2   -393.8753209  0.211040E-06  0.273E-03    0.10       2.4  T
   3   -393.8753209  0.275863E-07  0.239E-03    0.10       2.7  T
   4   -393.8753213 -0.439137E-06  0.374E-04    0.10      17.3  T
   5   -393.8753213 -0.118403E-07  0.934E-05    0.10      69.3  T
     SCC iter.                  ...        0 min,  0.339 sec
     gradient                   ...        0 min,  0.308 sec
 * total energy  :  -388.6499182 Eh     change       -0.9169075E-05 Eh
   gradient norm :     0.0006553 Eh/α   predicted    -0.3711998E-05 ( -59.52%)
   displ. norm   :     0.0772819 α      lambda       -0.9675714E-05
   maximum displ.:     0.0424261 α      in ANC's #4, #5, #2, ...

........................................................................
.............................. CYCLE   53 ..............................
........................................................................

 iter      E             dE          RMSdq      gap      omega  full diag
   1   -393.8754737 -0.393875E+03  0.576E-03    0.10       0.0  T
   2   -393.8754730  0.708731E-06  0.446E-03    0.10       1.5  T
   3   -393.8754736 -0.553367E-06  0.333E-03    0.10       1.9  T
   4   -393.8754742 -0.597290E-06  0.115E-03    0.10       5.6  T
   5   -393.8754742 -0.163937E-07  0.128E-03    0.10       5.1  T
   6   -393.8754744 -0.202386E-06  0.734E-05    0.10      88.1  T
   7   -393.8754744 -0.802629E-10  0.435E-05    0.10     148.7  T
     SCC iter.                  ...        0 min,  0.493 sec
     gradient                   ...        0 min,  0.330 sec
 * total energy  :  -388.6499290 Eh     change       -0.1085375E-04 Eh
   gradient norm :     0.0006394 Eh/α   predicted    -0.4855002E-05 ( -55.27%)
   displ. norm   :     0.0710064 α      lambda       -0.5937302E-05
   maximum displ.:     0.0394845 α      in ANC's #4, #5, #1, ...

........................................................................
.............................. CYCLE   54 ..............................
........................................................................

 iter      E             dE          RMSdq      gap      omega  full diag
   1   -393.8755277 -0.393876E+03  0.417E-03    0.10       0.0  T
   2   -393.8755271  0.576282E-06  0.354E-03    0.10       1.8  T
   3   -393.8755277 -0.610469E-06  0.225E-03    0.10       2.9  T
   4   -393.8755276  0.114007E-06  0.180E-03    0.10       3.6  T
   5   -393.8755281 -0.488626E-06  0.504E-04    0.10      12.8  T
   6   -393.8755281 -0.164033E-07  0.847E-05    0.10      76.4  T
     SCC iter.                  ...        0 min,  0.430 sec
     gradient                   ...        0 min,  0.308 sec
 * total energy  :  -388.6499356 Eh     change       -0.6595587E-05 Eh
   gradient norm :     0.0006006 Eh/α   predicted    -0.2975584E-05 ( -54.89%)
   displ. norm   :     0.0624788 α      lambda       -0.3953704E-05
   maximum displ.:     0.0354338 α      in ANC's #4, #5, #1, ...

........................................................................
.............................. CYCLE   55 ..............................
........................................................................

 iter      E             dE          RMSdq      gap      omega  full diag
   1   -393.8756649 -0.393876E+03  0.331E-03    0.10       0.0  T
   2   -393.8756647  0.282722E-06  0.264E-03    0.10       2.4  T
   3   -393.8756648 -0.176154E-06  0.185E-03    0.10       3.5  T
   4   -393.8756648  0.347474E-07  0.153E-03    0.10       4.2  T
   5   -393.8756651 -0.316602E-06  0.442E-04    0.10      14.6  T
   6   -393.8756651 -0.214779E-07  0.738E-05    0.10      87.7  T
     SCC iter.                  ...        0 min,  0.416 sec
     gradient                   ...        0 min,  0.307 sec
 * total energy  :  -388.6499400 Eh     change       -0.4383599E-05 Eh
   gradient norm :     0.0004292 Eh/α   predicted    -0.1985130E-05 ( -54.71%)
   displ. norm   :     0.0579106 α      lambda       -0.2822516E-05
   maximum displ.:     0.0314297 α      in ANC's #4, #1, #5, ...

   *** GEOMETRY OPTIMIZATION CONVERGED AFTER 55 ITERATIONS ***

------------------------------------------------------------------------
 total energy gain   :        -0.7237315 Eh     -454.1484 kcal/mol
 total RMSD          :         1.1130090 a0        0.5890 Å
 total power (kW/mol):       -34.5483064 (step)  -36.2109 (real)
------------------------------------------------------------------------

 ANCopt (total)                0 d,  0 h,  0 min, 52.475 sec
 optimizer setup                ...        0 min,  0.001 sec (  0.001%)
 model hessian                  ...        0 min,  0.272 sec (  0.518%)
 ANC generation                 ...        0 min,  0.112 sec (  0.213%)
 coordinate transformation      ...        0 min,  0.011 sec (  0.021%)
 single point calculation       ...        0 min, 52.013 sec ( 99.119%)
 optimization log               ...        0 min,  0.020 sec (  0.037%)
 hessian update                 ...        0 min,  0.008 sec (  0.015%)
 rational function              ...        0 min,  0.031 sec (  0.060%)

================
 final structure:
================
239
 xtb: 6.7.1 (edcfbbe)
N            0.19001932779226       -1.84538672569856       -0.81318576566072
N           -0.05022994221137       -1.16007637651846        1.94192158366246
C           -0.37622804046178       -1.07502403337919       -3.10562938284107
C            0.04015579066640       -2.04107091960009       -2.16273367154350
C            0.43195597590450       -3.39447708257783       -2.50842611268850
H            0.40060825727104       -3.81073914658095       -3.51645431665549
C            0.84470454805144       -3.99281182959933       -1.35120390121584
H            1.22219500136702       -5.00657832268232       -1.21027812068725
C            0.65793426674444       -3.02639524681624       -0.28630352406298
C            0.83384505671908       -3.31561200527323        1.08106291851767
C            0.43317692386169       -2.43366135109729        2.10458036769953
C            0.35074708659591       -2.80736247386099        3.50433128489455
H            0.67082638390253       -3.76976863838090        3.90644307874268
C           -0.23108334272630       -1.76204413295758        4.16260546980792
H           -0.48032802932161       -1.67556433004016        5.22106560151562
C           -0.46566963469974       -0.72495610560942        3.17497981541379
C            1.35882967474765       -4.67163332016234        1.47279725502026
C            2.69681102006115       -4.83677831920435        1.90320226450228
C            3.19585720182474       -6.09848494730105        2.27473117357642
C            2.35251621495049       -7.21141055712939        2.20820444984596
H            2.74091907994361       -8.19986609010981        2.48691275707535
C            1.02508828654811       -7.08823525716467        1.78972905393219
C            0.53026071567054       -5.81903363286760        1.43427441310810
N           -0.76480297247705        1.52685283749521        1.20359727408726
N           -0.47567733274472        0.84890725216514       -1.53469969402931
C           -1.01056886776472        0.54097634514982        3.47419385465639
C           -1.08374178679551        1.59459476456604        2.53604031134759
C           -1.44212936827140        2.95603948333585        2.87969615209403
H           -1.75826656779331        3.27995478466660        3.87216334629256
C           -1.28693960928531        3.70536915687774        1.74630856506736
H           -1.45750126102214        4.77400257178791        1.61239627748383
C           -0.89823069245116        2.79468859775438        0.68979297852777
C           -0.77017649230792        3.15691045248866       -0.66477482696548
C           -0.65508507240447        2.20095472329004       -1.69190767303599
C           -0.85157179625166        2.50589064066441       -3.09534989709117
H           -1.01494385875379        3.50788976793814       -3.49376891304449
C           -0.84255022302888        1.31609502354552       -3.76559067633019
H           -0.99321328152015        1.13299708772885       -4.83034557239731
C           -0.57400167265978        0.28366884318086       -2.78233102436541
C           -0.82698567345851        4.60852222784670       -1.05610499406027
C            0.36693258294787        5.28562869887697       -1.40651087248315
C            0.34654899641288        6.62688400762825       -1.83046320820730
C           -0.87381629388405        7.30783353067213       -1.87712263538817
H           -0.89368391164122        8.35742486133794       -2.19876102741783
C           -2.06986471827228        6.67536702682772       -1.52504062653882
C           -2.04520384927784        5.32400090128869       -1.13169870057810
Fe          -0.17928404418873       -0.12864130496413        0.20324542120041
Cl          -2.41268836682566       -0.73175934473691        0.17358584466063
C           -1.59614800549668        0.76438414298803        4.84709730660503
C           -0.82655632991276        1.29969537638966        5.91426696780981
C           -2.95971382911756        0.42469298249674        5.07161367445312
C           -1.40701935627024        1.49757692696900        7.18319518531847
N            0.52659324029229        1.63449370509218        5.64839546581089
C           -3.53607759399730        0.64746899030613        6.34073329614527
N           -3.69009413375339       -0.15902265284186        4.00934912623961
H           -0.79315795762732        1.89715725344856        7.99491819596591
C           -2.75411939718051        1.17430860481528        7.37206430643326
C            1.50484057211953        2.03643423724251        6.52976321804145
H            0.80015531183011        1.52758422591942        4.67001321080540
H           -4.59048812191898        0.40162300279594        6.48994370834114
C           -5.02409698182002       -0.51608599802861        3.98605104241772
H           -3.15978925149017       -0.34252082507365        3.15226550789466
H           -3.20861185049222        1.33671506500891        8.35792460282166
O            1.35752481672805        2.15018137491131        7.74170126773297
C            2.83711408592925        2.34126195915727        5.87731034037827
O           -5.82321955685841       -0.26885193454159        4.88405414211362
C           -5.44190727875525       -1.26704890382969        2.74452226299461
C            4.08785315014476        1.94282217801070        6.61865686893622
H            2.89478727225242        2.33851065565073        4.78339072042797
C            3.68747358069766        3.39815205887712        6.59222468868753
C           -6.78941102774887       -0.95280373628308        2.14376935431197
H           -4.66074048937592       -1.59129171962779        2.04733567972057
C           -6.62773774309902       -2.21926068415942        2.95052920729285
H            3.95908217142463        1.42494109879086        7.57223452880916
H            4.94919458897807        1.65082289526999        6.01451521136540
H            3.25507657322695        3.80670544516528        7.50897559837403
C            4.47975444857689        4.35181842934484        5.75570065942207
H           -7.37147678870372       -0.15888182389488        2.62025481757925
H           -6.87381962390636       -1.04309371934574        1.05728600100804
H           -7.05110878660076       -2.21584121739052        3.95977674893482
C           -6.62043460158623       -3.54165215572470        2.25999384670748
O            4.58765699903188        5.54774467869910        6.35931348101702
O            4.97856998073429        4.08268557154098        4.67965900530342
O           -7.24547552341692       -4.47662216723183        3.00936106686162
O           -6.13489157328415       -3.76685691965845        1.16972243089400
C            5.34536801654647        6.60230331993745        5.69487965746035
C           -7.35020255070301       -5.82633806734524        2.47539732262642
C            4.37818933726969        7.49028956217024        4.89976027224167
C            6.11049649890271        7.35239303098999        6.78405209404926
H            6.04201359128740        6.10402863057692        4.99725309783540
C           -7.36160694227877       -6.77322611549496        3.67653358420260
C           -8.60369825247146       -5.92858434445428        1.59911755547526
H           -6.45241880879853       -5.99881518723724        1.85179210454337
H            3.86163070270488        6.89935654380917        4.12564461685761
H            3.62880509728567        7.93501274991619        5.56795331595896
H            4.93265750329805        8.30210280421972        4.40915623320630
H            6.77548668058197        6.67263103948415        7.33212075193695
H            6.72549847757087        8.14842646911969        6.34333559514916
H            5.42123798474316        7.80879220401607        7.50592216223856
H           -6.44840602185438       -6.64845866391059        4.27276475017678
H           -8.23135893570316       -6.57590393098608        4.32116030835031
H           -7.42142824756294       -7.81706562906145        3.33905598904936
H           -8.53683510390342       -5.22818509179793        0.75547598024017
H           -8.70836832419894       -6.94691075296584        1.19954289881385
H           -9.50726662300273       -5.69912531717191        2.18429297163063
C           -0.61339446232418       -1.54348760334150       -4.51959535414227
C            0.35492100934962       -1.34923439196778       -5.54168231194505
C           -1.82295316245974       -2.22482582708862       -4.82792420407618
C            0.14872393057338       -1.88382466990335       -6.82895842671267
N            1.50527763100307       -0.58612587687299       -5.21692050576690
C           -2.01752992815030       -2.76389581843799       -6.11738567707833
N           -2.81558590014456       -2.29386840817974       -3.82261522606151
H            0.91039731105041       -1.72849595252533       -7.59838732253986
C           -1.02866135994192       -2.59270465878482       -7.09074107989889
C            2.45962729059402       -0.05787977734180       -6.05923191544064
H            1.52107225417947       -0.25479900932426       -4.25080989913251
H           -2.94313114310706       -3.30637616967651       -6.32789043471315
C           -4.05221892347291       -2.90525753282053       -3.87420617865600
H           -2.60090289543390       -1.78232296694349       -2.96240491731020
H           -1.18525517095044       -3.01600642245071       -8.09144825094751
O            2.57001290704915       -0.31954660054328       -7.25122004693328
C            3.36868257700753        0.94754653428848       -5.38526393387008
O           -4.43491246303923       -3.62141110278349       -4.79405350595499
C           -4.93281602365537       -2.59977342848480       -2.68697583737804
C            3.70490077272331        2.19027816200759       -6.17165191222552
H            3.30150588842804        1.06009088110705       -4.29826852737565
C            4.76414736628844        1.12955606545277       -5.98281030604880
C           -5.85001659062163       -3.68102806291966       -2.17625634019310
H           -4.56826984650370       -1.88068731434014       -1.94399287064615
C           -6.43674167016298       -2.55945873960713       -2.99870697508224
H            3.27615684576171        2.27211588592569       -7.17382757450039
H            3.82117861102772        3.12087398649073       -5.61104263826327
H            5.00484385835645        0.50405444759637       -6.84646077190262
C            5.88726089831287        1.42595357491604       -5.03996132866269
H           -5.79346142423601       -4.65164144246208       -2.67602536829272
H           -6.03831336285379       -3.68743620181675       -1.09934416860029
H           -6.70124555145727       -2.79318045612396       -4.03456848937051
C           -7.27080952921102       -1.50866158702627       -2.34401738391626
O            7.05254189006824        0.95235789459708       -5.51073611425616
O            5.76623852287258        2.03459558788050       -3.99260598984231
O           -8.25685337861802       -1.09437749462763       -3.16859555610959
O           -7.10822953637886       -1.07880463602685       -1.21972031002294
C            8.26362651511122        1.17478537767110       -4.73045690084547
C           -9.17201161069952       -0.07190924209055       -2.68232297827811
C            9.15904887860387       -0.04602064466718       -4.94811229592786
C            8.90303453764878        2.49622167042855       -5.16652787537825
H            7.95408070027100        1.24778312206620       -3.67028334788744
C           -8.58590277561862        1.31701475768255       -2.96645059738728
C          -10.51464067108761       -0.32450257495396       -3.36723176906935
H           -9.25817447320359       -0.21111538672614       -1.58932835426168
H            8.63871007312581       -0.96125950523314       -4.63697196338187
H            9.43656867082934       -0.14160161513573       -6.00889720765600
H           10.08448795144806        0.05310320214449       -4.36468116951952
H            8.21592010900877        3.33298164350391       -4.98695240402673
H            9.82608075070009        2.68041201944777       -4.59987650514413
H            9.16177075837896        2.46865643144748       -6.23628451874407
H           -7.62492938564891        1.44163758852938       -2.44147942469533
H           -8.42514632876148        1.45403245174662       -4.04475148464140
H           -9.27684067223438        2.09727698850623       -2.61821115394142
H          -10.88193828062356       -1.33606524932485       -3.14377054362332
H          -11.26555874244898        0.39751416916581       -3.01936802436878
H          -10.42396821517768       -0.22529958628220       -4.45688949378050
H            4.23513252102200       -6.20261221135031        2.60790221072615
H            0.37224338208818       -7.96697372337787        1.73408746232767
H            1.27643707896623        7.12509007784252       -2.12791459385941
H           -3.02121124996782        7.21944123831668       -1.55774979550937
O            3.45894409942206       -3.69072184541221        1.93780033081093
O           -0.75343361381673       -5.61119202431840        0.98692432036831
O            1.50837005118637        4.51534557547270       -1.37530420772702
O           -3.16972471857323        4.63196372633095       -0.74589965217288
C            4.79215421030538       -3.74844600446876        2.34346013130134
C            5.79682991121155       -4.04332858083819        1.41187443896335
C            5.11667294124431       -3.43208667062336        3.66929332008757
C            7.13752289557733       -4.02681155758727        1.81870762451844
H            5.51872713707032       -4.27615032425988        0.37888402703981
C            6.46089228856038       -3.41798038868480        4.06435679337299
H            4.30936623057716       -3.19648692813562        4.37053917142032
C            7.47302548499401       -3.71656011349980        3.14276492913187
H            7.92699135386169       -4.25494602083495        1.09311572260053
H            6.72030905674802       -3.17110896750696        5.09999550562233
H            8.52542486399780       -3.70578439374224        3.45642741237137
C           -1.74090803989822       -6.57773825941779        1.14734346175828
C           -2.13493098843444       -7.01833815270188        2.41906524545602
C           -2.39397275121539       -7.04289766444439       -0.00242486891421
C           -3.17602624041324       -7.94786321776473        2.53177355224432
H           -1.62685130367555       -6.62706927818966        3.30695352493428
C           -3.43953588079127       -7.96579244784061        0.12478628103605
H           -2.07501970683480       -6.66512524223220       -0.97922724906532
C           -3.82934876622362       -8.42630770418320        1.38875867511424
H           -3.48401246169476       -8.29755061452336        3.52337410903544
H           -3.95218887488905       -8.32951082265568       -0.77231154871688
H           -4.64408901970554       -9.15615997126608        1.48416772885227
C            2.78635071230284        5.04267752602230       -1.26001051692820
C            3.10696079514414        6.09809137076502       -0.39103840237307
C            3.79679611743267        4.39742167860224       -1.99143179725931
C            4.43940888261102        6.51597221240039       -0.27885452134758
H            2.31877105194635        6.58361998902128        0.19485763648483
C            5.12438702359215        4.81684045377408       -1.86253661862086
H            3.53368724767707        3.56242003915885       -2.64863225690191
C            5.45137328887201        5.88263895360036       -1.01216858765365
H            4.68879965274635        7.34398245548989        0.39680863299285
H            5.89640967239518        4.29270516539193       -2.43680331391584
H            6.49219715810564        6.21818819208181       -0.91530415828869
C           -4.44532141395250        5.05003739493926       -1.10682565228830
C           -4.80213961852037        5.26749120025206       -2.44557217040995
C           -5.40241909614577        5.16317398002960       -0.08808077894902
C           -6.12141102157577        5.61908602402133       -2.75655475539720
H           -4.04849334223305        5.15350226298952       -3.23187986274190
C           -6.71991418849100        5.50794451120344       -0.41388149693180
H           -5.09728092524285        4.96970268307978        0.94512796055144
C           -7.08310791232098        5.74320906434597       -1.74582275770501
H           -6.40311026450657        5.78943851913018       -3.80136635331761
H           -7.46901707347681        5.59511423184828        0.38049629274495
H           -8.11615064406156        6.01771547689142       -1.99725827437750
N            1.34924568148172        0.42801366453584        0.34577501901698
C            2.40454362080124        1.15929012669244        0.50802315269983
C            2.40448969168606        2.23030131347494        1.45013150364819
C            3.49437951530042        3.05083181264758        1.57737573741101
C            4.62278643754837        2.85223134028461        0.79116219460868
C            4.65926031066258        1.79315352605515       -0.10607275136901
C            3.59868234581608        0.92556269415438       -0.24771301683842
C            3.64344041425733       -0.33496358515787       -1.06308579930782
C            4.22917754340787       -1.46474861104880       -0.19892296743802
C            5.73238561500724       -1.23558833848393       -0.30924973007840
C            5.94024603700607       -0.87562462049798       -1.78300349382131
C            4.60083896698881       -0.28333999720359       -2.25882714603298
H            1.51409885292764        2.38197537377611        2.03810616443978
H            3.48262258794076        3.85265634942269        2.30073448585777
H            5.47045462478100        3.51015611563305        0.88966139081345
H            5.54321048173462        1.65525768148066       -0.70739822700834
H            2.61642947437055       -0.57410942137121       -1.36150192266266
H            3.95366946038657       -2.42639794060541       -0.63389840259665
H            3.86118648593538       -1.43740008328283        0.82478739050395
H            6.01979296238761       -0.40518305926607        0.33598868229067
H            6.31506591751037       -2.10317110000897       -0.01238552310583
H            6.18110911324638       -1.77001972641351       -2.35871635337374
H            6.76152568031104       -0.17127273262730       -1.91227650706772
H            4.19916887942073       -0.88305327518790       -3.07680810021870
H            4.72445651568599        0.73736938647878       -2.61024980602701

 Bond Distances (Angstroems)
 ---------------------------
N1-C4=1.3719         N1-C9=1.3753         N1-Fe47=2.0290       N2-C11=1.3719        N2-C16=1.3720        N2-Fe47=2.0257       
C3-C4=1.4127         C3-C39=1.4106        C3-C106=1.5083       C4-N1=1.3719         C4-C3=1.4127         C4-C5=1.4508         
C5-C4=1.4508         C5-H6=1.0910         C5-C7=1.3666         H6-C5=1.0910         C7-C5=1.3666         C7-H8=1.0909         
C7-C9=1.4501         H8-C7=1.0909         C9-N1=1.3753         C9-C7=1.4501         C9-C10=1.4086        C10-C9=1.4086        
C10-C11=1.4092       C10-C17=1.5059       C11-N2=1.3719        C11-C10=1.4092       C11-C12=1.4511       C12-C11=1.4511       
C12-H13=1.0910       C12-C14=1.3655       H13-C12=1.0910       C14-C12=1.3655       C14-H15=1.0908       C14-C16=1.4512       
H15-C14=1.0908       C16-N2=1.3720        C16-C14=1.4512       C16-C26=1.4103       C17-C10=1.5059       C17-C18=1.4152       
C17-C23=1.4158       C18-C17=1.4152       C18-C19=1.4068       C18-O167=1.3768      C19-C18=1.4068       C19-C20=1.3979       
C19-H163=1.0963      C20-C19=1.3979       C20-H21=1.0980       C20-C22=1.3973       H21-C20=1.0980       C22-C20=1.3973       
C22-C23=1.4079       C22-H164=1.0961      C23-C17=1.4158       C23-C22=1.4079       C23-O168=1.3752      N24-C27=1.3718       
N24-C32=1.3745       N24-Fe47=2.0209      N25-C34=1.3729       N25-C39=1.3732       N25-Fe47=2.0159      C26-C16=1.4103       
C26-C27=1.4127       C26-C49=1.5092       C27-N24=1.3718       C27-C26=1.4127       C27-C28=1.4492       C28-C27=1.4492       
C28-H29=1.0908       C28-C30=1.3675       H29-C28=1.0908       C30-C28=1.3675       C30-H31=1.0904       C30-C32=1.4480       
H31-C30=1.0904       C32-N24=1.3745       C32-C30=1.4480       C32-C33=1.4080       C33-C32=1.4080       C33-C34=1.4079       
C33-C40=1.5045       C34-N25=1.3729       C34-C33=1.4079       C34-C35=1.4496       C35-C34=1.4496       C35-H36=1.0906       
C35-C37=1.3656       H36-C35=1.0906       C37-C35=1.3656       C37-H38=1.0908       C37-C39=1.4508       H38-C37=1.0908       
C39-C3=1.4106        C39-N25=1.3732       C39-C37=1.4508       C40-C33=1.5045       C40-C41=1.4166       C40-C46=1.4148       
C41-C40=1.4166       C41-C42=1.4068       C41-O169=1.3774      C42-C41=1.4068       C42-C43=1.3983       C42-H165=1.0961      
C43-C42=1.3983       C43-H44=1.0979       C43-C45=1.3980       H44-C43=1.0979       C45-C43=1.3980       C45-C46=1.4077       
C45-H166=1.0964      C46-C40=1.4148       C46-C45=1.4077       C46-O170=1.3756      Fe47-N1=2.0290       Fe47-N2=2.0257       
Fe47-N24=2.0209      Fe47-N25=2.0159      Fe47-Cl48=2.3136     Fe47-N215=1.6330     Cl48-Fe47=2.3136     C49-C26=1.5092       
C49-C50=1.4205       C49-C51=1.4231       C50-C49=1.4205       C50-C52=1.4094       C50-N53=1.4191       C51-C49=1.4231       
C51-C54=1.4116       C51-N55=1.4151       C52-C50=1.4094       C52-H56=1.0933       C52-C57=1.3982       N53-C50=1.4191       
N53-C58=1.3767       N53-H59=1.0215       C54-C51=1.4116       C54-C57=1.3974       C54-H60=1.0929       N55-C51=1.4151       
N55-C61=1.3812       N55-H62=1.0244       H56-C52=1.0933       C57-C52=1.3982       C57-C54=1.3974       C57-H63=1.0977       
C58-N53=1.3767       C58-O64=1.2261       C58-C65=1.5145       H59-N53=1.0215       H60-C54=1.0929       C61-N55=1.3812       
C61-O66=1.2272       C61-C67=1.5099       H62-N55=1.0244       H63-C57=1.0977       O64-C58=1.2261       C65-C58=1.5145       
C65-C68=1.5075       C65-H69=1.0954       C65-C70=1.5334       O66-C61=1.2272       C67-C61=1.5099       C67-C71=1.5084       
C67-H72=1.0961       C67-C73=1.5347       C68-C65=1.5075       C68-C70=1.5096       C68-H74=1.0927       C68-H75=1.0919       
H69-C65=1.0954       C70-C65=1.5334       C70-C68=1.5096       C70-H76=1.0928       C70-C77=1.4956       C71-C67=1.5084       
C71-C73=1.5103       C71-H78=1.0937       C71-H79=1.0935       H72-C67=1.0961       C73-C67=1.5347       C73-C71=1.5103       
C73-H80=1.0945       C73-C81=1.4918       H74-C68=1.0927       H75-C68=1.0919       H76-C70=1.0928       C77-C70=1.4956       
C77-O82=1.3440       C77-O83=1.2162       H78-C71=1.0937       H79-C71=1.0935       H80-C73=1.0945       C81-C73=1.4918       
C81-O84=1.3514       C81-O85=1.2146       O82-C77=1.3440       O82-C86=1.4587       O83-C77=1.2162       O84-C81=1.3514       
O84-C87=1.4553       O85-C81=1.2146       C86-O82=1.4587       C86-C88=1.5350       C86-C89=1.5279       C86-H90=1.1047       
C87-O84=1.4553       C87-C91=1.5295       C87-C92=1.5328       C87-H93=1.1066       C88-C86=1.5350       C88-H94=1.1024       
C88-H95=1.0981       C88-H96=1.0987       C89-C86=1.5279       C89-H97=1.0976       C89-H98=1.0982       C89-H99=1.0975       
H90-C86=1.1047       C91-C87=1.5295       C91-H100=1.0977      C91-H101=1.1004      C91-H102=1.0987      C92-C87=1.5328       
C92-H103=1.0985      C92-H104=1.0989      C92-H105=1.1007      H93-C87=1.1066       H94-C88=1.1024       H95-C88=1.0981       
H96-C88=1.0987       H97-C89=1.0976       H98-C89=1.0982       H99-C89=1.0975       H100-C91=1.0977      H101-C91=1.1004      
H102-C91=1.0987      H103-C92=1.0985      H104-C92=1.0989      H105-C92=1.1007      C106-C3=1.5083       C106-C107=1.4213     
C106-C108=1.4221     C107-C106=1.4213     C107-C109=1.4090     C107-N110=1.4181     C108-C106=1.4221     C108-C111=1.4111     
C108-N112=1.4145     C109-C107=1.4090     C109-H113=1.0938     C109-C114=1.3990     N110-C107=1.4181     N110-C115=1.3782     
N110-H116=1.0215     C111-C108=1.4111     C111-C114=1.3981     C111-H117=1.0933     N112-C108=1.4145     N112-C118=1.3805     
N112-H119=1.0236     H113-C109=1.0938     C114-C109=1.3990     C114-C111=1.3981     C114-H120=1.0978     C115-N110=1.3782     
C115-O121=1.2254     C115-C122=1.5138     H116-N110=1.0215     H117-C111=1.0933     C118-N112=1.3805     C118-O123=1.2270     
C118-C124=1.5094     H119-N112=1.0236     H120-C114=1.0978     O121-C115=1.2254     C122-C115=1.5138     C122-C125=1.5086     
C122-H126=1.0949     C122-C127=1.5289     O123-C118=1.2270     C124-C118=1.5094     C124-C128=1.5071     C124-H129=1.0964     
C124-C130=1.5364     C125-C122=1.5086     C125-C127=1.5109     C125-H131=1.0931     C125-H132=1.0926     H126-C122=1.0949     
C127-C122=1.5289     C127-C125=1.5109     C127-H133=1.0932     C127-C134=1.4961     C128-C124=1.5071     C128-C130=1.5095     
C128-H135=1.0932     C128-H136=1.0933     H129-C124=1.0964     C130-C124=1.5364     C130-C128=1.5095     C130-H137=1.0943     
C130-C138=1.4928     H131-C125=1.0931     H132-C125=1.0926     H133-C127=1.0932     C134-C127=1.4961     C134-O139=1.3431     
C134-O140=1.2174     H135-C128=1.0932     H136-C128=1.0933     H137-C130=1.0943     C138-C130=1.4928     C138-O141=1.3505     
C138-O142=1.2146     O139-C134=1.3431     O139-C143=1.4578     O140-C134=1.2174     O141-C138=1.3505     O141-C144=1.4558     
O142-C138=1.2146     C143-O139=1.4578     C143-C145=1.5295     C143-C146=1.5314     C143-H147=1.1068     C144-O141=1.4558     
C144-C148=1.5341     C144-C149=1.5283     C144-H150=1.1052     C145-C143=1.5295     C145-H151=1.0978     C145-H152=1.1006     
C145-H153=1.0985     C146-C143=1.5314     C146-H154=1.0975     C146-H155=1.0987     C146-H156=1.1009     H147-C143=1.1068     
C148-C144=1.5341     C148-H157=1.1021     C148-H158=1.0988     C148-H159=1.0989     C149-C144=1.5283     C149-H160=1.0991     
C149-H161=1.0983     C149-H162=1.0979     H150-C144=1.1052     H151-C145=1.0978     H152-C145=1.1006     H153-C145=1.0985     
H154-C146=1.0975     H155-C146=1.0987     H156-C146=1.1009     H157-C148=1.1021     H158-C148=1.0988     H159-C148=1.0989     
H160-C149=1.0991     H161-C149=1.0983     H162-C149=1.0979     H163-C19=1.0963      H164-C22=1.0961      H165-C42=1.0961      
H166-C45=1.0964      O167-C18=1.3768      O167-C171=1.3948     O168-C23=1.3752      O168-C182=1.3911     O169-C41=1.3774      
O169-C193=1.3873     O170-C46=1.3756      O170-C204=1.3900     C171-O167=1.3948     C171-C172=1.4015     C171-C173=1.4012     
C172-C171=1.4015     C172-C174=1.4012     C172-H175=1.0948     C173-C171=1.4012     C173-C176=1.4011     C173-H177=1.0950     
C174-C172=1.4012     C174-C178=1.4007     C174-H179=1.0963     H175-C172=1.0948     C176-C173=1.4011     C176-C178=1.4010     
C176-H180=1.0958     H177-C173=1.0950     C178-C174=1.4007     C178-C176=1.4010     C178-H181=1.0982     H179-C174=1.0963     
H180-C176=1.0958     H181-C178=1.0982     C182-O168=1.3911     C182-C183=1.4024     C182-C184=1.4017     C183-C182=1.4024     
C183-C185=1.4002     C183-H186=1.0953     C184-C182=1.4017     C184-C187=1.4004     C184-H188=1.0948     C185-C183=1.4002     
C185-C189=1.4008     C185-H190=1.0956     H186-C183=1.0953     C187-C184=1.4004     C187-C189=1.4006     C187-H191=1.0954     
H188-C184=1.0948     C189-C185=1.4008     C189-C187=1.4006     C189-H192=1.0980     H190-C185=1.0956     H191-C187=1.0954     
H192-C189=1.0980     C193-O169=1.3873     C193-C194=1.4042     C193-C195=1.4044     C194-C193=1.4042     C194-C196=1.4009     
C194-H197=1.0956     C195-C193=1.4044     C195-C198=1.3982     C195-H199=1.0947     C196-C194=1.4009     C196-C200=1.4010     
C196-H201=1.0974     H197-C194=1.0956     C198-C195=1.3982     C198-C200=1.4021     C198-H202=1.0957     H199-C195=1.0947     
C200-C196=1.4010     C200-C198=1.4021     C200-H203=1.0979     H201-C196=1.0974     H202-C198=1.0957     H203-C200=1.0979     
C204-O170=1.3900     C204-C205=1.4024     C204-C206=1.4024     C205-C204=1.4024     C205-C207=1.4003     C205-H208=1.0951     
C206-C204=1.4024     C206-C209=1.4003     C206-H210=1.0946     C207-C205=1.4003     C207-C211=1.4007     C207-H212=1.0954     
H208-C205=1.0951     C209-C206=1.4003     C209-C211=1.4005     C209-H213=1.0953     H210-C206=1.0946     C211-C207=1.4007     
C211-C209=1.4005     C211-H214=1.0981     H212-C207=1.0954     H213-C209=1.0953     H214-C211=1.0981     N215-Fe47=1.6330     
N215-C216=1.2941     C216-N215=1.2941     C216-C217=1.4264     C216-C221=1.4324     C217-C216=1.4264     C217-C218=1.3702     
C217-H227=1.0777     C218-C217=1.3702     C218-C219=1.3896     C218-H228=1.0800     C219-C218=1.3896     C219-C220=1.3885     
C219-H229=1.0775     C220-C219=1.3885     C220-C221=1.3775     C220-H230=1.0779     C221-C216=1.4324     C221-C220=1.3775     
C221-C222=1.5019     C222-C221=1.5019     C222-C223=1.5383     C222-C226=1.5327     C222-H231=1.0959     C223-C222=1.5383     
C223-C224=1.5246     C223-H232=1.0908     C223-H233=1.0882     C224-C223=1.5246     C224-C225=1.5313     C224-H234=1.0902     
C224-H235=1.0864     C225-C224=1.5313     C225-C226=1.5399     C225-H236=1.0906     C225-H237=1.0896     C226-C222=1.5327     
C226-C225=1.5399     C226-H238=1.0909     C226-H239=1.0866     H227-C217=1.0777     H228-C218=1.0800     H229-C219=1.0775     
H230-C220=1.0779     H231-C222=1.0959     H232-C223=1.0908     H233-C223=1.0882     H234-C224=1.0902     H235-C224=1.0864     
H236-C225=1.0906     H237-C225=1.0896     H238-C226=1.0909     H239-C226=1.0866     
 C  H  Rav=1.0950 sigma=0.0052  Rmin=1.0775  Rmax=1.1068    97
 C  C  Rav=1.4450 sigma=0.0551  Rmin=1.3655  Rmax=1.5399   112
 N  H  Rav=1.0228 sigma=0.0013  Rmin=1.0215  Rmax=1.0244     4
 N  C  Rav=1.3801 sigma=0.0279  Rmin=1.2941  Rmax=1.4191    17
 O  C  Rav=1.3355 sigma=0.0874  Rmin=1.2146  Rmax=1.4587    24
 Fe N  Rav=1.9449 sigma=0.1560  Rmin=1.6330  Rmax=2.0290     5
 Fe Cl Rav=2.3136 sigma=0.0000  Rmin=2.3136  Rmax=2.3136     1

 selected bond angles (degree)
 --------------------
C9-N1-C4=106.95                Fe47-N1-C4=126.41              Fe47-N1-C9=126.63              C16-N2-C11=107.13              
Fe47-N2-C11=126.65             Fe47-N2-C16=126.20             C39-C3-C4=123.16               C106-C3-C4=117.36              
C106-C3-C39=119.47             C3-C4-N1=126.25                C5-C4-N1=109.75                C5-C4-C3=123.95                
H6-C5-C4=124.63                C7-C5-C4=106.75                C7-C5-H6=128.61                H8-C7-C5=128.37                
C9-C7-C5=106.93                C9-C7-H8=124.68                C7-C9-N1=109.56                C10-C9-N1=126.21               
C10-C9-C7=124.05               C11-C10-C9=122.75              C17-C10-C9=118.75              C17-C10-C11=118.28             

 selected dihedral angles (degree)
 ---------------------------------
C3-C4-N1-C9=182.24            C3-C4-N1-Fe47=  1.29          C5-C4-N1-C9=359.77            C5-C4-N1-Fe47=178.82          
N1-C4-C3-C39=  6.35           N1-C4-C3-C106=186.31          C5-C4-C3-C39=189.15           C5-C4-C3-C106=  9.11          
H6-C5-C4-N1=179.49            H6-C5-C4-C3=357.08            C7-C5-C4-N1=358.71            C7-C5-C4-C3=176.31            
H8-C7-C5-C4=180.68            H8-C7-C5-H6=359.86            C9-C7-C5-C4=  2.18            C9-C7-C5-H6=181.37            
C7-C9-N1-C4=  1.60            C7-C9-N1-Fe47=182.56          C10-C9-N1-C4=186.40           C10-C9-N1-Fe47=  7.35         
N1-C9-C7-C5=357.57            N1-C9-C7-H8=179.00            C10-C9-C7-C5=172.90           C10-C9-C7-H8=354.33           
C11-C10-C9-N1=  5.50          C11-C10-C9-C7=190.95          C17-C10-C9-N1=179.93          C17-C10-C9-C7=  5.38          
           -------------------------------------------------
          |                Final Singlepoint                |
           -------------------------------------------------

          ...................................................
          :                      SETUP                      :
          :.................................................:
          :  # basis functions                 665          :
          :  # atomic orbitals                 663          :
          :  # shells                          379          :
          :  # electrons                       701          :
          :  max. iterations                   250          :
          :  Hamiltonian                  GFN2-xTB          :
          :  restarted?                      false          :
          :  GBSA solvation                   true          :
          :  PC potential                    false          :
          :  electronic temp.          300.0000000     K    :
          :  accuracy                    1.0000000          :
          :  -> integral cutoff          0.2500000E+02      :
          :  -> integral neglect         0.1000000E-07      :
          :  -> SCF convergence          0.1000000E-05 Eh   :
          :  -> wf. convergence          0.1000000E-03 e    :
          :  Broyden damping             0.4000000          :
          :  net charge                          0          :
          :  unpaired electrons                  0          :
          ...................................................

 iter      E             dE          RMSdq      gap      omega  full diag
   1   -393.8756651 -0.393876E+03  0.359E-05    0.10       0.0  T
   2   -393.8756651  0.118234E-09  0.401E-05    0.10     161.5  T
   3   -393.8756651 -0.219302E-09  0.189E-05    0.10     342.8  T

   *** convergence criteria satisfied after 3 iterations ***

         #    Occupation            Energy/Eh            Energy/eV
      -------------------------------------------------------------
         1        2.0000           -1.0133550             -27.5748
       ...           ...                  ...                  ...
       345        2.0000           -0.3793497             -10.3226
       346        2.0000           -0.3785716             -10.3015
       347        2.0000           -0.3766604             -10.2495
       348        2.0000           -0.3742960             -10.1851
       349        2.0000           -0.3723748             -10.1328
       350        2.0000           -0.3604638              -9.8087
       351        0.8782           -0.3286080              -8.9419 (HOMO)
       352        0.1218           -0.3248550              -8.8398 (LUMO)
       353                         -0.3045537              -8.2873
       354                         -0.3022587              -8.2249
       355                         -0.2664099              -7.2494
       356                         -0.2609815              -7.1017
       ...                                ...                  ...
       663                          1.5495427              42.1652
      -------------------------------------------------------------
                  HL-Gap            0.0037530 Eh            0.1021 eV
             Fermi-level           -0.3356382 Eh           -9.1332 eV

 SCC (total)                   0 d,  0 h,  0 min,  0.560 sec
 SCC setup                      ...        0 min,  0.004 sec (  0.716%)
 Dispersion                     ...        0 min,  0.004 sec (  0.644%)
 classical contributions        ...        0 min,  0.001 sec (  0.137%)
 integral evaluation            ...        0 min,  0.023 sec (  4.161%)
 iterations                     ...        0 min,  0.203 sec ( 36.222%)
 molecular gradient             ...        0 min,  0.306 sec ( 54.701%)
 printout                       ...        0 min,  0.019 sec (  3.416%)

         :::::::::::::::::::::::::::::::::::::::::::::::::::::
         ::                     SUMMARY                     ::
         :::::::::::::::::::::::::::::::::::::::::::::::::::::
         :: total energy            -388.649940010993 Eh    ::
         :: total w/o Gsasa/hb      -388.540787570632 Eh    ::
         :: gradient norm              0.000430488639 Eh/a0 ::
         :: HOMO-LUMO gap              0.102124579348 eV    ::
         ::.................................................::
         :: SCC energy              -393.853192388204 Eh    ::
         :: -> isotropic ES            0.493624279576 Eh    ::
         :: -> anisotropic ES          0.003676664543 Eh    ::
         :: -> anisotropic XC          0.158476337711 Eh    ::
         :: -> dispersion             -0.343009681710 Eh    ::
         :: -> Gsolv                  -0.154524048417 Eh    ::
         ::    -> Gelec               -0.045371608056 Eh    ::
         ::    -> Gsasa               -0.107962916913 Eh    ::
         ::    -> Ghb                 -0.006142961025 Eh    ::
         ::    -> Gshift               0.004953437577 Eh    ::
         :: repulsion energy           5.192582766410 Eh    ::
         :: add. restraining           0.010669610801 Eh    ::
         :: total charge              -0.000000000140 e     ::
         :::::::::::::::::::::::::::::::::::::::::::::::::::::

           -------------------------------------------------
          |                Property Printout                |
           -------------------------------------------------

    * Orbital Energies and Occupations

         #    Occupation            Energy/Eh            Energy/eV
      -------------------------------------------------------------
         1        2.0000           -1.0133550             -27.5748
       ...           ...                  ...                  ...
       339        2.0000           -0.3882027             -10.5635
       340        2.0000           -0.3864947             -10.5171
       341        2.0000           -0.3854489             -10.4886
       342        2.0000           -0.3827929             -10.4163
       343        2.0000           -0.3819680             -10.3939
       344        2.0000           -0.3805284             -10.3547
       345        2.0000           -0.3793497             -10.3226
       346        2.0000           -0.3785716             -10.3015
       347        2.0000           -0.3766604             -10.2495
       348        2.0000           -0.3742960             -10.1851
       349        2.0000           -0.3723748             -10.1328
       350        2.0000           -0.3604638              -9.8087
       351        0.8782           -0.3286080              -8.9419 (HOMO)
       352        0.1218           -0.3248550              -8.8398 (LUMO)
       353                         -0.3045537              -8.2873
       354                         -0.3022587              -8.2249
       355                         -0.2664099              -7.2494
       356                         -0.2609815              -7.1017
       357                         -0.2591070              -7.0507
       358                         -0.2589450              -7.0463
       359                         -0.2529533              -6.8832
       360                         -0.2515559              -6.8452
       361                         -0.2417016              -6.5770
       362                         -0.2401337              -6.5344
       ...                                ...                  ...
       663                          1.5495427              42.1652
      -------------------------------------------------------------
                  HL-Gap            0.0037530 Eh            0.1021 eV
             Fermi-level           -0.3356382 Eh           -9.1332 eV

     #   Z          covCN         q      C6AA      α(0)
     1   7 N        2.613    -0.206    25.485     7.498
     2   7 N        2.616    -0.207    25.517     7.502
     3   6 C        2.949    -0.019    28.492     8.755
     4   6 C        3.093     0.072    26.276     8.401
     5   6 C        2.988    -0.049    29.210     8.866
     6   1 H        0.924     0.043     2.403     2.424
     7   6 C        2.990    -0.041    28.998     8.833
     8   1 H        0.924     0.039     2.456     2.451
     9   6 C        3.092     0.081    26.101     8.374
    10   6 C        2.949     0.012    27.758     8.641
    11   6 C        3.092     0.080    26.115     8.376
    12   6 C        2.991    -0.043    29.047     8.841
    13   1 H        0.924     0.036     2.508     2.477
    14   6 C        2.988    -0.051    29.248     8.871
    15   1 H        0.924     0.042     2.417     2.431
    16   6 C        3.093     0.071    26.303     8.406
    17   6 C        2.960    -0.031    28.773     8.798
    18   6 C        2.855     0.142    24.901     8.179
    19   6 C        2.902    -0.074    29.838     8.956
    20   6 C        2.909    -0.035    28.872     8.811
    21   1 H        0.923     0.054     2.266     2.354
    22   6 C        2.902    -0.073    29.809     8.952
    23   6 C        2.853     0.142    24.898     8.178
    24   7 N        2.620    -0.200    25.365     7.480
    25   7 N        2.620    -0.212    25.632     7.519
    26   6 C        2.949    -0.018    28.453     8.749
    27   6 C        3.089     0.071    26.307     8.407
    28   6 C        2.991    -0.051    29.268     8.874
    29   1 H        0.924     0.043     2.406     2.425
    30   6 C        2.990    -0.042    29.043     8.840
    31   1 H        0.924     0.039     2.456     2.451
    32   6 C        3.091     0.079    26.140     8.380
    33   6 C        2.950     0.010    27.805     8.649
    34   6 C        3.095     0.079    26.124     8.377
    35   6 C        2.991    -0.043    29.054     8.842
    36   1 H        0.924     0.035     2.516     2.480
    37   6 C        2.989    -0.053    29.302     8.880
    38   1 H        0.924     0.042     2.419     2.432
    39   6 C        3.093     0.069    26.340     8.412
    40   6 C        2.961    -0.029    28.722     8.791
    41   6 C        2.849     0.140    24.940     8.185
    42   6 C        2.902    -0.070    29.737     8.941
    43   6 C        2.909    -0.035    28.877     8.812
    44   1 H        0.923     0.057     2.233     2.337
    45   6 C        2.902    -0.070    29.752     8.944
    46   6 C        2.851     0.142    24.902     8.179
    47  26 Fe       4.579     0.837     4.991     7.207
    48  17 Cl       0.750    -0.562   117.803    16.602
    49   6 C        2.966    -0.027    28.679     8.784
    50   6 C        2.893     0.072    26.400     8.424
    51   6 C        2.893     0.076    26.311     8.410
    52   6 C        2.903    -0.055    29.369     8.886
    53   7 N        2.688    -0.159    24.438     7.342
    54   6 C        2.904    -0.054    29.342     8.882
    55   7 N        2.688    -0.160    24.470     7.347
    56   1 H        0.924     0.077     2.013     2.219
    57   6 C        2.908    -0.031    28.785     8.797
    58   6 C        2.746     0.276    22.330     7.738
    59   1 H        0.860     0.194     1.136     1.670
    60   1 H        0.924     0.079     1.994     2.208
    61   6 C        2.747     0.278    22.295     7.731
    62   1 H        0.859     0.198     1.115     1.654
    63   1 H        0.924     0.053     2.277     2.360
    64   8 O        0.857    -0.459    22.891     6.415
    65   6 C        3.856    -0.041    21.261     6.558
    66   8 O        0.857    -0.461    22.928     6.420
    67   6 C        3.856    -0.038    21.216     6.551
    68   6 C        3.803    -0.052    21.515     6.604
    69   1 H        0.924     0.059     2.217     2.328
    70   6 C        3.855    -0.042    21.291     6.562
    71   6 C        3.802    -0.049    21.448     6.593
    72   1 H        0.924     0.067     2.118     2.276
    73   6 C        3.855    -0.041    21.276     6.560
    74   1 H        0.924     0.079     1.988     2.205
    75   1 H        0.924     0.073     2.049     2.238
    76   1 H        0.924     0.083     1.946     2.182
    77   6 C        2.702     0.358    20.927     7.487
    78   1 H        0.924     0.073     2.050     2.239
    79   1 H        0.924     0.087     1.909     2.161
    80   1 H        0.924     0.081     1.972     2.196
    81   6 C        2.703     0.358    20.917     7.486
    82   8 O        1.700    -0.290    18.813     5.856
    83   8 O        0.856    -0.457    22.856     6.410
    84   8 O        1.700    -0.295    18.902     5.870
    85   8 O        0.856    -0.454    22.783     6.399
    86   6 C        3.729     0.118    18.744     6.180
    87   6 C        3.730     0.122    18.687     6.171
    88   6 C        3.745    -0.118    22.834     6.816
    89   6 C        3.747    -0.124    22.957     6.834
    90   1 H        0.923     0.053     2.283     2.363
    91   6 C        3.747    -0.122    22.908     6.827
    92   6 C        3.746    -0.119    22.843     6.818
    93   1 H        0.922     0.045     2.386     2.416
    94   1 H        0.923     0.047     2.363     2.404
    95   1 H        0.923     0.060     2.198     2.319
    96   1 H        0.923     0.062     2.181     2.310
    97   1 H        0.924     0.057     2.237     2.339
    98   1 H        0.923     0.063     2.165     2.301
    99   1 H        0.924     0.064     2.149     2.293
   100   1 H        0.924     0.055     2.254     2.348
   101   1 H        0.923     0.065     2.146     2.291
   102   1 H        0.923     0.061     2.182     2.310
   103   1 H        0.923     0.049     2.329     2.387
   104   1 H        0.923     0.060     2.197     2.318
   105   1 H        0.923     0.058     2.220     2.330
   106   6 C        2.967    -0.028    28.695     8.787
   107   6 C        2.893     0.072    26.393     8.423
   108   6 C        2.894     0.075    26.315     8.411
   109   6 C        2.903    -0.055    29.363     8.885
   110   7 N        2.689    -0.161    24.487     7.349
   111   6 C        2.903    -0.054    29.340     8.881
   112   7 N        2.689    -0.161    24.479     7.348
   113   1 H        0.924     0.076     2.017     2.221
   114   6 C        2.908    -0.031    28.781     8.797
   115   6 C        2.746     0.276    22.326     7.737
   116   1 H        0.860     0.195     1.134     1.668
   117   1 H        0.924     0.077     2.009     2.217
   118   6 C        2.746     0.278    22.299     7.732
   119   1 H        0.859     0.197     1.121     1.658
   120   1 H        0.924     0.054     2.276     2.359
   121   8 O        0.857    -0.457    22.863     6.411
   122   6 C        3.857    -0.041    21.271     6.559
   123   8 O        0.857    -0.460    22.916     6.418
   124   6 C        3.856    -0.038    21.211     6.550
   125   6 C        3.803    -0.051    21.482     6.599
   126   1 H        0.924     0.061     2.185     2.312
   127   6 C        3.855    -0.042    21.281     6.561
   128   6 C        3.803    -0.049    21.454     6.594
   129   1 H        0.924     0.064     2.149     2.292
   130   6 C        3.855    -0.041    21.268     6.559
   131   1 H        0.924     0.077     2.007     2.215
   132   1 H        0.924     0.070     2.087     2.259
   133   1 H        0.924     0.082     1.954     2.186
   134   6 C        2.703     0.359    20.914     7.485
   135   1 H        0.924     0.075     2.032     2.229
   136   1 H        0.924     0.086     1.916     2.165
   137   1 H        0.924     0.080     1.981     2.201
   138   6 C        2.703     0.358    20.919     7.486
   139   8 O        1.700    -0.287    18.767     5.849
   140   8 O        0.856    -0.454    22.800     6.402
   141   8 O        1.700    -0.294    18.892     5.868
   142   8 O        0.856    -0.453    22.778     6.399
   143   6 C        3.730     0.121    18.696     6.172
   144   6 C        3.731     0.120    18.706     6.174
   145   6 C        3.747    -0.124    22.954     6.834
   146   6 C        3.746    -0.120    22.864     6.821
   147   1 H        0.922     0.048     2.344     2.394
   148   6 C        3.745    -0.117    22.816     6.814
   149   6 C        3.747    -0.124    22.949     6.833
   150   1 H        0.922     0.048     2.341     2.393
   151   1 H        0.924     0.057     2.233     2.337
   152   1 H        0.923     0.064     2.153     2.295
   153   1 H        0.923     0.063     2.159     2.298
   154   1 H        0.924     0.051     2.311     2.377
   155   1 H        0.923     0.061     2.188     2.313
   156   1 H        0.923     0.059     2.214     2.327
   157   1 H        0.923     0.048     2.348     2.396
   158   1 H        0.923     0.058     2.226     2.333
   159   1 H        0.923     0.059     2.208     2.324
   160   1 H        0.923     0.057     2.230     2.335
   161   1 H        0.923     0.062     2.170     2.304
   162   1 H        0.923     0.064     2.151     2.294
   163   1 H        0.924     0.047     2.363     2.404
   164   1 H        0.924     0.047     2.357     2.401
   165   1 H        0.924     0.053     2.281     2.362
   166   1 H        0.924     0.050     2.321     2.382
   167   8 O        1.706    -0.292    18.853     5.862
   168   8 O        1.706    -0.290    18.818     5.857
   169   8 O        1.707    -0.286    18.744     5.845
   170   8 O        1.706    -0.288    18.779     5.851
   171   6 C        2.853     0.138    24.987     8.193
   172   6 C        2.906    -0.046    29.131     8.850
   173   6 C        2.906    -0.047    29.177     8.857
   174   6 C        2.909    -0.032    28.786     8.798
   175   1 H        0.924     0.052     2.296     2.370
   176   6 C        2.909    -0.031    28.772     8.795
   177   1 H        0.924     0.050     2.325     2.384
   178   6 C        2.905    -0.035    28.873     8.811
   179   1 H        0.924     0.050     2.323     2.383
   180   1 H        0.924     0.051     2.310     2.377
   181   1 H        0.923     0.050     2.316     2.380
   182   6 C        2.851     0.139    24.972     8.190
   183   6 C        2.905    -0.050    29.238     8.866
   184   6 C        2.906    -0.047    29.165     8.855
   185   6 C        2.909    -0.032    28.794     8.799
   186   1 H        0.924     0.043     2.413     2.429
   187   6 C        2.909    -0.030    28.750     8.792
   188   1 H        0.924     0.051     2.305     2.374
   189   6 C        2.905    -0.037    28.908     8.816
   190   1 H        0.924     0.048     2.345     2.395
   191   1 H        0.924     0.051     2.307     2.375
   192   1 H        0.923     0.048     2.342     2.393
   193   6 C        2.846     0.137    25.009     8.196
   194   6 C        2.905    -0.055    29.359     8.885
   195   6 C        2.907    -0.046    29.133     8.850
   196   6 C        2.909    -0.032    28.789     8.798
   197   1 H        0.924     0.040     2.443     2.444
   198   6 C        2.908    -0.027    28.665     8.779
   199   1 H        0.924     0.046     2.377     2.411
   200   6 C        2.905    -0.038    28.953     8.823
   201   1 H        0.924     0.046     2.376     2.411
   202   1 H        0.924     0.054     2.267     2.354
   203   1 H        0.924     0.046     2.366     2.405
   204   6 C        2.850     0.138    24.982     8.192
   205   6 C        2.905    -0.051    29.264     8.870
   206   6 C        2.906    -0.049    29.209     8.862
   207   6 C        2.910    -0.032    28.802     8.800
   208   1 H        0.924     0.042     2.427     2.437
   209   6 C        2.909    -0.030    28.759     8.794
   210   1 H        0.924     0.052     2.300     2.372
   211   6 C        2.905    -0.037    28.925     8.819
   212   1 H        0.924     0.049     2.331     2.388
   213   1 H        0.924     0.051     2.313     2.379
   214   1 H        0.923     0.049     2.338     2.391
   215   7 N        1.742    -0.296    28.442     7.893
   216   6 C        2.907     0.112    25.536     8.286
   217   6 C        2.922    -0.039    28.966     8.826
   218   6 C        2.913    -0.027    28.666     8.780
   219   6 C        2.917    -0.031    28.780     8.797
   220   6 C        2.917    -0.033    28.823     8.804
   221   6 C        2.974     0.010    27.789     8.647
   222   6 C        3.879    -0.013    20.761     6.478
   223   6 C        3.836    -0.047    21.390     6.580
   224   6 C        3.825    -0.062    21.669     6.624
   225   6 C        3.819    -0.053    21.513     6.601
   226   6 C        3.824    -0.062    21.681     6.626
   227   1 H        0.926     0.032     2.560     2.502
   228   1 H        0.926     0.045     2.382     2.414
   229   1 H        0.926     0.047     2.359     2.402
   230   1 H        0.926     0.065     2.136     2.286
   231   1 H        0.924     0.033     2.545     2.495
   232   1 H        0.924     0.035     2.519     2.482
   233   1 H        0.925     0.030     2.586     2.515
   234   1 H        0.925     0.036     2.500     2.472
   235   1 H        0.925     0.038     2.477     2.461
   236   1 H        0.924     0.030     2.584     2.514
   237   1 H        0.925     0.029     2.606     2.524
   238   1 H        0.924     0.025     2.654     2.548
   239   1 H        0.925     0.050     2.317     2.380

 Mol. C6AA /au·bohr⁶  :     709264.583350
 Mol. C8AA /au·bohr⁸  :   17362804.688094
 Mol. α(0) /au        :       1318.477178


Wiberg/Mayer (AO) data.
largest (>0.10) Wiberg bond orders for each atom

 ---------------------------------------------------------------------------
     #   Z sym  total        # sym  WBO       # sym  WBO       # sym  WBO
 ---------------------------------------------------------------------------
     1   7 N    3.446 --     4 C    1.245     9 C    1.240    47 Fe   0.604
     2   7 N    3.438 --    11 C    1.253    16 C    1.247    47 Fe   0.578
     3   6 C    3.930 --    39 C    1.308     4 C    1.302   106 C    1.001
     4   6 C    3.928 --     3 C    1.302     1 N    1.245     5 C    1.170
     5   6 C    3.952 --     7 C    1.647     4 C    1.170     6 H    0.969
     6   1 H    0.997 --     5 C    0.969
     7   6 C    3.954 --     5 C    1.647     9 C    1.171     8 H    0.970
     8   1 H    0.998 --     7 C    0.970
     9   6 C    3.925 --    10 C    1.315     1 N    1.240     7 C    1.171
    10   6 C    3.934 --     9 C    1.315    11 C    1.312    17 C    1.004
    11   6 C    3.925 --    10 C    1.312     2 N    1.253    12 C    1.162
    12   6 C    3.954 --    14 C    1.660    11 C    1.162    13 H    0.970
    13   1 H    0.998 --    12 C    0.970
    14   6 C    3.953 --    12 C    1.660    16 C    1.161    15 H    0.970
    15   1 H    0.997 --    14 C    0.970
    16   6 C    3.928 --    26 C    1.312     2 N    1.247    14 C    1.161
    17   6 C    3.973 --    18 C    1.338    23 C    1.338    10 C    1.004
                            20 C    0.101
    18   6 C    3.921 --    19 C    1.364    17 C    1.338   167 O    1.035
    19   6 C    3.977 --    20 C    1.438    18 C    1.364   163 H    0.964
    20   6 C    3.986 --    22 C    1.442    19 C    1.438    21 H    0.968
                            17 C    0.101
    21   1 H    0.996 --    20 C    0.968
    22   6 C    3.979 --    20 C    1.442    23 C    1.362   164 H    0.964
    23   6 C    3.919 --    22 C    1.362    17 C    1.338   168 O    1.036
    24   7 N    3.454 --    27 C    1.246    32 C    1.244    47 Fe   0.586
    25   7 N    3.435 --    34 C    1.248    39 C    1.245    47 Fe   0.582
    26   6 C    3.925 --    16 C    1.312    27 C    1.298    49 C    0.997
    27   6 C    3.928 --    26 C    1.298    24 N    1.246    28 C    1.171
    28   6 C    3.954 --    30 C    1.646    27 C    1.171    29 H    0.969
    29   1 H    0.997 --    28 C    0.969
    30   6 C    3.955 --    28 C    1.646    32 C    1.173    31 H    0.970
    31   1 H    0.998 --    30 C    0.970
    32   6 C    3.927 --    33 C    1.309    24 N    1.244    30 C    1.173
    33   6 C    3.933 --    34 C    1.315    32 C    1.309    40 C    1.005
    34   6 C    3.926 --    33 C    1.315    25 N    1.248    35 C    1.165
    35   6 C    3.954 --    37 C    1.656    34 C    1.165    36 H    0.970
    36   1 H    0.998 --    35 C    0.970
    37   6 C    3.952 --    35 C    1.656    39 C    1.163    38 H    0.969
    38   1 H    0.997 --    37 C    0.969
    39   6 C    3.929 --     3 C    1.308    25 N    1.245    37 C    1.163
    40   6 C    3.972 --    46 C    1.340    41 C    1.338    33 C    1.005
    41   6 C    3.921 --    42 C    1.367    40 C    1.338   169 O    1.032
    42   6 C    3.977 --    43 C    1.439    41 C    1.367   165 H    0.964
    43   6 C    3.985 --    45 C    1.441    42 C    1.439    44 H    0.968
    44   1 H    0.996 --    43 C    0.968
    45   6 C    3.976 --    43 C    1.441    46 C    1.364   166 H    0.964
    46   6 C    3.920 --    45 C    1.364    40 C    1.340   170 O    1.035
    47  26 Fe   5.211 --   215 N    1.561     1 N    0.604    48 Cl   0.594
                            24 N    0.586    25 N    0.582     2 N    0.578
                           217 C    0.108   221 C    0.105
    48  17 Cl   0.748 --    47 Fe   0.594
    49   6 C    3.971 --    50 C    1.348    51 C    1.339    26 C    0.997
    50   6 C    3.950 --    52 C    1.370    49 C    1.348    53 N    1.064
    51   6 C    3.950 --    54 C    1.365    49 C    1.339    55 N    1.076
    52   6 C    3.978 --    57 C    1.439    50 C    1.370    56 H    0.958
    53   7 N    3.499 --    58 C    1.215    50 C    1.064    59 H    0.922
                            64 O    0.167
    54   6 C    3.969 --    57 C    1.444    51 C    1.365    60 H    0.956
    55   7 N    3.500 --    61 C    1.205    51 C    1.076    62 H    0.918
                            66 O    0.160
    56   1 H    0.992 --    52 C    0.958
    57   6 C    3.987 --    54 C    1.444    52 C    1.439    63 H    0.968
    58   6 C    3.950 --    64 O    1.659    53 N    1.215    65 C    0.991
    59   1 H    0.962 --    53 N    0.922
    60   1 H    0.992 --    54 C    0.956
    61   6 C    3.948 --    66 O    1.658    55 N    1.205    67 C    0.999
    62   1 H    0.960 --    55 N    0.918
    63   1 H    0.996 --    57 C    0.968
    64   8 O    1.982 --    58 C    1.659    53 N    0.167
    65   6 C    3.940 --    58 C    0.991    69 H    0.966    68 C    0.958
                            70 C    0.893
    66   8 O    1.987 --    61 C    1.658    55 N    0.160
    67   6 C    3.939 --    61 C    0.999    72 H    0.964    71 C    0.956
                            73 C    0.886
    68   6 C    3.937 --    75 H    0.974    74 H    0.973    65 C    0.958
                            70 C    0.945
    69   1 H    0.997 --    65 C    0.966
    70   6 C    3.937 --    77 C    1.006    76 H    0.964    68 C    0.945
                            65 C    0.893
    71   6 C    3.936 --    78 H    0.974    79 H    0.968    67 C    0.956
                            73 C    0.943
    72   1 H    0.995 --    67 C    0.964
    73   6 C    3.937 --    81 C    1.013    80 H    0.963    71 C    0.943
                            67 C    0.886
    74   1 H    0.993 --    68 C    0.973
    75   1 H    0.994 --    68 C    0.974
    76   1 H    0.993 --    70 C    0.964
    77   6 C    3.919 --    83 O    1.695    82 O    1.147    70 C    1.006
    78   1 H    0.994 --    71 C    0.974
    79   1 H    0.992 --    71 C    0.968
    80   1 H    0.993 --    73 C    0.963
    81   6 C    3.918 --    85 O    1.699    84 O    1.132    73 C    1.013
    82   8 O    2.297 --    77 C    1.147    86 C    0.900    83 O    0.170
    83   8 O    1.997 --    77 C    1.695    82 O    0.170
    84   8 O    2.285 --    81 C    1.132    87 C    0.904    85 O    0.167
    85   8 O    2.004 --    81 C    1.699    84 O    0.167
    86   6 C    3.910 --    89 C    1.007    88 C    1.002    90 H    0.961
                            82 O    0.900
    87   6 C    3.913 --    91 C    1.007    92 C    1.003    93 H    0.962
                            84 O    0.904
    88   6 C    3.990 --    86 C    1.002    94 H    0.986    95 H    0.985
                            96 H    0.982
    89   6 C    3.989 --    86 C    1.007    97 H    0.984    99 H    0.983
                            98 H    0.981
    90   1 H    0.997 --    86 C    0.961
    91   6 C    3.989 --    87 C    1.007   100 H    0.985   101 H    0.983
                           102 H    0.982
    92   6 C    3.990 --    87 C    1.003   103 H    0.985   105 H    0.985
                           104 H    0.982
    93   1 H    0.998 --    87 C    0.962
    94   1 H    0.998 --    88 C    0.986
    95   1 H    0.996 --    88 C    0.985
    96   1 H    0.996 --    88 C    0.982
    97   1 H    0.997 --    89 C    0.984
    98   1 H    0.995 --    89 C    0.981
    99   1 H    0.996 --    89 C    0.983
   100   1 H    0.997 --    91 C    0.985
   101   1 H    0.996 --    91 C    0.983
   102   1 H    0.995 --    91 C    0.982
   103   1 H    0.998 --    92 C    0.985
   104   1 H    0.996 --    92 C    0.982
   105   1 H    0.997 --    92 C    0.985
   106   6 C    3.971 --   107 C    1.343   108 C    1.339     3 C    1.001
   107   6 C    3.950 --   109 C    1.371   106 C    1.343   110 N    1.065
   108   6 C    3.950 --   111 C    1.365   106 C    1.339   112 N    1.075
   109   6 C    3.970 --   114 C    1.437   107 C    1.371   113 H    0.958
   110   7 N    3.496 --   115 C    1.211   107 C    1.065   116 H    0.920
                           121 O    0.166
   111   6 C    3.970 --   114 C    1.444   108 C    1.365   117 H    0.957
   112   7 N    3.499 --   118 C    1.205   108 C    1.075   119 H    0.919
                           123 O    0.161
   113   1 H    0.992 --   109 C    0.958
   114   6 C    3.986 --   111 C    1.444   109 C    1.437   120 H    0.968
   115   6 C    3.949 --   121 O    1.663   110 N    1.211   122 C    0.990
   116   1 H    0.962 --   110 N    0.920
   117   1 H    0.992 --   111 C    0.957
   118   6 C    3.949 --   123 O    1.658   112 N    1.205   124 C    1.000
   119   1 H    0.960 --   112 N    0.919
   120   1 H    0.996 --   114 C    0.968
   121   8 O    1.984 --   115 C    1.663   110 N    0.166
   122   6 C    3.940 --   115 C    0.990   126 H    0.960   125 C    0.955
                           127 C    0.898
   123   8 O    1.978 --   118 C    1.658   112 N    0.161
   124   6 C    3.939 --   118 C    1.000   129 H    0.965   128 C    0.958
                           130 C    0.882
   125   6 C    3.938 --   132 H    0.975   131 H    0.973   122 C    0.955
                           127 C    0.943
   126   1 H    0.996 --   122 C    0.960
   127   6 C    3.937 --   134 C    1.006   133 H    0.964   125 C    0.943
                           122 C    0.898
   128   6 C    3.936 --   135 H    0.973   136 H    0.967   124 C    0.958
                           130 C    0.945
   129   1 H    0.996 --   124 C    0.965
   130   6 C    3.937 --   138 C    1.012   137 H    0.964   128 C    0.945
                           124 C    0.882
   131   1 H    0.994 --   125 C    0.973
   132   1 H    0.995 --   125 C    0.975
   133   1 H    0.993 --   127 C    0.964
   134   6 C    3.919 --   140 O    1.686   139 O    1.151   127 C    1.006
   135   1 H    0.994 --   128 C    0.973
   136   1 H    0.992 --   128 C    0.967
   137   1 H    0.993 --   130 C    0.964
   138   6 C    3.918 --   142 O    1.699   141 O    1.134   130 C    1.012
   139   8 O    2.301 --   134 C    1.151   143 C    0.900   140 O    0.169
   140   8 O    1.997 --   134 C    1.686   139 O    0.169
   141   8 O    2.286 --   138 C    1.134   144 C    0.903   142 O    0.167
   142   8 O    2.005 --   138 C    1.699   141 O    0.167
   143   6 C    3.911 --   145 C    1.007   146 C    1.003   147 H    0.960
                           139 O    0.900
   144   6 C    3.912 --   149 C    1.007   148 C    1.002   150 H    0.961
                           141 O    0.903
   145   6 C    3.989 --   143 C    1.007   151 H    0.984   152 H    0.983
                           153 H    0.981
   146   6 C    3.990 --   143 C    1.003   154 H    0.985   156 H    0.984
                           155 H    0.981
   147   1 H    0.998 --   143 C    0.960
   148   6 C    3.991 --   144 C    1.002   157 H    0.985   158 H    0.985
                           159 H    0.982
   149   6 C    3.989 --   144 C    1.007   160 H    0.984   162 H    0.983
                           161 H    0.982
   150   1 H    0.998 --   144 C    0.961
   151   1 H    0.997 --   145 C    0.984
   152   1 H    0.996 --   145 C    0.983
   153   1 H    0.995 --   145 C    0.981
   154   1 H    0.997 --   146 C    0.985
   155   1 H    0.996 --   146 C    0.981
   156   1 H    0.996 --   146 C    0.984
   157   1 H    0.998 --   148 C    0.985
   158   1 H    0.997 --   148 C    0.985
   159   1 H    0.996 --   148 C    0.982
   160   1 H    0.997 --   149 C    0.984
   161   1 H    0.995 --   149 C    0.982
   162   1 H    0.996 --   149 C    0.983
   163   1 H    0.997 --    19 C    0.964
   164   1 H    0.996 --    22 C    0.964
   165   1 H    0.996 --    42 C    0.964
   166   1 H    0.996 --    45 C    0.964
   167   8 O    2.248 --    18 C    1.035   171 C    0.973
   168   8 O    2.264 --    23 C    1.036   182 C    0.985
   169   8 O    2.278 --    41 C    1.032   193 C    0.998
   170   8 O    2.268 --    46 C    1.035   204 C    0.989
   171   6 C    3.924 --   173 C    1.397   172 C    1.393   167 O    0.973
                           178 C    0.104
   172   6 C    3.987 --   174 C    1.439   171 C    1.393   175 H    0.965
                           176 C    0.112
   173   6 C    3.987 --   176 C    1.440   171 C    1.397   177 H    0.968
                           174 C    0.111
   174   6 C    3.988 --   172 C    1.439   178 C    1.438   179 H    0.969
                           173 C    0.111
   175   1 H    0.997 --   172 C    0.965
   176   6 C    3.988 --   173 C    1.440   178 C    1.438   180 H    0.969
                           172 C    0.112
   177   1 H    0.998 --   173 C    0.968
   178   6 C    3.989 --   176 C    1.438   174 C    1.438   181 H    0.969
                           171 C    0.104
   179   1 H    0.997 --   174 C    0.969
   180   1 H    0.997 --   176 C    0.969
   181   1 H    0.997 --   178 C    0.969
   182   6 C    3.922 --   184 C    1.390   183 C    1.388   168 O    0.985
                           189 C    0.102
   183   6 C    3.986 --   185 C    1.444   182 C    1.388   186 H    0.968
                           187 C    0.111
   184   6 C    3.985 --   187 C    1.442   182 C    1.390   188 H    0.968
                           185 C    0.111
   185   6 C    3.989 --   183 C    1.444   189 C    1.436   190 H    0.969
                           184 C    0.111
   186   1 H    0.998 --   183 C    0.968
   187   6 C    3.988 --   184 C    1.442   189 C    1.438   191 H    0.969
                           183 C    0.111
   188   1 H    0.997 --   184 C    0.968
   189   6 C    3.987 --   187 C    1.438   185 C    1.436   192 H    0.969
                           182 C    0.102
   190   1 H    0.997 --   185 C    0.969
   191   1 H    0.997 --   187 C    0.969
   192   1 H    0.998 --   189 C    0.969
   193   6 C    3.918 --   194 C    1.383   195 C    1.377   169 O    0.998
                           200 C    0.100
   194   6 C    3.985 --   196 C    1.442   193 C    1.383   197 H    0.967
                           198 C    0.109
   195   6 C    3.984 --   198 C    1.448   193 C    1.377   199 H    0.967
                           196 C    0.110
   196   6 C    3.988 --   194 C    1.442   200 C    1.438   201 H    0.970
                           195 C    0.110
   197   1 H    0.998 --   194 C    0.967
   198   6 C    3.987 --   195 C    1.448   200 C    1.432   202 H    0.968
                           194 C    0.109
   199   1 H    0.998 --   195 C    0.967
   200   6 C    3.986 --   196 C    1.438   198 C    1.432   203 H    0.970
                           193 C    0.100
   201   1 H    0.998 --   196 C    0.970
   202   1 H    0.997 --   198 C    0.968
   203   1 H    0.998 --   200 C    0.970
   204   6 C    3.921 --   205 C    1.386   206 C    1.386   170 O    0.989
                           211 C    0.102
   205   6 C    3.986 --   207 C    1.443   204 C    1.386   208 H    0.968
                           209 C    0.110
   206   6 C    3.985 --   209 C    1.444   204 C    1.386   210 H    0.968
                           207 C    0.110
   207   6 C    3.988 --   205 C    1.443   211 C    1.436   212 H    0.969
                           206 C    0.110
   208   1 H    0.998 --   205 C    0.968
   209   6 C    3.988 --   206 C    1.444   211 C    1.437   213 H    0.969
                           205 C    0.110
   210   1 H    0.997 --   206 C    0.968
   211   6 C    3.987 --   209 C    1.437   207 C    1.436   214 H    0.969
                           204 C    0.102
   212   1 H    0.997 --   207 C    0.969
   213   1 H    0.997 --   209 C    0.969
   214   1 H    0.998 --   211 C    0.969
   215   7 N    3.307 --    47 Fe   1.561   216 C    1.416
   216   6 C    3.969 --   215 N    1.416   217 C    1.173   221 C    1.156
   217   6 C    3.935 --   218 C    1.515   216 C    1.173   227 H    0.966
                            47 Fe   0.108
   218   6 C    3.988 --   217 C    1.515   219 C    1.380   228 H    0.962
   219   6 C    3.882 --   220 C    1.399   218 C    1.380   229 H    0.970
   220   6 C    3.988 --   221 C    1.471   219 C    1.399   230 H    0.956
   221   6 C    3.932 --   220 C    1.471   216 C    1.156   222 C    1.009
                            47 Fe   0.105
   222   6 C    3.990 --   221 C    1.009   226 C    0.991   223 C    0.965
                           231 H    0.950
   223   6 C    3.993 --   224 C    1.009   233 H    0.977   232 H    0.975
                           222 C    0.965
   224   6 C    3.996 --   223 C    1.009   225 C    1.005   234 H    0.976
                           235 H    0.971
   225   6 C    3.997 --   224 C    1.005   226 C    1.000   236 H    0.984
                           237 H    0.980
   226   6 C    3.993 --   225 C    1.000   222 C    0.991   238 H    0.980
                           239 H    0.966
   227   1 H    0.998 --   217 C    0.966
   228   1 H    0.990 --   218 C    0.962
   229   1 H    0.997 --   219 C    0.970
   230   1 H    0.989 --   220 C    0.956
   231   1 H    0.998 --   222 C    0.950
   232   1 H    0.998 --   223 C    0.975
   233   1 H    0.999 --   223 C    0.977
   234   1 H    0.999 --   224 C    0.976
   235   1 H    0.998 --   224 C    0.971
   236   1 H    0.999 --   225 C    0.984
   237   1 H    0.999 --   225 C    0.980
   238   1 H    0.998 --   226 C    0.980
   239   1 H    0.997 --   226 C    0.966
 ---------------------------------------------------------------------------

Topologies differ in total number of bonds
Writing topology from bond orders to xtbtopo.mol

molecular dipole:
                 x           y           z       tot (Debye)
 q only:        4.287       1.372      -0.043
   full:        4.417       1.543      -0.016      11.893
molecular quadrupole (traceless):
                xx          xy          yy          xz          yz          zz
 q only:       53.735       2.437      54.335      20.192     -37.821    -108.071
  q+dip:       44.373      -2.284      61.440      19.687     -38.529    -105.813
   full:       47.347      -4.174      68.010      23.867     -46.115    -115.356

           -------------------------------------------------
          |                Geometry Summary                 |
           -------------------------------------------------

      molecular mass/u    :     1908.3425903
   center of mass at/Å    :       -0.1395672      -0.0170345       0.1700285
  moments of inertia/u·Å² :        0.4781164E+05   0.6368150E+05   0.6464337E+05
rotational constants/cm⁻¹ :        0.3525843E-03   0.2647179E-03   0.2607790E-03

 * 231 selected distances

     #   Z          #   Z                                           value/Å
     1   7 N        4   6 C                                       1.3718715
     3   6 C        4   6 C                                       1.4126835
     5   6 C        6   1 H                                       1.0910444
     5   6 C        7   6 C                                       1.3665758
     7   6 C        8   1 H                                       1.0909087
     1   7 N        9   6 C                                       1.3752566
     9   6 C       10   6 C                                       1.4086456
     2   7 N       11   6 C                                       1.3719180
    10   6 C       11   6 C                                       1.4092410
    12   6 C       13   1 H                                       1.0910410
    12   6 C       14   6 C                                       1.3654825
    14   6 C       15   1 H                                       1.0908436
     2   7 N       16   6 C                                       1.3719886
    17   6 C       18   6 C                                       1.4151734
    18   6 C       19   6 C                                       1.4067639
    19   6 C       20   6 C                                       1.3979462
    20   6 C       21   1 H                                       1.0979889
    20   6 C       22   6 C                                       1.3972684
    17   6 C       23   6 C                                       1.4158172
    22   6 C       23   6 C                                       1.4078620
    16   6 C       26   6 C                                       1.4103296
    24   7 N       27   6 C                                       1.3717564
    26   6 C       27   6 C                                       1.4126565
    28   6 C       29   1 H                                       1.0908048
    28   6 C       30   6 C                                       1.3675330
    30   6 C       31   1 H                                       1.0904134
    24   7 N       32   6 C                                       1.3744838
    30   6 C       32   6 C                                       1.4479846
    32   6 C       33   6 C                                       1.4079975
    25   7 N       34   6 C                                       1.3729291
    33   6 C       34   6 C                                       1.4078706
    35   6 C       36   1 H                                       1.0906102
    35   6 C       37   6 C                                       1.3656200
    37   6 C       38   1 H                                       1.0908379
     3   6 C       39   6 C                                       1.4105612
    25   7 N       39   6 C                                       1.3732248
    40   6 C       41   6 C                                       1.4165799
    41   6 C       42   6 C                                       1.4068110
    42   6 C       43   6 C                                       1.3982708
    43   6 C       44   1 H                                       1.0979472
    43   6 C       45   6 C                                       1.3980371
    40   6 C       46   6 C                                       1.4148074
    45   6 C       46   6 C                                       1.4076636
    49   6 C       50   6 C                                       1.4204510
    49   6 C       51   6 C                                       1.4230635
    50   6 C       52   6 C                                       1.4093522
    50   6 C       53   7 N                                       1.4190813
    51   6 C       54   6 C                                       1.4115556
    51   6 C       55   7 N                                       1.4151274
    52   6 C       56   1 H                                       1.0933365
    52   6 C       57   6 C                                       1.3981605
    54   6 C       57   6 C                                       1.3973770
    53   7 N       58   6 C                                       1.3767111
    53   7 N       59   1 H                                       1.0215174
    54   6 C       60   1 H                                       1.0929253
    55   7 N       61   6 C                                       1.3811593
    55   7 N       62   1 H                                       1.0244449
    57   6 C       63   1 H                                       1.0976611
    58   6 C       64   8 O                                       1.2261462
    61   6 C       66   8 O                                       1.2272455
    65   6 C       68   6 C                                       1.5075469
    65   6 C       69   1 H                                       1.0954424
    65   6 C       70   6 C                                       1.5333724
    68   6 C       70   6 C                                       1.5096317
    67   6 C       71   6 C                                       1.5084498
    67   6 C       72   1 H                                       1.0960950
    67   6 C       73   6 C                                       1.5347119
    71   6 C       73   6 C                                       1.5102693
    68   6 C       74   1 H                                       1.0927458
    68   6 C       75   1 H                                       1.0918608
    70   6 C       76   1 H                                       1.0928474
    71   6 C       78   1 H                                       1.0936870
    71   6 C       79   1 H                                       1.0934914
    73   6 C       80   1 H                                       1.0944567
    77   6 C       82   8 O                                       1.3439611
    77   6 C       83   8 O                                       1.2161889
    81   6 C       84   8 O                                       1.3514424
    81   6 C       85   8 O                                       1.2145622
    86   6 C       88   6 C                                       1.5349819
    86   6 C       89   6 C                                       1.5278590
    86   6 C       90   1 H                                       1.1046609
    87   6 C       91   6 C                                       1.5295280
    87   6 C       92   6 C                                       1.5328315
    87   6 C       93   1 H                                       1.1066380
    88   6 C       94   1 H                                       1.1024019
    88   6 C       95   1 H                                       1.0981064
    88   6 C       96   1 H                                       1.0987121
    89   6 C       97   1 H                                       1.0975736
    89   6 C       98   1 H                                       1.0982386
    89   6 C       99   1 H                                       1.0974854
    91   6 C      100   1 H                                       1.0977225
    91   6 C      101   1 H                                       1.1004310
    91   6 C      102   1 H                                       1.0986678
    92   6 C      103   1 H                                       1.0985268
    92   6 C      104   1 H                                       1.0989107
    92   6 C      105   1 H                                       1.1006897
   106   6 C      107   6 C                                       1.4212780
   106   6 C      108   6 C                                       1.4220834
   107   6 C      109   6 C                                       1.4090366
   107   6 C      110   7 N                                       1.4181416
   108   6 C      111   6 C                                       1.4110875
   108   6 C      112   7 N                                       1.4144727
   109   6 C      113   1 H                                       1.0937524
   109   6 C      114   6 C                                       1.3990273
   111   6 C      114   6 C                                       1.3980660
   110   7 N      115   6 C                                       1.3781568
   110   7 N      116   1 H                                       1.0214680 (min)
   111   6 C      117   1 H                                       1.0933138
   112   7 N      118   6 C                                       1.3804781
   112   7 N      119   1 H                                       1.0235866
   114   6 C      120   1 H                                       1.0977801
   115   6 C      121   8 O                                       1.2253532
   118   6 C      123   8 O                                       1.2269677
   122   6 C      125   6 C                                       1.5085858
   122   6 C      126   1 H                                       1.0948690
   122   6 C      127   6 C                                       1.5288923
   125   6 C      127   6 C                                       1.5108925
   124   6 C      128   6 C                                       1.5070512
   124   6 C      129   1 H                                       1.0963588
   124   6 C      130   6 C                                       1.5364226
   128   6 C      130   6 C                                       1.5094998
   125   6 C      131   1 H                                       1.0931034
   125   6 C      132   1 H                                       1.0926171
   127   6 C      133   1 H                                       1.0931969
   128   6 C      135   1 H                                       1.0931871
   128   6 C      136   1 H                                       1.0932689
   130   6 C      137   1 H                                       1.0943480
   134   6 C      139   8 O                                       1.3430569
   134   6 C      140   8 O                                       1.2173927
   138   6 C      141   8 O                                       1.3504974
   138   6 C      142   8 O                                       1.2146001
   143   6 C      145   6 C                                       1.5295499
   143   6 C      146   6 C                                       1.5314029
   143   6 C      147   1 H                                       1.1068493
   144   6 C      148   6 C                                       1.5340673
   144   6 C      149   6 C                                       1.5282528
   144   6 C      150   1 H                                       1.1051877
   145   6 C      151   1 H                                       1.0978266
   145   6 C      152   1 H                                       1.1006443
   145   6 C      153   1 H                                       1.0984785
   146   6 C      154   1 H                                       1.0975159
   146   6 C      155   1 H                                       1.0986512
   146   6 C      156   1 H                                       1.1009468
   148   6 C      157   1 H                                       1.1020870
   148   6 C      158   1 H                                       1.0987946
   148   6 C      159   1 H                                       1.0988518
   149   6 C      160   1 H                                       1.0991368
   149   6 C      161   1 H                                       1.0982693
   149   6 C      162   1 H                                       1.0979148
    19   6 C      163   1 H                                       1.0963297
    22   6 C      164   1 H                                       1.0961222
    42   6 C      165   1 H                                       1.0960742
    45   6 C      166   1 H                                       1.0964247
    18   6 C      167   8 O                                       1.3767678
    23   6 C      168   8 O                                       1.3752061
    41   6 C      169   8 O                                       1.3773851
    46   6 C      170   8 O                                       1.3756104
   167   8 O      171   6 C                                       1.3947550
   171   6 C      172   6 C                                       1.4014925
   171   6 C      173   6 C                                       1.4011530
   172   6 C      174   6 C                                       1.4011581
   172   6 C      175   1 H                                       1.0948135
   173   6 C      176   6 C                                       1.4011424
   173   6 C      177   1 H                                       1.0949874
   174   6 C      178   6 C                                       1.4006948
   176   6 C      178   6 C                                       1.4010337
   174   6 C      179   1 H                                       1.0962617
   176   6 C      180   1 H                                       1.0958058
   178   6 C      181   1 H                                       1.0982008
   168   8 O      182   6 C                                       1.3910615
   182   6 C      183   6 C                                       1.4023762
   182   6 C      184   6 C                                       1.4017255
   183   6 C      185   6 C                                       1.4002142
   183   6 C      186   1 H                                       1.0952544
   184   6 C      187   6 C                                       1.4004000
   184   6 C      188   1 H                                       1.0947996
   185   6 C      189   6 C                                       1.4007936
   187   6 C      189   6 C                                       1.4005909
   185   6 C      190   1 H                                       1.0956316
   187   6 C      191   1 H                                       1.0953944
   189   6 C      192   1 H                                       1.0979932
   169   8 O      193   6 C                                       1.3873019
   193   6 C      194   6 C                                       1.4042087
   193   6 C      195   6 C                                       1.4043976
   194   6 C      196   6 C                                       1.4009382
   194   6 C      197   1 H                                       1.0955617
   195   6 C      198   6 C                                       1.3982217
   195   6 C      199   1 H                                       1.0946994
   196   6 C      200   6 C                                       1.4010471
   198   6 C      200   6 C                                       1.4021315
   196   6 C      201   1 H                                       1.0974141
   198   6 C      202   1 H                                       1.0956821
   200   6 C      203   1 H                                       1.0978573
   170   8 O      204   6 C                                       1.3900361
   204   6 C      205   6 C                                       1.4024436
   204   6 C      206   6 C                                       1.4023827
   205   6 C      207   6 C                                       1.4002880
   205   6 C      208   1 H                                       1.0951056
   206   6 C      209   6 C                                       1.4002880
   206   6 C      210   1 H                                       1.0945597
   207   6 C      211   6 C                                       1.4006595
   209   6 C      211   6 C                                       1.4004738
   207   6 C      212   1 H                                       1.0954478
   209   6 C      213   1 H                                       1.0953493
   211   6 C      214   1 H                                       1.0980670
    47  26 Fe     215   7 N                                       1.6329676 (max)
   215   7 N      216   6 C                                       1.2941189
   216   6 C      217   6 C                                       1.4264058
   217   6 C      218   6 C                                       1.3701538
   218   6 C      219   6 C                                       1.3895598
   219   6 C      220   6 C                                       1.3885269
   216   6 C      221   6 C                                       1.4323873
   220   6 C      221   6 C                                       1.3775347
   222   6 C      223   6 C                                       1.5382718
   223   6 C      224   6 C                                       1.5245725
   224   6 C      225   6 C                                       1.5312513
   222   6 C      226   6 C                                       1.5326692
   225   6 C      226   6 C                                       1.5398769
   217   6 C      227   1 H                                       1.0777362
   218   6 C      228   1 H                                       1.0799578
   219   6 C      229   1 H                                       1.0775475
   220   6 C      230   1 H                                       1.0779498
   222   6 C      231   1 H                                       1.0958990
   223   6 C      232   1 H                                       1.0908153
   223   6 C      233   1 H                                       1.0881859
   224   6 C      234   1 H                                       1.0901875
   224   6 C      235   1 H                                       1.0864367
   225   6 C      236   1 H                                       1.0905976
   225   6 C      237   1 H                                       1.0896438
   226   6 C      238   1 H                                       1.0909115
   226   6 C      239   1 H                                       1.0865666

 * 6 distinct bonds (by element types)

   Z      Z             #   av. dist./Å        max./Å        min./Å
   1 H    6 C          97     1.0950410     1.1068493     1.0775475
   6 C    6 C          92     1.4362172     1.5398769     1.3654825
   1 H    7 N           4     1.0227542     1.0244449     1.0214680
   6 C    7 N          17     1.3800515     1.4190813     1.2941189
   6 C    8 O          20     1.3112769     1.3947550     1.2145622
   7 N   26 Fe          1     1.6329676     1.6329676     1.6329676


optimized geometry written to: xtbopt.xyz


           -------------------------------------------------
          | TOTAL ENERGY             -388.649940010993 Eh   |
          | GRADIENT NORM               0.000430488639 Eh/α |
          | HOMO-LUMO GAP               0.102124579348 eV   |
           -------------------------------------------------

------------------------------------------------------------------------
 * finished run on 2026/07/31 at 15:28:15.682     
------------------------------------------------------------------------
 total:
 * wall-time:     0 d,  0 h,  0 min, 55.169 sec
 *  cpu-time:     0 d,  0 h,  2 min,  3.238 sec
 * ratio c/w:     2.234 speedup
 SCF:
 * wall-time:     0 d,  0 h,  0 min,  2.077 sec
 *  cpu-time:     0 d,  0 h,  0 min,  4.575 sec
 * ratio c/w:     2.203 speedup
 ANC optimizer:
 * wall-time:     0 d,  0 h,  0 min, 53.041 sec
 *  cpu-time:     0 d,  0 h,  1 min, 58.575 sec
 * ratio c/w:     2.236 speedup

