28

N     -1.109127    2.802425    1.539932
S     -2.445400    2.094008    0.705679
O     -2.645332    2.783971   -0.614374
O     -3.682821    2.287551    1.536876
C     -2.147221    0.366922    0.436283
C     -3.018668   -0.559087    1.036551
C     -2.864041   -1.928781    0.822760
C     -1.842863   -2.395983    0.000047
C     -0.964405   -1.495922   -0.602125
C     -1.085068   -0.109684   -0.382007
C     -0.083818    0.804703   -1.060641
C      1.327963    0.472140   -0.645536
C      2.218998   -0.121329   -1.556527
C      3.522282   -0.439678   -1.162184
C      3.945381   -0.170974    0.142590
F      5.209078   -0.481407    0.523183
C      3.064408    0.415305    1.055642
C      1.760491    0.735149    0.665286
H     -3.830101   -0.224917    1.669329
H     -3.544452   -2.629261    1.289700
H     -1.731055   -3.458689   -0.172423
H     -0.179956   -1.882931   -1.240868
H     -0.203223    0.698325   -2.160836
H     -0.256796    1.873949   -0.840445
H      1.905234   -0.340774   -2.569456
H      4.203183   -0.896398   -1.868878
H      3.390162    0.620415    2.067290
H      1.087167    1.180950    1.385155
