28

N     -1.328201   -1.342327    2.894017
S     -2.525608   -1.424701    1.651886
O     -3.872512   -1.176073    2.271236
O     -2.529236   -2.796534    1.038190
C     -2.188599   -0.213371    0.401521
C     -3.137936    0.801486    0.186906
C     -2.951598    1.754607   -0.814352
C     -1.819455    1.705474   -1.622916
C     -0.862868    0.710370   -1.425135
C     -1.016571   -0.248689   -0.404720
C      0.072739   -1.290969   -0.242839
C      1.408135   -0.646335    0.035007
C      2.424777   -0.663037   -0.935669
C      3.655917   -0.052204   -0.677637
C      3.881237    0.580989    0.547903
F      5.075244    1.173545    0.795635
C      2.874251    0.605501    1.516861
C      1.641893   -0.004096    1.262769
H     -4.034397    0.856586    0.790082
H     -3.692597    2.528300   -0.969217
H     -1.681980    2.440161   -2.405813
H      0.007857    0.690444   -2.069005
H     -0.132299   -2.006912    0.573912
H      0.117339   -1.897240   -1.173671
H      2.264407   -1.144785   -1.892136
H      4.434365   -0.068964   -1.429550
H      3.046689    1.098756    2.464797
H      0.869006    0.030016    2.018940
