28

N      1.498949   -2.627396   -1.516540
S      2.677327   -1.849554   -0.521630
O      2.802394   -2.580255    0.785656
O      4.004457   -1.901595   -1.225601
C      2.204057   -0.167282   -0.221157
C      3.047578    0.854288   -0.692436
C      2.753348    2.195221   -0.445449
C      1.617527    2.538007    0.282800
C      0.764605    1.541601    0.756201
C      1.027255    0.181671    0.498766
C      0.046171   -0.842677    1.034802
C     -1.340094   -0.609664    0.487071
C     -2.366856   -0.134437    1.321320
C     -3.646450    0.092475    0.805031
C     -3.910649   -0.150381   -0.545846
F     -5.151704    0.071307   -1.044628
C     -2.894277   -0.619188   -1.382929
C     -1.613523   -0.847353   -0.870593
H      3.944764    0.617853   -1.248905
H      3.413743    2.970335   -0.812522
H      1.396670    3.578773    0.481841
H     -0.111037    1.832601    1.323383
H      0.044195   -0.777229    2.144628
H      0.333047   -1.882699    0.794486
H     -2.177264    0.063677    2.368904
H     -4.432412    0.458345    1.453134
H     -3.097132   -0.804075   -2.429966
H     -0.834690   -1.202369   -1.532179
