28

N     -2.929405   -2.559771   -1.226468
S     -1.557898   -1.922902   -0.388861
O     -1.313417   -2.784236    0.817228
O     -0.370063   -1.982400   -1.306112
C     -1.856798   -0.241190    0.092086
C     -2.963048    0.420342   -0.469475
C     -3.241340    1.748746   -0.148075
C     -2.416383    2.441209    0.733582
C     -1.309218    1.808206    1.297284
C     -1.010834    0.465909    0.992259
C      0.221124   -0.149780    1.625757
C      1.362556   -0.280970    0.648104
C      2.040022   -1.505489    0.512727
C      3.116869   -1.622990   -0.371334
C      3.537793   -0.516867   -1.114378
F      4.582886   -0.632755   -1.970227
C      2.886437    0.710868   -0.968714
C      1.809054    0.832809   -0.086036
H     -3.615684   -0.086769   -1.166951
H     -4.097219    2.243874   -0.588530
H     -2.632023    3.473416    0.977851
H     -0.677675    2.372929    1.972153
H      0.574827    0.472945    2.476098
H     -0.039739   -1.126329    2.079229
H      1.730416   -2.371650    1.084173
H      3.626153   -2.572164   -0.477617
H      3.218446    1.570601   -1.536380
H      1.324160    1.794405    0.023790
