28

N     -2.188404   -2.961591    1.981524
S     -1.052354   -1.690845    1.693742
O      0.177409   -2.284322    1.068196
O     -0.703202   -1.075712    3.018892
C     -1.749886   -0.476901    0.603511
C     -2.935691   -0.803610   -0.077587
C     -3.523802    0.098727   -0.963766
C     -2.934643    1.339271   -1.190309
C     -1.754450    1.682563   -0.531856
C     -1.144794    0.790388    0.371568
C      0.148258    1.223077    1.034070
C      1.352893    0.533960    0.442583
C      2.293658   -0.088876    1.281492
C      3.426164   -0.703641    0.738847
C      3.638680   -0.687514   -0.642231
F      4.738055   -1.283308   -1.166189
C      2.721909   -0.049804   -1.482273
C      1.587985    0.565983   -0.943972
H     -3.410854   -1.764143    0.067889
H     -4.437112   -0.167624   -1.480101
H     -3.390672    2.035922   -1.881927
H     -1.311126    2.649929   -0.734030
H      0.081874    1.057995    2.127540
H      0.296716    2.319011    0.920662
H      2.147388   -0.106754    2.354304
H      4.140063   -1.190341    1.390821
H      2.891139   -0.028133   -2.551156
H      0.894798    1.066292   -1.608077
