28

N      2.317388   -1.212933    3.181184
S      1.317251   -1.231311    1.771359
O     -0.116672   -1.117028    2.203386
O      1.534490   -2.541214    1.069023
C      1.729677    0.126860    0.706422
C      2.550659    1.145309    1.221705
C      2.895182    2.249704    0.442595
C      2.420503    2.359594   -0.861238
C      1.598789    1.365606   -1.391370
C      1.241577    0.238495   -0.625961
C      0.327475   -0.790838   -1.260787
C     -1.082852   -0.707600   -0.731701
C     -1.737075   -1.866410   -0.277957
C     -3.054192   -1.798036    0.186255
C     -3.735216   -0.577788    0.185773
F     -5.012693   -0.513965    0.635332
C     -3.101838    0.575038   -0.286073
C     -1.784807    0.511298   -0.750950
H      2.925287    1.094754    2.234949
H      3.528604    3.025208    0.853754
H      2.685711    3.219884   -1.462223
H      1.234603    1.480706   -2.404941
H      0.753504   -1.804349   -1.124289
H      0.283854   -0.646941   -2.362314
H     -1.226177   -2.821193   -0.274987
H     -3.546965   -2.692916    0.543971
H     -3.632204    1.518557   -0.296224
H     -1.313862    1.411508   -1.124695
