28

N     -2.860003   -2.165632   -2.022875
S     -1.536609   -1.743574   -0.993934
O     -0.296895   -1.631854   -1.834453
O     -1.369396   -2.842529    0.016340
C     -1.853018   -0.194440   -0.188403
C     -2.919890    0.590304   -0.660342
C     -3.208464    1.827007   -0.083548
C     -2.432923    2.304316    0.969112
C     -1.365089    1.546999    1.449181
C     -1.057517    0.292914    0.886593
C      0.130863   -0.464384    1.445489
C      1.327403   -0.409273    0.528352
C      1.823559    0.824976    0.070873
C      2.950584    0.870448   -0.755257
C      3.601769   -0.311499   -1.118264
F      4.695008   -0.265122   -1.918766
C      3.130662   -1.540598   -0.649035
C      2.004060   -1.590712    0.177541
H     -3.533176    0.252494   -1.484558
H     -4.033625    2.419087   -0.458023
H     -2.656227    3.266404    1.411992
H     -0.771158    1.946256    2.262229
H      0.437407   -0.039980    2.426246
H     -0.162497   -1.509186    1.668342
H      1.339005    1.751134    0.352459
H      3.321003    1.823611   -1.110064
H      3.639427   -2.455804   -0.923177
H      1.655737   -2.551364    0.535951
