28

N     -0.851564    3.010702    1.195387
S     -2.230759    2.381720    0.367341
O     -3.463995    2.764105    1.137061
O     -2.319663    2.985915   -1.005833
C     -2.108241    0.617661    0.235454
C     -3.088809   -0.165497    0.869792
C     -3.073004   -1.556119    0.762104
C     -2.083723   -2.187066    0.012991
C     -1.098862   -1.430508   -0.621104
C     -1.079345   -0.026482   -0.507092
C      0.031247    0.725846   -1.214014
C      1.387951    0.282689   -0.725139
C      1.808479    0.599048    0.577774
C      3.059998    0.177693    1.037165
C      3.899944   -0.563840    0.201629
F      5.112744   -0.972478    0.649156
C      3.488019   -0.886356   -1.094499
C      2.237086   -0.466850   -1.557733
H     -3.878198    0.297492    1.446858
H     -3.836197   -2.145381    1.254009
H     -2.079388   -3.265675   -0.077428
H     -0.341680   -1.943584   -1.201238
H     -0.034559    1.820861   -1.078711
H     -0.067516    0.548728   -2.307118
H      1.165647    1.165204    1.238492
H      3.376762    0.424788    2.042264
H      4.136858   -1.463122   -1.741016
H      1.930768   -0.729494   -2.562629
