28

N     -2.456993   -2.982399   -1.220618
S     -1.239650   -2.136808   -0.331080
O     -0.947127   -2.924945    0.913746
O     -0.003920   -2.049255   -1.180285
C     -1.799363   -0.503413    0.078250
C     -2.953036   -0.019729   -0.563508
C     -3.433463    1.263079   -0.300837
C     -2.766702    2.087066    0.601300
C     -1.616254    1.631798    1.244313
C     -1.114968    0.338499    0.999520
C      0.152338   -0.080190    1.718372
C      1.355790   -0.071612    0.808695
C      2.205345   -1.190333    0.749909
C      3.337602   -1.175100   -0.070294
C      3.641393   -0.038833   -0.824888
F      4.740398   -0.025829   -1.618705
C      2.816590    1.087028   -0.754531
C      1.683261    1.076081    0.064122
H     -3.486237   -0.631317   -1.278506
H     -4.323340    1.620637   -0.802783
H     -3.139097    3.083796    0.799982
H     -1.110674    2.296849    1.933735
H      0.005380   -1.072547    2.188442
H      0.364950    0.607041    2.566005
H      1.987836   -2.077507    1.331502
H      3.980546   -2.044548   -0.118060
H      3.056922    1.971115   -1.330940
H      1.062473    1.961374    0.116339
