28

N     -1.111750    2.461361    2.039821
S     -2.397448    2.046041    0.963741
O     -2.441335    3.022240   -0.178042
O     -3.695764    2.134019    1.716200
C     -2.158392    0.405007    0.335913
C     -3.124790   -0.569964    0.640450
C     -3.016595   -1.865882    0.135901
C     -1.947193   -2.207472   -0.687285
C     -0.974885   -1.257799   -0.998973
C     -1.049096    0.050536   -0.481849
C      0.053093    1.022775   -0.854786
C      1.402966    0.512668   -0.414706
C      2.345069    0.076452   -1.362446
C      3.589631   -0.407953   -0.947933
C      3.902624   -0.462993    0.413190
F      5.109460   -0.934001    0.812996
C      2.969995   -0.034906    1.362106
C      1.724507    0.450119    0.951752
H     -3.974373   -0.329979    1.265844
H     -3.769905   -2.604815    0.377078
H     -1.870756   -3.210933   -1.085802
H     -0.154109   -1.546066   -1.644230
H      0.030974    1.170176   -1.956505
H     -0.088283    2.026174   -0.413314
H      2.116184    0.107638   -2.420401
H      4.310378   -0.742091   -1.683129
H      3.210237   -0.080567    2.416534
H      1.009556    0.770213    1.697875
