28

N     -1.593857    2.865160    0.840034
S     -2.755040    1.804669    0.125561
O     -2.949939    2.163085   -1.320852
O     -4.065195    1.981137    0.841040
C     -2.203526    0.124303    0.254061
C     -2.981446   -0.774455    1.005266
C     -2.624900   -2.119404    1.103572
C     -1.491403   -2.590870    0.447183
C     -0.702856   -1.716527   -0.299896
C     -1.028591   -0.349170   -0.394224
C     -0.115081    0.541322   -1.213780
C      1.294509    0.519263   -0.676561
C      2.323295   -0.112292   -1.396831
C      3.625292   -0.141271   -0.887552
C      3.910144    0.456622    0.343315
F      5.172962    0.426455    0.835784
C      2.892132    1.083176    1.067596
C      1.589009    1.114340    0.561851
H     -3.875493   -0.440050    1.514534
H     -3.235251   -2.799741    1.683467
H     -1.222346   -3.636991    0.516682
H      0.172230   -2.107276   -0.804540
H     -0.448977    1.594641   -1.240775
H     -0.137316    0.188884   -2.267959
H      2.118165   -0.584722   -2.349386
H      4.412675   -0.629211   -1.447533
H      3.111167    1.543285    2.022553
H      0.809636    1.595638    1.137389
