28

N     -2.804060    2.617495    1.432878
S     -1.525000    1.937702    0.489422
O     -0.241907    2.074587    1.258045
O     -1.435372    2.714186   -0.793295
C     -1.845139    0.223099    0.163141
C     -2.867800   -0.408867    0.892216
C     -3.155935   -1.759566    0.697305
C     -2.423763   -2.503765   -0.223277
C     -1.399904   -1.900397   -0.952608
C     -1.093931   -0.536783   -0.777188
C      0.046292    0.045710   -1.588795
C      1.288815    0.257859   -0.759932
C      1.836621   -0.796413   -0.006774
C      3.004881   -0.600878    0.735977
C      3.645492    0.640978    0.720925
F      4.778734    0.828237    1.441218
C      3.122225    1.687256   -0.043469
C      1.954257    1.496058   -0.787958
H     -3.446268    0.139277    1.623298
H     -3.946772   -2.231439    1.266157
H     -2.646432   -3.552905   -0.369377
H     -0.838733   -2.504634   -1.654886
H     -0.282641    0.984922   -2.075642
H      0.312607   -0.631750   -2.429091
H      1.360454   -1.768496    0.006348
H      3.415282   -1.414740    1.319772
H      3.622442    2.646962   -0.062033
H      1.565553    2.316307   -1.378500
