28

N     -1.182262    3.157808    0.292691
S     -2.452776    2.174781   -0.342059
O     -3.755779    2.644540    0.241952
O     -2.517332    2.327845   -1.835700
C     -2.169326    0.473797    0.071003
C     -3.111550   -0.177542    0.886607
C     -2.968242   -1.527654    1.206512
C     -1.887319   -2.251539    0.710997
C     -0.938511   -1.624935   -0.096182
C     -1.048210   -0.256672   -0.413182
C      0.030091    0.356708   -1.285065
C      1.390919    0.218637   -0.648578
C      1.708771    0.951227    0.507619
C      2.964725    0.814478    1.106583
C      3.911621   -0.055195    0.558357
F      5.128617   -0.187308    1.141123
C      3.602484   -0.790737   -0.589277
C      2.347490   -0.656836   -1.191324
H     -3.969373    0.355485    1.274580
H     -3.703263   -2.015900    1.833428
H     -1.783662   -3.301587    0.952344
H     -0.108173   -2.209632   -0.472740
H      0.008390   -0.148652   -2.275087
H     -0.138651    1.429602   -1.490300
H      0.983018    1.621892    0.947853
H      3.202060    1.381744    1.997369
H      4.334346   -1.466611   -1.012607
H      2.121896   -1.237746   -2.076920
