28

N     -1.719260    2.556277    1.401697
S     -2.687812    1.903088    0.129411
O     -4.128669    1.950371    0.555151
O     -2.529712    2.737297   -1.110612
C     -2.199405    0.232564   -0.209877
C     -3.142505   -0.789942   -0.004254
C     -2.832951   -2.117796   -0.298629
C     -1.580664   -2.445631   -0.810722
C     -0.628467   -1.448385   -1.018640
C     -0.908815   -0.103610   -0.706150
C      0.182145    0.921499   -0.947202
C      1.423333    0.594482   -0.154392
C      2.587515    0.147053   -0.802882
C      3.730774   -0.167413   -0.061617
C      3.720793   -0.040345    1.330290
F      4.829983   -0.346787    2.047185
C      2.566072    0.400076    1.983089
C      1.420904    0.715526    1.245555
H     -4.128615   -0.563731    0.379045
H     -3.570399   -2.893587   -0.137434
H     -1.346269   -3.475392   -1.047878
H      0.337559   -1.727310   -1.421282
H     -0.125263    1.949806   -0.683040
H      0.407634    0.942405   -2.035651
H      2.610015    0.038193   -1.880041
H      4.623810   -0.511257   -0.567475
H      2.556384    0.495306    3.061262
H      0.531883    1.047244    1.765093
