28

N      1.123174   -2.092635   -2.411332
S      2.380331   -1.912518   -1.240619
O      2.361613   -3.076425   -0.290079
O      3.701457   -1.903923   -1.957634
C      2.158546   -0.402370   -0.338083
C      3.157673    0.582288   -0.435196
C      3.062746    1.770922    0.288553
C      1.973878    1.992557    1.127115
C      0.969197    1.031694    1.235589
C      1.030311   -0.165930    0.496246
C     -0.106789   -1.156025    0.657069
C     -1.428197   -0.536552    0.274749
C     -2.391946   -0.247631    1.256464
C     -3.609627    0.338931    0.897857
C     -3.873965    0.643415   -0.440449
F     -5.054781    1.213082   -0.785849
C     -2.919450    0.362977   -1.422158
C     -1.700711   -0.223480   -1.067724
H      4.022473    0.432027   -1.067687
H      3.841201    2.518419    0.205377
H      1.907436    2.911344    1.695455
H      0.133633    1.225085    1.897073
H      0.026022   -2.069050    0.048428
H     -0.126286   -1.496876    1.715106
H     -2.200593   -0.472469    2.298319
H     -4.347273    0.558585    1.658953
H     -3.121930    0.601763   -2.458305
H     -0.968144   -0.427206   -1.837240
