28

N     -1.220967    2.880577    1.290989
S     -2.383544    2.270019    0.168898
O     -3.758632    2.556266    0.704394
O     -2.231773    2.969200   -1.152719
C     -2.158084    0.524958   -0.050736
C     -3.206563   -0.332848    0.326220
C     -3.107274   -1.710780    0.133554
C     -1.964022   -2.254025   -0.445926
C     -0.910176   -1.422619   -0.823524
C     -0.976682   -0.030667   -0.616853
C      0.214699    0.805788   -1.041240
C      1.469502    0.371485   -0.325080
C      2.496995   -0.288346   -1.021452
C      3.652044   -0.700559   -0.349631
C      3.789807   -0.460138    1.020357
F      4.910041   -0.861587    1.670021
C      2.771111    0.191789    1.720892
C      1.614659    0.605550    1.052836
H     -4.112975    0.061791    0.765740
H     -3.923891   -2.358073    0.426489
H     -1.893441   -3.322541   -0.603668
H     -0.032463   -1.867985   -1.275626
H      0.337874    0.705461   -2.141587
H      0.074429    1.885456   -0.850616
H      2.403546   -0.486887   -2.081865
H      4.439354   -1.208015   -0.892095
H      2.875461    0.375146    2.782546
H      0.830963    1.101588    1.609684
