28

N     -1.027228    3.082645    0.947239
S     -2.362153    2.290668    0.189477
O     -2.471352    2.733999   -1.242338
O     -3.621560    2.686494    0.908348
C     -2.141896    0.532355    0.253771
C     -3.083874   -0.229350    0.967717
C     -2.990863   -1.620335    1.014447
C     -1.961602   -2.274094    0.342761
C     -1.013879   -1.538521   -0.367987
C     -1.072417   -0.131577   -0.409803
C      0.001746    0.598753   -1.192070
C      1.376129    0.288159   -0.652961
C      1.766617    0.769010    0.608314
C      3.035052    0.470963    1.115382
C      3.922076   -0.310348    0.369564
F      5.151268   -0.599228    0.863311
C      3.540451   -0.796083   -0.884259
C      2.272738   -0.500264   -1.394941
H     -3.902756    0.249873    1.487600
H     -3.725117   -2.193254    1.566079
H     -1.897308   -3.354185    0.372128
H     -0.224381   -2.069574   -0.885484
H     -0.125239    1.696658   -1.178839
H     -0.077051    0.297054   -2.259202
H      1.087634    1.367964    1.200387
H      3.328489    0.844504    2.087998
H      4.225889   -1.403659   -1.461032
H      1.990584   -0.888628   -2.365606
