27

C     -4.119976    0.910392   -0.501851
C     -3.053195    0.718450    0.569817
O     -2.220924   -0.396792    0.258370
C     -1.222341   -0.362190   -0.721299
O     -0.984137    0.696838   -1.363850
C     -0.394207   -1.584927   -0.970281
C      0.624806   -1.812538    0.153161
C      1.660179   -0.712242    0.204775
C      1.486239    0.362391    1.094982
C      2.415589    1.405028    1.136334
C      3.523644    1.389310    0.287103
C      3.703638    0.332406   -0.608330
C      2.777317   -0.716351   -0.657824
N      2.978764   -1.778541   -1.587663
H     -4.791984    1.746047   -0.213912
H     -3.650064    1.151596   -1.477993
H     -4.722578   -0.016525   -0.606594
H     -2.441199    1.640589    0.676090
H     -3.554684    0.524422    1.541241
H     -1.070793   -2.464275   -1.026125
H      0.127537   -1.501465   -1.948698
H      0.094081   -1.892679    1.127770
H      1.127332   -2.790592   -0.007719
H      0.627316    0.395240    1.754072
H      2.274676    2.227617    1.825523
H      4.241784    2.198427    0.320229
H      4.563180    0.330363   -1.266956
