27

C      2.751373    1.496187    0.584218
C      2.630892    0.294612   -0.338877
O      1.580828   -0.549716    0.117937
C      1.181918   -1.699486   -0.568973
O      1.784599   -2.068301   -1.613817
C     -0.016204   -2.459642   -0.090083
C     -1.315353   -1.879909   -0.665561
C     -1.567340   -0.470037   -0.179340
C     -1.188470    0.619433   -0.984218
C     -1.363372    1.929449   -0.531127
C     -1.916521    2.166382    0.728505
C     -2.294415    1.093663    1.539468
C     -2.120071   -0.222738    1.095492
N     -2.502287   -1.300255    1.947677
H      1.797196    2.065127    0.591113
H      2.982618    1.159519    1.616955
H      3.566473    2.161615    0.229730
H      3.589695   -0.267540   -0.343945
H      2.407139    0.647780   -1.369116
H     -0.047212   -2.437504    1.020475
H      0.074823   -3.523044   -0.400738
H     -1.273069   -1.906344   -1.777031
H     -2.164657   -2.532856   -0.370037
H     -0.744807    0.453793   -1.958251
H     -1.064885    2.761618   -1.155484
H     -2.049758    3.181994    1.078109
H     -2.719135    1.286199    2.516768
