27

C      4.174542    0.684627    0.452841
C      2.851961    1.139473    1.058838
O      1.986398    0.026583    1.272641
C      1.287800   -0.614107    0.243274
O      1.367224   -0.201039   -0.945936
C      0.395664   -1.771774    0.570056
C     -0.899335   -1.309711    1.249608
C     -1.755997   -0.478929    0.321574
C     -1.674851    0.924041    0.373060
C     -2.435134    1.709598   -0.497207
C     -3.278849    1.104381   -1.430524
C     -3.362067   -0.288355   -1.498416
C     -2.603401   -1.083931   -0.631299
N     -2.698992   -2.503452   -0.727502
H      4.654025   -0.069102    1.112588
H      4.855363    1.555290    0.346759
H      4.008609    0.238222   -0.549675
H      3.055646    1.621628    2.038042
H      2.362446    1.889863    0.400455
H      0.939679   -2.453605    1.258019
H      0.159611   -2.345806   -0.352577
H     -0.653263   -0.734917    2.169942
H     -1.469796   -2.202589    1.584791
H     -1.018273    1.409812    1.084508
H     -2.367587    2.788804   -0.449844
H     -3.866191    1.714819   -2.104237
H     -4.015233   -0.749822   -2.228502
