27

C      2.646844    0.020923    1.816495
C      2.246462   -1.148999    0.932539
O      1.518825   -0.666179   -0.190686
C      0.953711   -1.514191   -1.146964
O      1.115003   -2.763218   -1.077223
C      0.093902   -0.931187   -2.225622
C     -1.360653   -0.776452   -1.761533
C     -1.487660    0.215161   -0.626537
C     -1.528197   -0.250407    0.700084
C     -1.591432    0.651165    1.765539
C     -1.613937    2.025097    1.519391
C     -1.571157    2.501310    0.206920
C     -1.504414    1.605713   -0.867266
N     -1.448945    2.117755   -2.196961
H      1.739703    0.557558    2.167656
H      3.289076    0.724937    1.246173
H      3.211067   -0.350359    2.697769
H      3.158133   -1.683372    0.588093
H      1.611044   -1.847885    1.519045
H      0.504144    0.055224   -2.531378
H      0.121200   -1.595211   -3.116656
H     -1.760651   -1.769107   -1.457410
H     -1.980364   -0.440229   -2.620547
H     -1.497311   -1.312490    0.909933
H     -1.617846    0.283998    2.783335
H     -1.661455    2.721773    2.346328
H     -1.585093    3.568675    0.024958
