27

C      2.415377   -0.208067    2.040406
C      2.251922    0.946182    1.065012
O      1.602598    0.482147   -0.112804
C      1.247657    1.330717   -1.164893
O      1.542209    2.556733   -1.132138
C      0.451451    0.784168   -2.309449
C     -1.053627    0.815212   -2.011409
C     -1.418209   -0.090423   -0.856182
C     -1.551758    0.451618    0.434816
C     -1.835371   -0.375554    1.524484
C     -1.987686   -1.750671    1.338377
C     -1.854701   -2.302715    0.062151
C     -1.567341   -1.482351   -1.035507
N     -1.424018   -2.072314   -2.325761
H      3.031908   -1.009085    1.580377
H      2.917391    0.149260    2.964063
H      1.419494   -0.621995    2.307006
H      1.639740    1.742291    1.542117
H      3.251279    1.357754    0.805708
H      0.653077    1.389440   -3.219728
H      0.777333   -0.256810   -2.521480
H     -1.368503    1.861180   -1.800090
H     -1.608847    0.499973   -2.920996
H     -1.422859    1.514266    0.599667
H     -1.932062    0.049699    2.515054
H     -2.205915   -2.389795    2.184153
H     -1.970541   -3.370860   -0.072825
