27

C      4.798835    0.840287    0.043784
C      3.988758   -0.373496    0.484226
O      2.598854   -0.058714    0.538683
C      1.792535    0.066946   -0.598194
O      2.257214   -0.161540   -1.748396
C      0.348776    0.421761   -0.438442
C     -0.490079   -0.838533   -0.213314
C     -1.946799   -0.483313   -0.041513
C     -2.452874   -0.242561    1.247953
C     -3.791420    0.116674    1.427473
C     -4.635048    0.249039    0.322881
C     -4.141235    0.027254   -0.964839
C     -2.801536   -0.332821   -1.154814
N     -2.318477   -0.538510   -2.480670
H      5.881150    0.593079    0.061581
H      4.518800    1.139604   -0.987683
H      4.612303    1.690581    0.733349
H      4.166095   -1.227388   -0.205298
H      4.322584   -0.675549    1.499205
H      0.238856    1.107000    0.430098
H     -0.004068    0.955950   -1.347804
H     -0.123057   -1.372548    0.691410
H     -0.364995   -1.535199   -1.070949
H     -1.809735   -0.331855    2.114855
H     -4.174020    0.295874    2.423982
H     -5.671095    0.528589    0.464188
H     -4.800320    0.139390   -1.816693
