27

C      2.574212   -1.685945   -0.698363
C      2.277461   -0.303708   -1.256721
O      1.563933    0.455048   -0.287511
C      1.086212    1.744160   -0.538350
O      1.319453    2.315774   -1.638261
C      0.233200    2.421584    0.489335
C     -1.244086    2.035713    0.335120
C     -1.471952    0.563096    0.594200
C     -1.533210   -0.330660   -0.490127
C     -1.689504   -1.701505   -0.270174
C     -1.785305   -2.194947    1.032178
C     -1.722964   -1.318906    2.118391
C     -1.563211    0.056125    1.908169
N     -1.489734    0.927718    3.034348
H      3.193576   -1.599428    0.219389
H      3.126940   -2.284709   -1.452563
H      1.624234   -2.205442   -0.449647
H      3.231578    0.208592   -1.506824
H      1.663987   -0.407137   -2.178208
H      0.594501    2.151148    1.504774
H      0.332996    3.523419    0.381556
H     -1.594736    2.310116   -0.684487
H     -1.850862    2.636896    1.046032
H     -1.446415    0.033193   -1.506538
H     -1.731237   -2.382371   -1.110471
H     -1.904873   -3.257431    1.200317
H     -1.794192   -1.710394    3.125483
