27

C      2.597766    1.835625    0.027833
C      2.357807    0.713215    1.024336
O      1.592805   -0.314066    0.404926
C      1.150755   -1.447152    1.093151
O      1.463829   -1.631089    2.301083
C      0.241593   -2.415451    0.401419
C     -1.227622   -1.988322    0.519829
C     -1.492682   -0.678665   -0.188822
C     -1.495027    0.520085    0.546916
C     -1.684674    1.745691   -0.096473
C     -1.872842    1.788640   -1.479055
C     -1.869785    0.606015   -2.222412
C     -1.677268   -0.626746   -1.587070
N     -1.665789   -1.818280   -2.370312
H      3.190435    2.642909    0.507289
H      1.626289    2.253484   -0.312493
H      3.156588    1.449748   -0.850905
H      1.804870    1.116251    1.900697
H      3.333403    0.302576    1.363349
H      0.363717   -3.422822    0.855186
H      0.531495   -2.493582   -0.668461
H     -1.506569   -1.912666    1.594220
H     -1.871343   -2.783345    0.085599
H     -1.336467    0.506557    1.618218
H     -1.680598    2.663507    0.477128
H     -2.018110    2.739305   -1.975619
H     -2.012580    0.648578   -3.294964
