27

C     -4.129493    0.919205    0.288235
C     -2.794811    1.230026    0.955583
O     -2.005010    0.048977    1.077123
C     -1.325167   -0.536270    0.003150
O     -1.352632   -0.009848   -1.142835
C     -0.514122   -1.774052    0.233340
C      0.791844   -1.461176    0.974203
C      1.718684   -0.603924    0.142697
C      1.723782    0.790429    0.325223
C      2.550376    1.603520   -0.454598
C      3.375160    1.035309   -1.427270
C      3.373123   -0.347476   -1.625129
C      2.547593   -1.170333   -0.849362
N      2.556859   -2.577880   -1.077735
H     -4.669267    0.139438    0.866063
H     -3.969671    0.558560   -0.749186
H     -4.752379    1.837717    0.253999
H     -2.989567    1.630787    1.972572
H     -2.245263    2.005702    0.378953
H     -1.114461   -2.480900    0.844974
H     -0.293982   -2.273416   -0.735504
H      0.561808   -0.960201    1.940672
H      1.298193   -2.416078    1.232614
H      1.083179    1.248691    1.068761
H      2.549010    2.675700   -0.306554
H      4.013977    1.667126   -2.030772
H      4.012238   -0.779634   -2.384982
