27

C      2.042677   -2.120155   -1.287987
C      1.642257   -0.823162   -1.971957
O      1.333442    0.155604   -0.986600
C      0.858088    1.429626   -1.308908
O      0.725295    1.783120   -2.512389
C      0.443682    2.356369   -0.208234
C     -1.007368    2.105223    0.223228
C     -1.183940    0.731164    0.831426
C     -0.790465    0.514535    2.163642
C     -0.895426   -0.755773    2.736139
C     -1.387539   -1.824032    1.984235
C     -1.776726   -1.624897    0.657845
C     -1.677584   -0.355583    0.075639
N     -2.069461   -0.185450   -1.284840
H      1.207747   -2.486435   -0.653207
H      2.937865   -1.953150   -0.652290
H      2.280287   -2.889745   -2.052260
H      2.480178   -0.464388   -2.607944
H      0.750748   -1.008154   -2.610008
H      1.125887    2.226623    0.659637
H      0.541604    3.407634   -0.555999
H     -1.290762    2.873382    0.975466
H     -1.688136    2.253399   -0.642612
H     -0.395483    1.330184    2.756805
H     -0.590053   -0.912965    3.762545
H     -1.464750   -2.807901    2.428634
H     -2.152065   -2.460218    0.079994
