27

C      4.187737   -0.753718   -0.077289
C      2.953951   -0.858680   -0.966130
O      2.128706    0.295186   -0.821083
C      1.304224    0.517406    0.287512
O      1.224676   -0.334251    1.214620
C      0.467786    1.757899    0.344179
C     -0.761354    1.652006   -0.567017
C     -1.729322    0.594896   -0.084911
C     -2.614356    0.901500    0.963660
C     -3.499478   -0.064428    1.449457
C     -3.506487   -1.347329    0.899118
C     -2.626767   -1.668531   -0.137105
C     -1.736162   -0.707697   -0.631115
N     -0.843571   -1.066899   -1.683608
H      4.752806    0.170596   -0.321451
H      3.893854   -0.729051    0.992700
H      4.844958   -1.632598   -0.245962
H      3.281931   -0.927422   -2.024664
H      2.379178   -1.778864   -0.723077
H      1.088283    2.617901    0.013058
H      0.150464    1.958150    1.391170
H     -0.441097    1.457487   -1.613421
H     -1.277216    2.636936   -0.580173
H     -2.616244    1.889921    1.406608
H     -4.178691    0.181396    2.255524
H     -4.192066   -2.094403    1.277749
H     -2.635744   -2.667409   -0.555175
