27

C      4.130523   -0.865938   -0.516133
C      2.932152   -1.359044    0.286384
O      2.179468   -0.259837    0.794995
C      1.324240    0.517948    0.006470
O      1.148500    0.250206   -1.213615
C      0.569954    1.648049    0.635429
C     -0.622879    1.142757    1.456467
C     -1.678572    0.505621    0.581000
C     -2.585983    1.328349   -0.109301
C     -3.553222    0.768921   -0.948317
C     -3.621172   -0.615708   -1.112457
C     -2.720557   -1.444663   -0.439731
C     -1.747835   -0.893955    0.403451
N     -0.836196   -1.764373    1.070366
H      4.734908   -1.733414   -0.855288
H      4.765489   -0.209811    0.115996
H      3.792853   -0.297076   -1.407327
H      3.300404   -1.961454    1.143286
H      2.287833   -2.011813   -0.342045
H      0.221519    2.357929   -0.146650
H      1.259693    2.202982    1.306675
H     -1.071458    2.005585    1.995613
H     -0.271165    0.438018    2.240688
H     -2.541717    2.404912    0.001321
H     -4.248971    1.410089   -1.473998
H     -4.370384   -1.046892   -1.763811
H     -2.777423   -2.517389   -0.576292
