27

C      4.022874    1.339297   -0.160773
C      2.712544    1.468513   -0.928676
O      2.059401    0.204731   -1.027147
C      1.371127   -0.390890    0.035695
O      1.264740    0.196857    1.146726
C      0.710278   -1.719165   -0.168873
C     -0.566724   -1.588805   -1.008271
C     -1.632461   -0.792051   -0.290842
C     -1.769107    0.581744   -0.558378
C     -2.727236    1.342604    0.116585
C     -3.554050    0.742832    1.068360
C     -3.422698   -0.618977    1.350267
C     -2.464892   -1.389425    0.679875
N     -2.344302   -2.775373    0.992985
H      4.679029    0.591708   -0.654584
H      3.829879    1.020433    0.884659
H      4.543577    2.319808   -0.143695
H      2.047198    2.210931   -0.436429
H      2.934644    1.832052   -1.954012
H      0.476558   -2.185955    0.812946
H      1.421304   -2.389693   -0.697052
H     -0.952544   -2.605107   -1.239089
H     -0.323513   -1.119227   -1.987198
H     -1.129505    1.065045   -1.286771
H     -2.826533    2.399127   -0.096464
H     -4.294937    1.334302    1.590608
H     -4.064651   -1.075318    2.093405
