27

C      4.104933   -0.880077    0.461806
C      3.082655   -0.696611   -0.653822
O      2.230024    0.412771   -0.378632
C      1.191524    0.371588    0.558352
O      0.934276   -0.688693    1.191427
C      0.344826    1.588429    0.771149
C     -0.627845    1.807764   -0.394235
C     -1.652147    0.699916   -0.488008
C     -1.433251   -0.374124   -1.368963
C     -2.352470   -1.423538   -1.448096
C     -3.495244   -1.415220   -0.646085
C     -3.720278   -0.358947    0.239856
C     -2.804471    0.696568    0.326994
N     -3.052417    1.757994    1.246411
H      4.695888    0.051269    0.590819
H      3.596271   -1.124044    1.417626
H      4.794453   -1.711012    0.203098
H      3.623009   -0.499608   -1.603564
H      2.482329   -1.623242   -0.784746
H      1.012073    2.472734    0.854373
H     -0.216837    1.501880    1.726936
H     -0.057348    1.891032   -1.345841
H     -1.143741    2.782254   -0.255584
H     -0.547231   -0.401238   -1.991426
H     -2.176825   -2.245626   -2.129867
H     -4.205482   -2.229574   -0.708400
H     -4.606673   -0.362646    0.861863
