27

C      4.799678   -0.837824   -0.018178
C      3.950496    0.101902    0.829930
O      2.564163   -0.195686    0.676931
C      1.821516    0.155609   -0.455985
O      2.343736    0.824943   -1.388923
C      0.376340   -0.220634   -0.531908
C     -0.490716    0.848833    0.136789
C     -1.949471    0.467471    0.070996
C     -2.520287   -0.268980    1.123899
C     -3.861406   -0.658179    1.069970
C     -4.642936   -0.325704   -0.038191
C     -4.084194    0.392799   -1.097825
C     -2.741381    0.786988   -1.053038
N     -2.191114    1.506256   -2.154586
H      4.579290   -0.692640   -1.096272
H      4.588398   -1.892464    0.258207
H      5.875969   -0.628490    0.156785
H      4.225434   -0.034600    1.896998
H      4.152545    1.159901    0.554538
H      0.229709   -1.197243   -0.021288
H      0.079983   -0.338949   -1.597258
H     -0.179956    0.968733    1.198606
H     -0.329682    1.831355   -0.358431
H     -1.925649   -0.543099    1.986677
H     -4.294148   -1.221108    1.886896
H     -5.681079   -0.629273   -0.078387
H     -4.695239    0.640084   -1.956951
