27

C      2.402295    2.056314    0.384993
C      2.160523    1.268260   -0.892081
O      1.561472    0.018434   -0.570715
C      1.153221   -0.897078   -1.544427
O      1.351845   -0.668003   -2.768773
C      0.413772   -2.130161   -1.125630
C     -1.092283   -1.864862   -0.997298
C     -1.398057   -0.872528    0.102440
C     -1.586733    0.483565   -0.219633
C     -1.817137    1.425140    0.786537
C     -1.860809    1.024690    2.123143
C     -1.672081   -0.318379    2.457419
C     -1.437339   -1.268816    1.456425
N     -1.235242   -2.631388    1.825081
H      2.865362    3.035283    0.139983
H      3.083715    1.491655    1.055958
H      1.438593    2.232994    0.908692
H      1.483677    1.849142   -1.555889
H      3.127802    1.098453   -1.412543
H      0.821296   -2.493637   -0.157849
H      0.577689   -2.930816   -1.879088
H     -1.611834   -2.824590   -0.787576
H     -1.489213   -1.501058   -1.970923
H     -1.542048    0.814048   -1.250068
H     -1.956868    2.467237    0.529773
H     -2.037968    1.756013    2.901103
H     -1.703649   -0.619912    3.496963
