31

N      0.871652   -3.443132    1.137348
C      1.360268   -2.144496    0.808373
C      2.339467   -1.559752    1.616730
C      2.820851   -0.280637    1.330569
C      2.342198    0.426385    0.215488
C      2.805533    1.835098   -0.057809
F      2.819835    2.085018   -1.419139
F      1.941677    2.723973    0.554375
F      4.083997    2.038194    0.432548
C      1.345465   -0.155787   -0.585201
C      0.855993   -1.443602   -0.305202
C     -0.258598   -2.014867   -1.152061
C     -1.637052   -1.769773   -0.521031
C     -1.954062   -0.298768   -0.424418
C     -1.722867    0.400639    0.772689
C     -1.961533    1.776426    0.841797
C     -2.429364    2.463413   -0.281633
C     -2.656566    1.776093   -1.477161
C     -2.416631    0.400519   -1.551508
H      2.720459   -2.092759    2.478971
H      3.561900    0.158151    1.986723
H      0.932485    0.401549   -1.417793
H     -0.108787   -3.108339   -1.281351
H     -0.233359   -1.575049   -2.173533
H     -1.680611   -2.243145    0.484324
H     -2.410227   -2.270701   -1.143273
H     -1.345217   -0.116441    1.646179
H     -1.778596    2.310982    1.764924
H     -2.611886    3.528817   -0.226991
H     -3.013235    2.310380   -2.348212
H     -2.583188   -0.118389   -2.487366
