31

N      1.245447   -3.536546   -0.249565
C      1.588997   -2.175040   -0.001170
C      2.503603   -1.877045    1.013173
C      2.842308   -0.551498    1.292386
C      2.283977    0.497876    0.544405
C      2.590796    1.933851    0.887458
F      3.842412    2.046169    1.467983
F      1.639181    2.402095    1.774192
F      2.570688    2.719263   -0.252107
C      1.351704    0.197306   -0.462584
C      1.005865   -1.134422   -0.751282
C     -0.045001   -1.418086   -1.800590
C     -1.438432   -1.593244   -1.179241
C     -1.912086   -0.330968   -0.503968
C     -1.751406   -0.163684    0.882353
C     -2.137032    1.031418    1.496806
C     -2.682439    2.067188    0.733511
C     -2.840448    1.910621   -0.646285
C     -2.453614    0.717984   -1.265381
H      2.944662   -2.674959    1.597562
H      3.535121   -0.347550    2.099010
H      0.876377    1.001915   -1.011268
H     -0.073007   -0.598502   -2.552241
H      0.221461   -2.341537   -2.358331
H     -2.156282   -1.870623   -1.981530
H     -1.425107   -2.438529   -0.456720
H     -1.315365   -0.952140    1.483336
H     -2.007984    1.156550    2.564076
H     -2.978773    2.992441    1.210458
H     -3.257478    2.715796   -1.237202
H     -2.568143    0.613903   -2.337243
