31

N      0.980934   -2.043222   -2.116984
C      1.838209   -1.221095   -1.327710
C      3.202801   -1.518777   -1.268880
C      4.062924   -0.740257   -0.491954
C      3.564393    0.336798    0.258974
C      4.497853    1.202253    1.068115
F      3.847452    1.717083    2.176261
F      5.587787    0.471143    1.508285
F      4.944878    2.247687    0.282012
C      2.197018    0.652109    0.176113
C      1.327154   -0.116929   -0.616145
C     -0.143668    0.220591   -0.645602
C     -0.898041   -0.562951    0.432721
C     -2.364791   -0.227492    0.401859
C     -2.862049    0.848421    1.156314
C     -4.219661    1.179206    1.100774
C     -5.086661    0.446003    0.285802
C     -4.596730   -0.616758   -0.478366
C     -3.239839   -0.950926   -0.425790
H      3.600129   -2.356406   -1.828580
H      5.118003   -0.983050   -0.476022
H      1.805519    1.498190    0.728379
H     -0.284366    1.311630   -0.478587
H     -0.568969   -0.007724   -1.647262
H     -0.759347   -1.654798    0.271291
H     -0.477560   -0.321390    1.434055
H     -2.198892    1.430315    1.784491
H     -4.598945    2.006276    1.686924
H     -6.136881    0.704179    0.242949
H     -5.267806   -1.179545   -1.114288
H     -2.870848   -1.770566   -1.029992
