31

N      1.151633   -2.817743   -0.712259
C      1.942096   -1.659717   -0.451658
C      3.294706   -1.664610   -0.804656
C      4.088823   -0.539308   -0.575322
C      3.533407    0.619838   -0.009310
C      4.398307    1.822506    0.274605
F      4.917824    1.717899    1.551273
F      3.657384    2.988150    0.183128
F      5.441742    1.902026   -0.631567
C      2.180207    0.613013    0.371219
C      1.377769   -0.521240    0.158335
C     -0.082984   -0.478380    0.535790
C     -0.932487   -0.011523   -0.650036
C     -2.389075    0.029332   -0.273842
C     -2.943598    1.191015    0.289234
C     -4.289350    1.216153    0.668623
C     -5.086698    0.080989    0.498044
C     -4.538556   -1.082783   -0.048418
C     -3.193286   -1.112243   -0.429164
H      3.734134   -2.544605   -1.257720
H      5.137126   -0.574856   -0.844009
H      1.747279    1.491399    0.835046
H     -0.421224   -1.482780    0.872103
H     -0.231276    0.213956    1.394124
H     -0.786666   -0.699624   -1.511824
H     -0.598956    0.999055   -0.974560
H     -2.334011    2.074215    0.435345
H     -4.713202    2.114664    1.098160
H     -6.127739    0.101703    0.793440
H     -5.155249   -1.963379   -0.173776
H     -2.778080   -2.023123   -0.842598
