31

N      1.914794   -1.019706    3.217873
C      1.992430   -0.537806    1.878036
C      2.960474    0.416553    1.551862
C      3.046597    0.920331    0.252381
C      2.150290    0.487737   -0.738587
C      2.253217    1.007897   -2.150390
F      3.042445    0.151241   -2.894656
F      2.816286    2.272311   -2.171680
F      0.998355    1.084289   -2.729905
C      1.202395   -0.498301   -0.417937
C      1.110799   -1.013302    0.886968
C      0.025537   -2.012969    1.216689
C     -1.216482   -1.331002    1.808524
C     -1.862721   -0.392734    0.820762
C     -1.582593    0.984046    0.860681
C     -2.137096    1.843379   -0.092547
C     -2.971223    1.335710   -1.092261
C     -3.250130   -0.032869   -1.142028
C     -2.695785   -0.896298   -0.192047
H      3.648601    0.772003    2.308728
H      3.811854    1.651568    0.024645
H      0.521824   -0.856921   -1.181196
H      0.410619   -2.758835    1.944860
H     -0.262081   -2.586531    0.307973
H     -1.949128   -2.113672    2.102760
H     -0.940218   -0.786631    2.738100
H     -0.925152    1.388479    1.620402
H     -1.915791    2.902291   -0.059324
H     -3.398147    2.002046   -1.830581
H     -3.891583   -0.425641   -1.920277
H     -2.908387   -1.956663   -0.249215
