31

N      1.028962   -3.567424   -0.571876
C      1.432429   -2.274713   -0.125189
C      2.289459   -2.170148    0.974295
C      2.685173   -0.916559    1.445238
C      2.212851    0.254993    0.831318
C      2.655873    1.611951    1.317886
F      2.990673    1.570788    2.660442
F      1.640927    2.539022    1.154258
F      3.759325    2.018104    0.591178
C      1.381452    0.147156   -0.295953
C      0.980734   -1.110913   -0.778737
C      0.019699   -1.188123   -1.943338
C     -1.435113   -1.330378   -1.472970
C     -1.891055   -0.122537   -0.693946
C     -1.858544   -0.129577    0.711217
C     -2.226257    1.011914    1.429797
C     -2.625566    2.167355    0.752720
C     -2.655243    2.184088   -0.644461
C     -2.286043    1.045398   -1.367198
H      2.649571   -3.063922    1.468459
H      3.357208   -0.864483    2.292497
H      1.030883    1.044536   -0.792099
H      0.278632   -2.056153   -2.587009
H      0.116577   -0.285462   -2.586207
H     -1.544363   -2.251977   -0.860195
H     -2.088552   -1.459588   -2.363048
H     -1.535924   -1.013033    1.248238
H     -2.196518    1.002379    2.511646
H     -2.908082    3.050802    1.310475
H     -2.959068    3.081447   -1.167761
H     -2.300100    1.075057   -2.449678
