31

N      0.799909   -2.659617   -2.531236
C      1.300453   -1.567887   -1.762464
C      2.197230   -0.672862   -2.353158
C      2.687011    0.417073   -1.630723
C      2.300773    0.616569   -0.295276
C      2.769918    1.830062    0.467078
F      3.997406    2.264262   -0.002937
F      1.844805    2.846282    0.316810
F      2.901898    1.535606    1.813095
C      1.385820   -0.273917    0.290726
C      0.888632   -1.374612   -0.428806
C     -0.139741   -2.278199    0.212917
C     -1.571474   -1.871172   -0.165074
C     -1.913078   -0.492787    0.341925
C     -1.797115    0.624080   -0.503563
C     -2.057134    1.907655   -0.014326
C     -2.431624    2.085993    1.320164
C     -2.543892    0.981054    2.168588
C     -2.282147   -0.304289    1.684148
H      2.506558   -0.814009   -3.381313
H      3.361796    1.108105   -2.119975
H      1.041719   -0.100357    1.303572
H     -0.029274   -2.265988    1.319773
H      0.033794   -3.328875   -0.104579
H     -2.280527   -2.607821    0.271394
H     -1.698369   -1.921362   -1.268749
H     -1.492296    0.501773   -1.535602
H     -1.963018    2.764712   -0.668524
H     -2.630792    3.080526    1.697815
H     -2.828235    1.121105    3.203450
H     -2.359005   -1.151102    2.354849
