31

N      1.614110   -2.614247   -2.161644
C      1.810731   -1.445191   -1.369137
C      2.730456   -0.481301   -1.792601
C      2.928940    0.682164   -1.046401
C      2.194101    0.906675    0.129238
C      2.421197    2.148538    0.954196
F      1.241720    2.550431    1.557245
F      2.879102    3.189552    0.164984
F      3.359427    1.879485    1.932973
C      1.297521   -0.079885    0.572450
C      1.093887   -1.255625   -0.170895
C      0.061390   -2.258148    0.292506
C     -1.292888   -2.041804   -0.398209
C     -1.891159   -0.702789   -0.047848
C     -2.555089   -0.523615    1.177080
C     -3.060840    0.732250    1.526784
C     -2.901055    1.817804    0.661152
C     -2.234856    1.649561   -0.555729
C     -1.729666    0.395151   -0.910424
H      3.293205   -0.632374   -2.705400
H      3.654308    1.407775   -1.392117
H      0.743262    0.072290    1.491139
H     -0.069414   -2.197975    1.395562
H      0.416428   -3.289138    0.078394
H     -1.173438   -2.137832   -1.499700
H     -1.989705   -2.847966   -0.081247
H     -2.673226   -1.353916    1.862269
H     -3.571844    0.865182    2.471563
H     -3.289868    2.790001    0.935089
H     -2.105151    2.492533   -1.222024
H     -1.201586    0.282414   -1.849248
