28

N     -2.578043   -2.222947    1.091080
C     -2.423979   -0.875540    0.650558
C     -3.163819    0.135764    1.275135
C     -3.022213    1.464898    0.869443
C     -2.139653    1.790747   -0.162048
C     -1.398513    0.788266   -0.792688
C     -1.536263   -0.554664   -0.398508
C     -0.688411   -1.615963   -1.061352
C      0.563672   -1.948003   -0.235642
C      1.489755   -0.759343   -0.108836
C      1.414015    0.049538    1.039590
C      2.224767    1.179747    1.166117
C      3.117438    1.517675    0.148256
C      3.199840    0.727694   -1.000260
C      2.390474   -0.406719   -1.139337
Cl     2.532516   -1.355295   -2.615832
H     -3.847047   -0.107762    2.079163
H     -3.594514    2.243246    1.357403
H     -2.026303    2.821905   -0.470752
H     -0.708418    1.060228   -1.582012
H     -1.288235   -2.541757   -1.195508
H     -0.389985   -1.290030   -2.081477
H      1.100921   -2.794504   -0.713582
H      0.259647   -2.309417    0.771190
H      0.717726   -0.189649    1.834095
H      2.157659    1.796558    2.052959
H      3.744131    2.394497    0.247781
H      3.892832    1.000831   -1.785958
