28

N     -2.975663    1.791323    1.060435
C     -2.616544    0.576235    0.406300
C     -3.358882   -0.582643    0.663390
C     -3.016443   -1.789184    0.048432
C     -1.929812   -1.844328   -0.826367
C     -1.184316   -0.692729   -1.090915
C     -1.521554    0.529637   -0.482959
C     -0.671952    1.751075   -0.745679
C      0.399193    1.949658    0.337083
C      1.424136    0.836837    0.327467
C      2.433920    0.855431   -0.651285
C      3.375413   -0.173833   -0.720835
C      3.317898   -1.236263    0.181482
C      2.318337   -1.272695    1.155484
C      1.368706   -0.246462    1.236266
Cl     0.131337   -0.364852    2.483682
H     -4.199509   -0.549887    1.345149
H     -3.591588   -2.682901    0.253147
H     -1.661977   -2.781424   -1.297029
H     -0.336615   -0.755921   -1.762172
H     -1.317934    2.654466   -0.784456
H     -0.186154    1.676201   -1.743544
H     -0.080801    2.056329    1.331938
H      0.916248    2.915241    0.145742
H      2.488011    1.667611   -1.365905
H      4.148484   -0.149165   -1.477959
H      4.047301   -2.033911    0.124820
H      2.280761   -2.103849    1.848289
