28

N     -2.194459    2.219220    0.460184
C     -2.709129    0.922730    0.163841
C     -4.047297    0.792534   -0.227122
C     -4.570964   -0.464622   -0.538131
C     -3.758742   -1.597924   -0.464747
C     -2.422033   -1.478033   -0.075250
C     -1.886761   -0.220779    0.255448
C     -0.432014   -0.112053    0.640575
C      0.433379    0.162173   -0.593552
C      1.891550    0.247883   -0.213436
C      2.444856    1.501404    0.102790
C      3.783976    1.609183    0.486029
C      4.582371    0.467484    0.567959
C      4.042491   -0.785949    0.272000
C      2.701300   -0.906441   -0.112959
Cl     2.072867   -2.516344   -0.451691
H     -4.681877    1.667414   -0.294248
H     -5.605641   -0.559645   -0.841313
H     -4.164189   -2.570201   -0.713347
H     -1.802786   -2.365742   -0.033014
H     -0.292518    0.699825    1.387281
H     -0.101363   -1.055454    1.128255
H      0.279402   -0.634789   -1.352468
H      0.110585    1.115570   -1.067382
H      1.837579    2.396978    0.053816
H      4.202096    2.578993    0.723040
H      5.619273    0.553062    0.866326
H      4.668047   -1.666476    0.346534
