28

N     -1.997801    2.437095   -0.079759
C     -2.621510    1.154686   -0.082113
C     -3.987696    1.059586    0.209415
C     -4.618489   -0.186652    0.229061
C     -3.886235   -1.345118   -0.037818
C     -2.522328   -1.260250   -0.330101
C     -1.878725   -0.010902   -0.368415
C     -0.398399    0.052404   -0.653122
C      0.404173   -0.000981    0.650796
C      1.885944    0.038576    0.366391
C      2.546301    1.279870    0.342276
C      3.911338    1.351463    0.053693
C      4.629780    0.187677   -0.223914
C      3.984082   -1.050552   -0.218950
C      2.615966   -1.134726    0.068589
Cl     1.853955   -2.722123    0.037599
H     -4.561176    1.952405    0.425304
H     -5.674485   -0.254853    0.456495
H     -4.375045   -2.310543   -0.014772
H     -1.966612   -2.169343   -0.525055
H     -0.154116    0.983949   -1.208754
H     -0.105619   -0.797149   -1.308644
H      0.120808    0.860467    1.295224
H      0.145772   -0.919241    1.220739
H      2.002626    2.194284    0.545997
H      4.411837    2.311094    0.042025
H      5.687004    0.245511   -0.448509
H      4.548650   -1.946632   -0.443677
