28

N     -2.156095    2.239101    0.399872
C     -2.686946    0.924338    0.247613
C     -4.002021    0.667889    0.654195
C     -4.539894   -0.615356    0.530222
C     -3.764741   -1.650418    0.003679
C     -2.451312   -1.404112   -0.405112
C     -1.903049   -0.113775   -0.300220
C     -0.471881    0.120098   -0.716747
C      0.473811   -0.068591    0.473731
C      1.908074    0.141964    0.053429
C      2.475117    1.423569    0.169246
C      3.791005    1.656294   -0.238200
C      4.551611    0.616477   -0.774746
C      3.996740   -0.657846   -0.910308
C      2.678542   -0.903049   -0.505663
Cl     2.028203   -2.525213   -0.722665
H     -4.607335    1.463212    1.070932
H     -5.556509   -0.808688    0.847432
H     -4.180687   -2.645756   -0.084655
H     -1.860140   -2.220262   -0.802218
H     -0.197159   -0.587620   -1.529663
H     -0.355835    1.144855   -1.132177
H      0.344451   -1.083729    0.906822
H      0.206373    0.653392    1.276782
H      1.896517    2.244623    0.574619
H      4.220236    2.645134   -0.140818
H      5.570484    0.799241   -1.090983
H      4.592442   -1.455774   -1.335338
