28

N      2.004446   -2.263557    0.891886
C      2.622817   -1.037906    0.505896
C      3.960968   -0.810602    0.849672
C      4.584732    0.388541    0.497013
C      3.873052    1.369050   -0.196944
C      2.537207    1.151200   -0.544694
C      1.902179   -0.057492   -0.209481
C      0.449620   -0.255929   -0.566033
C     -0.455042    0.206515    0.580662
C     -1.909131    0.030520    0.216316
C     -2.562016   -1.166345    0.560873
C     -3.899328   -1.370470    0.212068
C     -4.596401   -0.388100   -0.492674
C     -3.956585    0.799043   -0.855280
C     -2.616155    1.014762   -0.511450
Cl    -1.858476    2.522245   -1.016297
H      4.517742   -1.562587    1.394773
H      5.618904    0.559938    0.766488
H      4.355789    2.300616   -0.462771
H      1.996414    1.926041   -1.074263
H      0.253233   -1.326384   -0.793483
H      0.207996    0.316647   -1.488500
H     -0.245683    1.269651    0.827070
H     -0.221886   -0.381256    1.495997
H     -2.033910   -1.943641    1.099529
H     -4.394642   -2.293127    0.485740
H     -5.632058   -0.548806   -0.763042
H     -4.503783    1.551435   -1.409068
