28

N     -2.310808    2.796554   -0.442396
C     -2.816945    1.464894   -0.368090
C     -4.199504    1.260854   -0.445776
C     -4.725938   -0.028955   -0.376239
C     -3.873484   -1.122484   -0.228622
C     -2.491184   -0.931987   -0.149828
C     -1.939051    0.367364   -0.218424
C     -0.442926    0.633788   -0.137988
C      0.448551   -0.612245    0.024242
C      1.945336   -0.348776    0.104609
C      2.495060    0.951861    0.036530
C      3.876509    1.146449    0.114703
C      4.731971    0.055814    0.261364
C      4.209541   -1.235225    0.330567
C      2.827550   -1.445134    0.253580
Cl     2.235517   -3.102028    0.347765
H     -4.868117    2.104967   -0.560420
H     -5.795872   -0.181030   -0.436830
H     -4.284671   -2.122401   -0.174924
H     -1.871213   -1.809185   -0.035749
H     -0.143572    1.162022   -1.069530
H     -0.266290    1.308318    0.728167
H      0.270060   -1.285284   -0.842573
H      0.147695   -1.138686    0.956203
H      1.873683    1.828049   -0.076780
H      4.284712    2.147608    0.061261
H      5.801476    0.211055    0.321524
H      4.881913   -2.076178    0.444546
