28

N     -2.208083    2.228562    0.277368
C     -2.714988    0.905778    0.113414
C     -4.055655    0.645419    0.422155
C     -4.572010   -0.645319    0.285171
C     -3.749989   -1.683894   -0.156535
C     -2.410712   -1.433738   -0.467393
C     -1.882568   -0.136218   -0.348775
C     -0.425207    0.102480   -0.657895
C      0.426372   -0.051860    0.606290
C      1.887236    0.164103    0.294301
C      2.432924    1.453397    0.426249
C      3.774593    1.690625    0.117417
C      4.583260    0.647461   -0.335890
C      4.051186   -0.634844   -0.486728
C      2.707536   -0.884629   -0.180591
Cl     2.089512   -2.517327   -0.412514
H     -4.697899    1.443608    0.772913
H     -5.608672   -0.841614    0.526635
H     -4.149855   -2.684867   -0.254881
H     -1.783931   -2.252465   -0.799218
H     -0.082429   -0.619646   -1.431332
H     -0.285273    1.119262   -1.085384
H      0.091207    0.684069    1.370323
H      0.272057   -1.058955    1.049859
H      1.817733    2.276933    0.767668
H      4.186748    2.685481    0.226584
H      5.622134    0.833694   -0.575825
H      4.684771   -1.435497   -0.846901
