28

N     -2.287311    2.810271    0.544309
C     -2.807640    1.503622    0.305687
C     -4.194826    1.329020    0.239607
C     -4.735070    0.064153    0.007606
C     -3.891882   -1.033710   -0.159739
C     -2.505089   -0.872494   -0.095977
C     -1.939007    0.401298    0.138278
C     -0.437415    0.635345    0.217536
C      0.443302   -0.614120    0.025642
C      1.945496   -0.383029    0.104684
C      2.509244    0.892092    0.338648
C      3.895204    1.057347    0.403321
C      4.741355   -0.037750    0.237180
C      4.205052   -1.303919    0.005455
C      2.818392   -1.484308   -0.061836
Cl     2.208698   -3.110822   -0.357457
H     -4.856303    2.176692    0.368505
H     -5.808526   -0.065208   -0.042530
H     -4.313780   -2.014232   -0.339655
H     -1.892669   -1.751918   -0.231655
H     -0.216124    1.072148    1.215858
H     -0.169823    1.378374   -0.565227
H      0.173883   -1.355650    0.809068
H      0.220527   -1.049096   -0.973043
H      1.895470    1.770570    0.473604
H      4.314173    2.039159    0.583078
H      5.814399    0.094729    0.288029
H      4.870271   -2.148565   -0.122355
