28

N      2.755740   -1.146453    2.068681
C      2.534792   -0.504031    0.814977
C      3.412598    0.505018    0.400928
C      3.207704    1.161440   -0.814930
C      2.124015    0.813468   -1.623394
C      1.243840   -0.193674   -1.219801
C      1.441603   -0.866408   -0.000852
C      0.449808   -1.918158    0.438375
C     -0.623180   -1.341138    1.373740
C     -1.508954   -0.339396    0.666006
C     -2.526436   -0.815146   -0.180374
C     -3.340040    0.075630   -0.884074
C     -3.145227    1.451091   -0.756021
C     -2.135843    1.939594    0.075627
C     -1.313651    1.056918    0.787217
Cl    -0.054885    1.745053    1.808553
H      4.252187    0.785122    1.024749
H      3.887385    1.943061   -1.128827
H      1.963114    1.327517   -2.562155
H      0.400973   -0.442340   -1.852980
H     -0.036597   -2.383939   -0.446950
H      0.983541   -2.738917    0.964110
H     -1.253537   -2.179235    1.743269
H     -0.146347   -0.902228    2.274572
H     -2.685733   -1.879931   -0.299117
H     -4.120339   -0.301554   -1.532419
H     -3.775560    2.139794   -1.303607
H     -1.990971    3.008840    0.164696
