28

N      2.817164   -1.966627   -1.016885
C      2.534985   -0.761517   -0.308798
C      3.294291   -0.440877    0.822944
C      3.029952    0.728207    1.540304
C      2.004609    1.582770    1.131090
C      1.242759    1.272305    0.001861
C      1.502528    0.101858   -0.733249
C      0.634002   -0.238677   -1.922480
C     -0.480501   -1.229416   -1.553592
C     -1.444751   -0.646834   -0.544909
C     -1.263979   -0.932081    0.820691
C     -2.110942   -0.373273    1.780424
C     -3.145160    0.478159    1.389842
C     -3.333551    0.775276    0.038480
C     -2.489368    0.222618   -0.932721
Cl    -2.770913    0.644750   -2.618706
H      4.088294   -1.100596    1.149892
H      3.618154    0.970081    2.416076
H      1.796858    2.484890    1.691852
H      0.442343    1.939472   -0.293855
H      0.188468    0.684867   -2.352027
H      1.260186   -0.682679   -2.725997
H     -0.029240   -2.166346   -1.159528
H     -1.029057   -1.519642   -2.474723
H     -0.458522   -1.580251    1.143772
H     -1.962393   -0.597663    2.828771
H     -3.799794    0.910991    2.135213
H     -4.136421    1.440234   -0.253741
