28

N      2.343227   -2.422690   -1.215749
C      2.325104   -1.224368   -0.443093
C      3.166171   -1.117655    0.671094
C      3.158718    0.041418    1.450666
C      2.309894    1.099835    1.121551
C      1.468406    1.003451    0.010439
C      1.470583   -0.155138   -0.786731
C      0.516850   -0.257018   -1.954887
C     -0.759334   -1.029129   -1.587522
C     -1.559452   -0.323088   -0.516102
C     -1.397625   -0.709054    0.826935
C     -2.088953   -0.046631    1.843775
C     -2.946550    1.009450    1.533424
C     -3.113082    1.407785    0.205438
C     -2.423608    0.752528   -0.822460
Cl    -2.666819    1.308959   -2.475108
H      3.824189   -1.935800    0.936084
H      3.808944    0.117751    2.312547
H      2.300661    1.994593    1.730453
H      0.806502    1.828507   -0.222783
H      0.249191    0.756875   -2.324109
H      1.019066   -0.772062   -2.801876
H     -0.489757   -2.055383   -1.254515
H     -1.381567   -1.158219   -2.498449
H     -0.726218   -1.517901    1.088176
H     -1.956210   -0.350137    2.874170
H     -3.480601    1.522164    2.322970
H     -3.777730    2.230956   -0.024338
