28

N      2.632259   -2.292880    0.837031
C      2.464019   -0.957609    0.365812
C      3.330354    0.042290    0.823915
C      3.179102    1.360083    0.385985
C      2.160536    1.685984   -0.511442
C      1.292321    0.694719   -0.975728
C      1.437448   -0.637107   -0.547958
C      0.456624   -1.683498   -1.025058
C     -0.664160   -1.927109   -0.003170
C     -1.512652   -0.693922    0.211139
C     -1.228469    0.153749    1.297233
C     -1.965424    1.323371    1.496186
C     -2.991391    1.662327    0.613239
C     -3.281432    0.833822   -0.472766
C     -2.547954   -0.340410   -0.683708
Cl    -2.953871   -1.336999   -2.077283
H      4.120063   -0.201082    1.523698
H      3.849848    2.129800    0.745285
H      2.040682    2.708731   -0.844695
H      0.499218    0.967347   -1.661212
H      0.992099   -2.639836   -1.208273
H      0.016447   -1.383429   -2.000838
H     -1.301393   -2.766050   -0.354934
H     -0.221890   -2.263372    0.960203
H     -0.427177   -0.086262    1.985415
H     -1.737766    1.969760    2.333923
H     -3.560650    2.569675    0.768582
H     -4.076790    1.107909   -1.154268
