31

N     -2.641191   -0.749096   -2.283385
C     -3.271074   -0.342209   -1.070404
C     -4.635189   -0.026724   -1.082183
C     -5.271932    0.389149    0.089539
C     -4.547712    0.496490    1.278406
C     -3.185880    0.183582    1.300117
C     -2.536297   -0.250720    0.131350
C     -1.058155   -0.551532    0.171250
C     -0.244175    0.693610   -0.193330
C      1.229741    0.391068   -0.157131
C      1.880497   -0.096427   -1.300340
C      3.242547   -0.407998   -1.258823
C      3.970551   -0.264305   -0.064872
C      5.450226   -0.553677   -0.032852
F      5.841481   -0.961398    1.230785
F      5.771580   -1.557926   -0.929686
F      6.145210    0.592137   -0.371710
C      3.318076    0.236495    1.075148
C      1.955983    0.547836    1.032841
H     -5.202431   -0.099938   -2.001689
H     -6.326304    0.633259    0.074768
H     -5.041154    0.825836    2.183705
H     -2.636687    0.281293    2.228545
H     -0.817850   -1.380177   -0.530150
H     -0.770820   -0.897991    1.188840
H     -0.530116    1.046633   -1.208736
H     -0.477875    1.515385    0.519333
H      1.333541   -0.231528   -2.225399
H      3.726372   -0.762567   -2.160283
H      3.861020    0.386231    1.999933
H      1.468017    0.915208    1.927282
