31

N     -3.465152    0.125573   -2.349008
C     -3.050612    0.002351   -0.990229
C     -3.693247   -0.925558   -0.161839
C     -3.297745   -1.073380    1.169690
C     -2.257164   -0.295282    1.680378
C     -1.611279    0.634854    0.862060
C     -2.003727    0.798413   -0.478515
C     -1.258019    1.774835   -1.359205
C     -0.182891    1.077305   -2.204961
C      0.892344    0.461343   -1.346193
C      0.839645   -0.900475   -1.011551
C      1.807562   -1.459649   -0.172845
C      2.853524   -0.669455    0.334279
C      3.866254   -1.260813    1.282041
F      4.081916   -2.597610    0.994761
F      5.076381   -0.596333    1.181403
F      3.396871   -1.148387    2.577343
C      2.884471    0.701147    0.023672
C      1.915168    1.260095   -0.813998
H     -4.498064   -1.536414   -0.551317
H     -3.795978   -1.794143    1.805083
H     -1.947552   -0.415762    2.710460
H     -0.797061    1.220714    1.270715
H     -1.974164    2.288103   -2.036424
H     -0.787041    2.572017   -0.742629
H      0.277503    1.825329   -2.886479
H     -0.653559    0.304705   -2.851612
H      0.038832   -1.525965   -1.386512
H      1.734108   -2.508668    0.085155
H      3.654291    1.342233    0.434507
H      1.954384    2.318874   -1.038596
