31

N     -2.754892    1.446863   -1.822700
C     -3.321058    0.576294   -0.845359
C     -4.674020    0.229109   -0.942498
C     -5.248468   -0.634142   -0.006481
C     -4.472663   -1.158829    1.029016
C     -3.121489   -0.817954    1.134372
C     -2.534669    0.061721    0.207870
C     -1.066211    0.389636    0.322270
C     -0.229701   -0.581156   -0.516585
C      1.234329   -0.250410   -0.404818
C      1.821735    0.668462   -1.287254
C      3.173991    1.000477   -1.164170
C      3.954911    0.440514   -0.138127
C      5.424937    0.760961   -0.035474
F      6.140564   -0.133562   -0.809052
F      5.677533    2.046483   -0.482381
F      5.855309    0.667358    1.276819
C      3.366068   -0.489463    0.736274
C      2.013728   -0.820961    0.612554
H     -5.280844    0.625560   -1.746990
H     -6.294446   -0.900549   -0.086887
H     -4.917723   -1.833269    1.749135
H     -2.531557   -1.241233    1.938084
H     -0.881034    1.434404   -0.010187
H     -0.747904    0.329683    1.386775
H     -0.408029   -1.623636   -0.171256
H     -0.546326   -0.528034   -1.581650
H      1.233019    1.124985   -2.073479
H      3.608828    1.696232   -1.870766
H      3.951220   -0.959547    1.516696
H      1.574863   -1.525995    1.307838
