31

N     -2.496477   -2.499611   -0.311713
C     -3.200018   -1.273429   -0.124271
C     -4.573042   -1.309038    0.147792
C     -5.281762   -0.122472    0.350522
C     -4.621133    1.105930    0.287093
C     -3.250972    1.151616    0.015910
C     -2.528874   -0.034269   -0.205092
C     -1.043981    0.037593   -0.463771
C     -0.261597   -0.079615    0.847716
C      1.219324   -0.011915    0.587799
C      1.880028    1.225538    0.573022
C      3.249384    1.291781    0.300083
C      3.975512    0.123815    0.008939
C      5.461881    0.189801   -0.237132
F      5.864988   -0.836461   -1.074022
F      5.806340    1.391929   -0.830706
F      6.128049    0.075676    0.968650
C      3.312741   -1.115577    0.037199
C      1.943380   -1.181003    0.310241
H     -5.091462   -2.257949    0.206312
H     -6.342753   -0.155541    0.561973
H     -5.170492    2.023894    0.451606
H     -2.751941    2.112235   -0.020418
H     -0.738053   -0.772506   -1.161273
H     -0.793592    1.001260   -0.960496
H     -0.561218    0.740856    1.536826
H     -0.510958   -1.040007    1.350611
H      1.335212    2.139145    0.776967
H      3.740365    2.256736    0.315485
H      3.853275   -2.034294   -0.153111
H      1.447848   -2.144120    0.309205
