31

N     -2.689445    1.594080    1.694407
C     -3.289947    0.798132    0.674851
C     -4.634292    1.010620    0.346120
C     -5.241332    0.254575   -0.659476
C     -4.506759   -0.714738   -1.345229
C     -3.164501   -0.934212   -1.024072
C     -2.545661   -0.190777   -0.003810
C     -1.086517   -0.422260    0.303270
C     -0.205775    0.525896   -0.515972
C      1.249036    0.296749   -0.205672
C      1.866183    0.990301    0.846078
C      3.208826    0.754757    1.155605
C      3.949246   -0.199679    0.436586
C      5.410530   -0.418433    0.738238
F      5.784190   -1.715597    0.431912
F      5.670999   -0.199174    2.079944
F      6.167001    0.458343   -0.016566
C      3.331112   -0.883433   -0.624810
C      1.988408   -0.647342   -0.933723
H     -5.208981    1.765698    0.867853
H     -6.280436    0.423751   -0.910771
H     -4.976800   -1.294579   -2.129043
H     -2.606419   -1.683395   -1.572166
H     -0.814341   -1.475748    0.070538
H     -0.896237   -0.273427    1.388628
H     -0.476186    1.580979   -0.289892
H     -0.389793    0.363697   -1.601167
H      1.308251    1.716746    1.424124
H      3.667865    1.318223    1.958241
H      3.885857   -1.601781   -1.215294
H      1.525916   -1.197973   -1.743665
