31

N     -3.245457   -2.425862   -0.451666
C     -2.955445   -1.036869   -0.310607
C     -3.616981   -0.114599   -1.130370
C     -3.341811    1.250409   -1.019552
C     -2.403278    1.701103   -0.089456
C     -1.739605    0.788591    0.734451
C     -2.011823   -0.587804    0.637788
C     -1.245801   -1.561326    1.504137
C     -0.055051   -2.178637    0.756614
C      0.968682   -1.138371    0.378670
C      0.966418   -0.574945   -0.906576
C      1.882014    0.426706   -1.240263
C      2.825516    0.872233   -0.298495
C      3.777208    1.990241   -0.641893
F      4.099271    1.961587   -1.987820
F      4.949235    1.875408    0.085592
F      3.180791    3.201904   -0.347055
C      2.803347    0.329028    0.997816
C      1.886289   -0.671680    1.331351
H     -4.342850   -0.456189   -1.857693
H     -3.853962    1.958957   -1.657613
H     -2.186412    2.758465   -0.009465
H     -1.004714    1.154171    1.441182
H     -0.884464   -1.057570    2.427798
H     -1.923829   -2.375540    1.839198
H     -0.414698   -2.716201   -0.147972
H      0.422268   -2.940372    1.410752
H      0.244022   -0.899399   -1.645499
H      1.847601    0.858197   -2.232750
H      3.490600    0.683340    1.755804
H      1.882918   -1.074977    2.336505
