25

N     -1.837841   -2.013346    1.649533
C     -1.895308   -0.848839    0.828586
C     -2.824159    0.154259    1.130691
C     -2.892887    1.309260    0.348096
C     -2.032888    1.468572   -0.740060
C     -1.103913    0.472236   -1.050511
C     -1.028626   -0.698516   -0.275008
C      0.015012   -1.742469   -0.600914
C      1.265295   -1.594690    0.276995
C      1.972844   -0.293445    0.023067
C      1.787449    0.850047    0.816366
C      2.491983    1.957053    0.365965
S      3.331558    1.511902   -1.020065
C      2.815732   -0.086411   -1.063720
H     -3.491734    0.040660    1.975683
H     -3.611059    2.082834    0.587428
H     -2.083205    2.366926   -1.341615
H     -0.435793    0.617750   -1.890507
H      0.304422   -1.681190   -1.673373
H     -0.413511   -2.756897   -0.451803
H      0.987380   -1.674045    1.350526
H      1.960409   -2.433409    0.056199
H      1.146850    0.874723    1.688411
H      2.490473    2.937164    0.823089
H      3.081518   -0.820129   -1.813059
