25

N     -1.164357   -1.172739    2.378358
C     -1.923763   -0.537443    1.352047
C     -3.305890   -0.753520    1.292666
C     -4.069701   -0.154913    0.287889
C     -3.455588    0.659167   -0.665814
C     -2.076759    0.880944   -0.614634
C     -1.298703    0.296762    0.400250
C      0.192985    0.523947    0.416284
C      0.914452   -0.578399   -0.364085
C      2.397469   -0.352606   -0.345633
C      3.066798    0.434505   -1.295746
C      4.429582    0.547832   -1.060129
S      4.791467   -0.317530    0.334465
C      3.229233   -0.847347    0.653501
H     -3.788830   -1.389646    2.023918
H     -5.137566   -0.326322    0.245555
H     -4.047940    1.116342   -1.447882
H     -1.614747    1.507515   -1.367686
H      0.428962    1.513408   -0.034789
H      0.564184    0.551471    1.464096
H      0.685798   -1.570275    0.084001
H      0.554902   -0.590380   -1.416540
H      2.571484    0.913400   -2.130414
H      5.132433    1.104153   -1.665255
H      2.924096   -1.458324    1.492703
