25

N     -1.371187   -2.306428    1.087754
C     -2.037755   -1.161279    0.560561
C     -3.397557   -1.250923    0.239012
C     -4.069561   -0.147915   -0.293054
C     -3.385036    1.049302   -0.511022
C     -2.027828    1.148500   -0.193029
C     -1.343232    0.050653    0.357144
C      0.129697    0.170873    0.662156
C      0.967144   -0.284188   -0.536286
C      2.431246   -0.166547   -0.230955
C      3.171523    1.004569   -0.456211
C      4.496707    0.907737   -0.056150
S      4.736234   -0.625944    0.588177
C      3.167532   -1.185006    0.365281
H     -3.934008   -2.178079    0.397819
H     -5.120404   -0.222869   -0.541288
H     -3.905653    1.900691   -0.930086
H     -1.509525    2.081559   -0.377142
H      0.385766   -0.438220    1.556522
H      0.378951    1.226691    0.909762
H      0.722780    0.339925   -1.423896
H      0.725403   -1.340379   -0.787090
H      2.752511    1.901078   -0.894443
H      5.241158    1.687988   -0.137828
H      2.795093   -2.161789    0.644292
