25

N     -1.531627   -1.015111    2.464645
C     -1.710017   -0.238242    1.282279
C     -2.504166    0.913593    1.335570
C     -2.685732    1.697262    0.193594
C     -2.073668    1.334659   -1.007641
C     -1.280884    0.185954   -1.071116
C     -1.095183   -0.615661    0.069351
C     -0.196112   -1.828318   -0.010443
C      1.219356   -1.525325    0.499870
C      1.915631   -0.509345   -0.361135
C      1.959013    0.859647   -0.052512
C      2.600980    1.624651   -1.015498
S      3.100713    0.598113   -2.248629
C      2.513492   -0.825279   -1.576528
H     -2.978750    1.204445    2.264415
H     -3.298607    2.588120    0.240774
H     -2.210285    1.946436   -1.889974
H     -0.803207   -0.073737   -2.007889
H     -0.141824   -2.203798   -1.056269
H     -0.629400   -2.653790    0.594365
H      1.175670   -1.167585    1.551593
H      1.810691   -2.466446    0.498779
H      1.523065    1.284399    0.842459
H      2.743714    2.696107   -0.980955
H      2.577138   -1.810750   -2.018444
