25

N      1.802235   -2.613462    0.272169
C      1.883297   -1.193843    0.165182
C      2.869073   -0.510006    0.886880
C      2.962377    0.881453    0.807186
C      2.070246    1.597198    0.006638
C      1.084351    0.923459   -0.718720
C      0.983491   -0.477691   -0.652825
C     -0.119677   -1.181848   -1.409406
C     -1.327518   -1.482240   -0.511263
C     -1.982175   -0.222164   -0.019354
C     -1.713368    0.343899    1.237063
C     -2.381580    1.538943    1.460780
S     -3.292933    1.890355    0.093276
C     -2.854858    0.533419   -0.795207
H      3.562078   -1.057142    1.513746
H      3.724685    1.405500    1.369082
H      2.139956    2.675847   -0.049059
H      0.392496    1.495359   -1.324872
H      0.265986   -2.136424   -1.827713
H     -0.446247   -0.570026   -2.279296
H     -1.013229   -2.109863    0.350894
H     -2.069170   -2.072114   -1.092112
H     -1.039827   -0.098248    1.959758
H     -2.316709    2.142375    2.355903
H     -3.182981    0.297263   -1.798730
