25

N     -1.131402    1.693006    2.058650
C     -0.874829    0.300389    2.227180
C     -0.849195   -0.237344    3.519728
C     -0.584990   -1.595436    3.712325
C     -0.340333   -2.422568    2.614415
C     -0.364007   -1.895082    1.320517
C     -0.643569   -0.533143    1.111716
C     -0.631554    0.020820   -0.291845
C      0.758449    0.554965   -0.648556
C      0.768570    1.107318   -2.043356
C      1.034728    0.324768   -3.177832
C      0.943411    1.028719   -4.370162
S      0.518187    2.614014   -4.008595
C      0.448059    2.427933   -2.340207
H     -1.030333    0.398791    4.377129
H     -0.564882   -2.005874    4.713647
H     -0.128677   -3.473152    2.766057
H     -0.162806   -2.548540    0.480490
H     -1.385689    0.832174   -0.389001
H     -0.920120   -0.774896   -1.014169
H      1.051673    1.353699    0.067633
H      1.507162   -0.263698   -0.569167
H      1.282501   -0.727810   -3.132703
H      1.108877    0.623057   -5.358965
H      0.190769    3.197891   -1.624925
