25

N     -1.973135   -1.989673   -0.983429
C     -2.297930   -0.675404   -0.535305
C     -3.603011   -0.403348   -0.107238
C     -3.942483    0.871955    0.350663
C     -2.978244    1.881057    0.387630
C     -1.673087    1.619173   -0.037755
C     -1.321981    0.344219   -0.515088
C      0.101297    0.075652   -0.938355
C      0.920732   -0.463179    0.237590
C      2.334925   -0.731785   -0.184986
C      3.347385    0.239476   -0.142135
C      4.567738   -0.210827   -0.625357
S      4.377407   -1.806891   -1.116335
C      2.750556   -1.946551   -0.720211
H     -4.354904   -1.182412   -0.125494
H     -4.952395    1.076690    0.681826
H     -3.241310    2.866630    0.749517
H     -0.934909    2.410556    0.006282
H      0.119300   -0.652952   -1.778158
H      0.566139    1.013477   -1.315970
H      0.463503   -1.403038    0.617707
H      0.916739    0.276393    1.068313
H      3.194741    1.245589    0.226352
H      5.478677    0.369289   -0.683022
H      2.134252   -2.824096   -0.864245
