25

N     -1.413090   -0.411686   -2.493644
C     -2.057999   -0.158674   -1.247173
C     -3.424713   -0.433987   -1.117594
C     -4.076234   -0.209218    0.097442
C     -3.364315    0.287535    1.190976
C     -2.000005    0.565569    1.071270
C     -1.335471    0.358185   -0.150210
C      0.144841    0.634566   -0.246623
C      0.950611   -0.628926    0.067990
C      2.422044   -0.353440   -0.030274
C      3.188514    0.121109    1.045639
C      4.517102    0.353350    0.719363
S      4.727460   -0.017778   -0.906285
C      3.141432   -0.479081   -1.214152
H     -3.982540   -0.826645   -1.958584
H     -5.132561   -0.425061    0.192805
H     -3.869252    0.454259    2.133716
H     -1.460574    0.941551    1.931958
H      0.425472    1.441099    0.466775
H      0.399444    1.002691   -1.264521
H      0.708065   -0.983306    1.093986
H      0.677573   -1.438418   -0.644088
H      2.785678    0.295769    2.034862
H      5.279999    0.718128    1.393600
H      2.748518   -0.807590   -2.167233
