25

N     -1.496020   -2.227635   -0.938976
C     -2.099242   -1.062324   -0.380600
C     -3.454019   -1.097064   -0.028655
C     -4.064423    0.026318    0.534128
C     -3.322947    1.189034    0.752560
C     -1.970255    1.233378    0.404371
C     -1.347460    0.114869   -0.176740
C      0.122027    0.174950   -0.514386
C      0.965594   -0.334123    0.657749
C      2.426132   -0.276418    0.319873
C      3.222484    0.857553    0.543906
C      4.532618    0.708524    0.111609
S      4.689247   -0.824460   -0.559310
C      3.102815   -1.317282   -0.307482
H     -4.034337   -1.997375   -0.187675
H     -5.111640   -0.006198    0.805765
H     -3.795823    2.056111    1.195372
H     -1.407225    2.140002    0.589195
H      0.330553   -0.431425   -1.422837
H      0.411963    1.222392   -0.753110
H      0.769371    0.286935    1.559339
H      0.683124   -1.382268    0.899587
H      2.853683    1.765001    1.004195
H      5.312561    1.454001    0.186614
H      2.681219   -2.272495   -0.591183
