25

N     -1.651519   -1.899988   -1.430736
C     -2.170885   -0.840905   -0.629360
C     -3.513586   -0.471072   -0.773827
C     -4.042304    0.573249   -0.011491
C     -3.230716    1.256726    0.896028
C     -1.889449    0.894702    1.047395
C     -1.348676   -0.164353    0.297335
C      0.110364   -0.516099    0.453803
C      0.961299    0.248883   -0.563728
C      2.411328   -0.103271   -0.408605
C      3.275747    0.569184    0.469373
C      4.561275    0.047106    0.489111
S      4.611700   -1.255034   -0.572298
C      3.009288   -1.170603   -1.070508
H     -4.147859   -0.990978   -1.480942
H     -5.080513    0.856188   -0.128005
H     -3.640268    2.070370    1.480636
H     -1.271257    1.441342    1.748932
H      0.255841   -1.610685    0.322765
H      0.450248   -0.267333    1.483745
H      0.828448    1.343393   -0.417173
H      0.629137    0.001888   -1.595979
H      2.972372    1.410861    1.078378
H      5.383145    0.411229    1.090456
H      2.526840   -1.834803   -1.775308
