25

N      1.150006   -2.105676   -0.021478
C      1.667475   -0.792278    0.180422
C      2.739642   -0.612068    1.062726
C      3.261584    0.664017    1.286322
C      2.713565    1.767961    0.630839
C      1.643285    1.598717   -0.251349
C      1.112159    0.319214   -0.491438
C     -0.063116    0.172689   -1.431556
C     -1.388345    0.555020   -0.759698
C     -1.744011   -0.408673    0.383320
C     -3.231777   -0.560097    0.661650
C     -2.469427   -1.679631   -0.030887
H      3.168289   -1.462402    1.578294
H      4.089949    0.797448    1.970069
H      3.116954    2.756587    0.807984
H      1.225712    2.466242   -0.747579
H     -0.131618   -0.860195   -1.835218
H      0.092995    0.837348   -2.309211
H     -2.183017    0.567709   -1.538475
H     -1.316758    1.584715   -0.348156
H     -1.092145   -0.487052    1.279508
H     -3.920551   -0.003087   -0.009031
H     -3.483527   -0.779397    1.720761
H     -2.261882   -2.555994    0.618619
H     -2.695440   -1.781113   -1.114026
