25

N      1.066850   -1.677408   -1.213692
C      1.645008   -0.681892   -0.372147
C      2.845961   -0.076347   -0.761365
C      3.430859    0.907696    0.038877
C      2.817690    1.293834    1.232020
C      1.618931    0.695796    1.629174
C      1.022292   -0.300995    0.837144
C     -0.288536   -0.910088    1.281314
C     -1.482167    0.000862    0.966358
C     -1.681574    0.172009   -0.547778
C     -3.111424    0.453911   -0.983559
C     -2.496832   -0.915663   -1.229979
H      3.326332   -0.367093   -1.687290
H      4.358859    1.372975   -0.267456
H      3.270387    2.059193    1.849088
H      1.152909    1.010809    2.554789
H     -0.252967   -1.079155    2.379762
H     -0.447047   -1.908619    0.820541
H     -2.387731   -0.432907    1.445869
H     -1.319516    1.002286    1.419634
H     -0.900473    0.660425   -1.168718
H     -3.201015    1.075048   -1.899705
H     -3.880803    0.464067   -0.182033
H     -2.891380   -1.716581   -0.568570
H     -2.214613   -1.102164   -2.287588
