25

N      1.651479   -1.235131    2.265879
C      1.803234   -0.643438    0.977372
C      2.706859   -1.208129    0.069224
C      2.867642   -0.652252   -1.202070
C      2.125405    0.470460   -1.573052
C      1.221963    1.041808   -0.673230
C      1.054601    0.495917    0.611862
C      0.041764    1.103916    1.554481
C     -1.284912    0.334511    1.539767
C     -1.999459    0.470975    0.186611
C     -1.775282   -0.663343   -0.803014
C     -3.095482   -0.555315   -0.056522
H      3.283659   -2.081254    0.347667
H      3.566102   -1.093820   -1.901098
H      2.247400    0.896685   -2.560426
H      0.646181    1.905728   -0.981585
H      0.449327    1.102596    2.588424
H     -0.143384    2.169413    1.293625
H     -1.105784   -0.729717    1.810897
H     -1.947578    0.764866    2.320678
H     -2.196058    1.474234   -0.248669
H     -1.828900   -0.355107   -1.868346
H     -1.121691   -1.492366   -0.456435
H     -3.230577   -1.327857    0.730769
H     -3.936508   -0.193379   -0.684888
