25

N     -0.531837    1.301704   -1.945014
C     -1.397800    0.738276   -0.962071
C     -2.544996    1.444932   -0.581229
C     -3.406832    0.921472    0.385223
C     -3.126023   -0.310645    0.978290
C     -1.983600   -1.023527    0.605350
C     -1.110713   -0.512131   -0.371071
C      0.130926   -1.295316   -0.733729
C      1.247350   -1.116200    0.303243
C      1.758099    0.332672    0.342850
C      3.205238    0.496077    0.782065
C      2.828506    0.679930   -0.680264
H     -2.768369    2.403198   -1.033390
H     -4.291731    1.472577    0.676326
H     -3.793081   -0.713166    1.729633
H     -1.776924   -1.975327    1.079222
H     -0.128534   -2.375044   -0.790999
H      0.506212   -1.014450   -1.741089
H      2.068012   -1.826508    0.058073
H      0.869285   -1.388285    1.312098
H      1.082997    1.161476    0.645490
H      3.422601    1.448115    1.310801
H      3.769357   -0.438904    0.987173
H      2.813999    1.738613   -1.014832
H      3.157856   -0.149540   -1.342149
