25

N     -0.518170    1.954774    1.292982
C     -1.393467    1.018158    0.668378
C     -2.590483    1.477051    0.105307
C     -3.463141    0.583726   -0.520190
C     -3.143500   -0.773431   -0.588448
C     -1.951214   -1.241319   -0.029930
C     -1.066500   -0.354715    0.608887
C      0.227990   -0.888028    1.180246
C      1.289973   -1.104631    0.094398
C      1.722845    0.222213   -0.548848
C      3.139722    0.240278   -1.102012
C      2.816146    0.982503    0.185861
H     -2.844407    2.528778    0.150310
H     -4.386673    0.944256   -0.954484
H     -3.819175   -1.463766   -1.076718
H     -1.715170   -2.296333   -0.096483
H      0.629328   -0.215665    1.968516
H      0.027479   -1.861930    1.677975
H      2.155771   -1.631458    0.553760
H      0.885294   -1.769599   -0.698577
H      0.993609    0.839492   -1.115813
H      3.742239   -0.680978   -0.951095
H      3.284884    0.907191   -1.977991
H      2.760954    2.085616    0.071553
H      3.215669    0.497818    1.102414
