25

N      1.919422   -0.874516   -2.056578
C      1.896355   -0.421437   -0.704621
C      2.984897    0.312740   -0.218658
C      3.021675    0.718395    1.116374
C      1.979549    0.375951    1.978284
C      0.888357   -0.356122    1.503464
C      0.813703   -0.734787    0.149803
C     -0.378785   -1.526697   -0.349409
C     -1.212196   -0.778484   -1.415687
C     -2.341917    0.158988   -0.929622
C     -1.830825    1.513168   -0.449264
C     -2.495592    0.565998    0.531311
H      3.810490    0.559548   -0.874513
H      3.867402    1.282799    1.487456
H      2.021125    0.670218    3.019075
H      0.111733   -0.638653    2.201462
H      0.013894   -2.460390   -0.808008
H     -1.031476   -1.863520    0.483872
H     -0.558981   -0.219131   -2.117073
H     -1.709217   -1.555598   -2.035342
H     -3.243342    0.263848   -1.570934
H     -0.734497    1.609894   -0.299030
H     -2.466057    2.379244   -0.732213
H     -3.523300    0.876331    0.814828
H     -1.802417    0.142215    1.275023
