25

N     -1.060327    1.610517    1.429267
C     -1.616445    0.478933    0.763066
C     -2.622392   -0.258269    1.399522
C     -3.179426   -1.376306    0.774603
C     -2.732784   -1.765385   -0.489438
C     -1.729222   -1.036524   -1.132884
C     -1.164200    0.095120   -0.518879
C     -0.061659    0.847119   -1.229832
C      1.294820    0.143321   -1.094113
C      1.780731    0.123572    0.363685
C      2.524653    1.367323    0.824975
C      3.290985    0.084255    0.541051
H     -2.971998    0.034221    2.381783
H     -3.956153   -1.942928    1.271735
H     -3.162936   -2.634223   -0.970665
H     -1.389715   -1.354990   -2.110878
H      0.019101    1.891619   -0.859686
H     -0.315043    0.921157   -2.309984
H      2.024231    0.661876   -1.755325
H      1.211779   -0.903985   -1.456069
H      1.205780   -0.420238    1.143395
H      2.668284    2.161059    0.060847
H      2.406940    1.595274    1.905317
H      3.900053    0.120238   -0.387502
H      3.634943   -0.442758    1.456008
