25

N      1.352560   -1.356591   -1.688623
C      1.640999   -0.466875   -0.612303
C      2.608411    0.528788   -0.794048
C      2.904061    1.421140    0.238875
C      2.233246    1.324623    1.459208
C      1.265915    0.334756    1.650492
C      0.962514   -0.574517    0.621885
C     -0.117515   -1.608340    0.846616
C     -1.520518   -1.009426    0.688152
C     -1.800594   -0.605446   -0.767067
C     -2.968214    0.353273   -0.943997
C     -1.542631    0.853305   -1.115825
H      3.130390    0.613600   -1.738993
H      3.651876    2.189740    0.092213
H      2.460484    2.019728    2.257131
H      0.748231    0.278886    2.600251
H     -0.020057   -2.013730    1.877425
H      0.002389   -2.474580    0.160993
H     -2.265475   -1.781202    0.977249
H     -1.644103   -0.154221    1.389796
H     -1.675686   -1.341076   -1.590318
H     -3.459517    0.709211   -0.012985
H     -3.520122    0.238272   -1.900737
H     -1.244344    1.022778   -2.171813
H     -1.182301    1.497903   -0.285641
