25

N      1.737007   -2.349257    0.533776
C      1.803805   -1.005307    0.061586
C      2.711609   -0.690485   -0.956675
C      2.845204    0.626504   -1.399310
C      2.085983    1.639612   -0.813322
C      1.176894    1.336247    0.203346
C      0.997139    0.007296    0.631035
C      0.004457   -0.304791    1.733526
C     -1.159652   -1.213534    1.274824
C     -2.411694   -0.540443    0.665912
C     -2.221420   -0.127539   -0.789759
C     -2.439710    0.932172    0.273265
H      3.323975   -1.466798   -1.398278
H      3.551066    0.864625   -2.184527
H      2.208340    2.663979   -1.140842
H      0.627315    2.145846    0.664488
H     -0.390594    0.617724    2.209636
H      0.560724   -0.832983    2.538437
H     -0.803958   -2.003111    0.580873
H     -1.515919   -1.755648    2.177092
H     -3.396443   -1.028762    0.829265
H     -3.105373   -0.293187   -1.441581
H     -1.183853   -0.152098   -1.185595
H     -3.455456    1.379854    0.246126
H     -1.549448    1.550082    0.470373
