25

N      0.024313   -2.428308    0.890697
C      0.989533   -1.425326    0.581475
C      2.045721   -1.200589    1.472669
C      2.999829   -0.217406    1.201245
C      2.902963    0.548241    0.038090
C      1.852593    0.331952   -0.857507
C      0.888509   -0.658710   -0.600571
C     -0.257887   -0.840634   -1.569300
C     -1.344443    0.223575   -1.371606
C     -2.067017    0.049426   -0.027408
C     -2.850083    1.269628    0.432710
C     -1.547704    0.898405    1.123972
H      2.125970   -1.786934    2.379503
H      3.813387   -0.047130    1.894506
H      3.640782    1.312699   -0.168563
H      1.786876    0.940450   -1.751125
H     -0.703409   -1.854997   -1.483285
H      0.131179   -0.760545   -2.607860
H     -2.097229    0.110011   -2.180675
H     -0.898742    1.238026   -1.477417
H     -2.525888   -0.925460    0.243779
H     -3.756038    1.038743    1.031965
H     -2.775811    2.173962   -0.208793
H     -1.679737    0.436903    2.125163
H     -0.697666    1.574016    0.888336
