25

N      1.334102   -2.134132   -1.495837
C      1.663327   -0.963088   -0.751767
C      2.655954   -0.103027   -1.236673
C      2.990863    1.054782   -0.530726
C      2.334818    1.359857    0.663241
C      1.343621    0.507077    1.155798
C      1.000747   -0.664830    0.458278
C     -0.103206   -1.551442    0.986701
C     -1.440118   -1.275815    0.287447
C     -1.975458    0.123248    0.628436
C     -3.063024    0.629774   -0.306597
C     -1.663750    1.220181   -0.379479
H      3.166999   -0.330327   -2.163900
H      3.757562    1.717393   -0.910975
H      2.591926    2.260151    1.206218
H      0.837058    0.764907    2.077685
H      0.171790   -2.617420    0.834327
H     -0.222286   -1.413908    2.084205
H     -2.181997   -2.021611    0.644585
H     -1.328301   -1.423121   -0.809809
H     -2.085887    0.442257    1.687062
H     -3.318770   -0.026448   -1.166165
H     -3.807581    1.301050    0.171091
H     -1.574438    2.234021    0.064328
H     -1.083952    0.910470   -1.275298
