25

N      1.543918   -1.116209    1.460374
C      1.703457    0.090681    0.717760
C      2.444891    1.139297    1.275571
C      2.610594    2.336036    0.574744
C      2.034391    2.492544   -0.687073
C      1.292447    1.452174   -1.252361
C      1.123109    0.239404   -0.561421
C      0.292568   -0.857477   -1.188816
C     -1.211909   -0.601424   -1.031327
C     -1.644236   -0.647155    0.442676
C     -3.087017   -1.066396    0.680329
C     -1.952945   -2.030589    0.993979
H      2.891935    1.027864    2.255539
H      3.184003    3.143593    1.011271
H      2.160692    3.421976   -1.227193
H      0.846958    1.591700   -2.229745
H      0.550033   -1.851945   -0.765434
H      0.530097   -0.912968   -2.273672
H     -1.759446   -1.358322   -1.635850
H     -1.467895    0.396893   -1.446764
H     -1.248119    0.092640    1.170707
H     -3.555417   -0.618636    1.582160
H     -3.677082   -1.343272   -0.219471
H     -1.861147   -2.873378    0.275741
H     -1.743878   -2.147029    2.078275
