25

N      1.066852   -1.677413   -1.213694
C      1.645005   -0.681885   -0.372144
C      2.845949   -0.076327   -0.761375
C      3.430873    0.907667    0.038872
C      2.817696    1.293820    1.232016
C      1.618942    0.695782    1.629171
C      1.022294   -0.300991    0.837137
C     -0.288536   -0.910088    1.281325
C     -1.482162    0.000868    0.966360
C     -1.681563    0.171997   -0.547772
C     -3.111417    0.453902   -0.983550
C     -2.496850   -0.915670   -1.229983
H      3.326331   -0.367092   -1.687278
H      4.358849    1.372979   -0.267452
H      3.270381    2.059208    1.849090
H      1.152907    1.010817    2.554794
H     -0.252969   -1.079151    2.379758
H     -0.447052   -1.908610    0.820532
H     -2.387730   -0.432911    1.445857
H     -1.319520    1.002283    1.419636
H     -0.900478    0.660421   -1.168713
H     -3.201019    1.075051   -1.899711
H     -3.880803    0.464069   -0.182039
H     -2.891371   -1.716570   -0.568566
H     -2.214607   -1.102159   -2.287582
