25

N     -0.824120    1.142527    1.943479
C     -1.542479    0.513195    0.884496
C     -2.744617    1.081874    0.446380
C     -3.465161    0.492035   -0.594628
C     -2.987308   -0.668713   -1.205367
C     -1.788609   -1.243901   -0.775619
C     -1.056207   -0.665015    0.275730
C      0.250577   -1.296637    0.699922
C      1.399730   -0.933987   -0.249669
C      1.718066    0.568858   -0.207564
C      2.664573    1.009022    0.898569
C      3.157035    0.934201   -0.538809
H     -3.120567    1.984399    0.911934
H     -4.393391    0.936538   -0.929749
H     -3.545067   -1.122408   -2.014428
H     -1.428596   -2.141250   -1.263827
H      0.518953   -1.011084    1.739597
H      0.131220   -2.402150    0.704506
H      1.127651   -1.211377   -1.290730
H      2.288336   -1.542427    0.030168
H      0.961672    1.315707   -0.530544
H      3.055466    0.202634    1.555460
H      2.489774    2.042693    1.264499
H      3.850806    0.088400   -0.733170
H      3.282262    1.926865   -1.020639
