25

N     -0.533282    2.167042    0.883351
C     -1.395122    1.164785    0.348339
C     -2.514170    1.557058   -0.396203
C     -3.371145    0.597160   -0.939330
C     -3.113571   -0.760726   -0.743133
C     -1.999337   -1.162488   -0.001881
C     -1.131800   -0.207264    0.556526
C      0.079804   -0.674504    1.331291
C      1.221200   -1.113058    0.404650
C      1.773124    0.065299   -0.412992
C      3.232587   -0.059973   -0.822997
C      2.832690    0.907206    0.280999
H     -2.719350    2.608166   -0.556447
H     -4.234234    0.906191   -1.514717
H     -3.776748   -1.503296   -1.167725
H     -1.810351   -2.220023    0.136278
H     -0.211100   -1.538875    1.967405
H      0.442799    0.112070    2.027024
H      0.855772   -1.893320   -0.297060
H      2.016561   -1.579086    1.027826
H      1.127691    0.596514   -1.144741
H      3.774149   -0.959185   -0.458815
H      3.486957    0.437495   -1.782678
H      3.125479    0.578592    1.301219
H      2.841398    1.974220   -0.026187
