25

N      0.890553   -2.214958   -0.250528
C      1.558319   -0.955542   -0.289231
C      2.629793   -0.780931   -1.173493
C      3.297022    0.444357   -1.239055
C      2.895844    1.503167   -0.422575
C      1.827601    1.339117    0.463070
C      1.151115    0.109264    0.544798
C     -0.017716   -0.028253    1.494265
C     -1.298401    0.595099    0.924111
C     -1.785576   -0.152924   -0.326803
C     -2.651004   -1.375951   -0.065360
C     -3.285144   -0.090234   -0.574236
H      2.945026   -1.595743   -1.813280
H      4.124077    0.573866   -1.925141
H      3.411631    2.453154   -0.477328
H      1.525014    2.172261    1.085577
H      0.231233    0.485701    2.448358
H     -0.202869   -1.092034    1.756164
H     -2.072996    0.592202    1.722942
H     -1.110723    1.656469    0.653895
H     -1.162536   -0.181679   -1.246167
H     -2.869809   -1.599603    1.000804
H     -2.560718   -2.171943   -0.834253
H     -3.891140    0.444793    0.187998
H     -3.578595   -0.129655   -1.644532
