25

N     -1.206085    2.313451   -1.414841
C     -1.571924    1.023977   -0.928232
C     -2.420343    0.219382   -1.698290
C     -2.786699   -1.050958   -1.247648
C     -2.306335   -1.524476   -0.025321
C     -1.460105   -0.728352    0.750835
C     -1.088070    0.554766    0.311903
C     -0.138417    1.382504    1.146797
C      1.305856    1.276352    0.641745
C      1.869077   -0.138977    0.841424
C      3.119147   -0.442814    0.029843
C      1.788679   -1.064600   -0.364020
H     -2.794316    0.577584   -2.649306
H     -3.441253   -1.669816   -1.847709
H     -2.587033   -2.511157    0.319847
H     -1.087835   -1.115919    1.691138
H     -0.453421    2.447987    1.120746
H     -0.183222    1.070049    2.213568
H      1.934285    1.979827    1.228571
H      1.357200    1.598972   -0.421958
H      1.833039   -0.624584    1.840172
H      3.463759    0.355763   -0.661836
H      3.821072   -1.155850    0.511568
H      1.695675   -2.140571   -0.106212
H      1.337269   -0.632539   -1.282784
