25

N      1.311269   -1.009781    1.995924
C      1.623406   -0.308414    0.794298
C      2.565256    0.726668    0.836465
C      2.882935    1.438160   -0.322623
C      2.259772    1.120342   -1.530592
C      1.318241    0.089368   -1.583137
C      0.993295   -0.639721   -0.425676
C     -0.058773   -1.722413   -0.507482
C     -1.477293   -1.139342   -0.500259
C     -1.818452   -0.501696    0.854856
C     -3.008950    0.444739    0.826948
C     -1.599987    1.000826    0.958928
H      3.050204    0.982703    1.770201
H      3.610825    2.238251   -0.283773
H      2.503982    1.675557   -2.427006
H      0.837377   -0.138986   -2.526407
H      0.084191   -2.293908   -1.450529
H      0.051247   -2.456987    0.319020
H     -1.590195   -0.418506   -1.340854
H     -2.196934   -1.966659   -0.678707
H     -1.710912   -1.084084    1.794946
H     -3.471705    0.625967   -0.166965
H     -3.593824    0.480120    1.770272
H     -1.220781    1.504060    0.043784
H     -1.344196    1.353736    1.980120
