25

N      0.278345   -1.572445   -1.791977
C      1.262886   -0.903752   -1.006447
C      2.459064   -0.502032   -1.613279
C      3.437771    0.162251   -0.870535
C      3.225783    0.430806    0.482840
C      2.035327    0.034313    1.097675
C      1.044172   -0.641257    0.364133
C     -0.244114   -1.033557    1.051879
C     -1.207617    0.152551    1.188332
C     -1.691214    0.651555   -0.182364
C     -3.063070    1.308714   -0.183709
C     -2.886818   -0.085842   -0.765379
H      2.630088   -0.702861   -2.663536
H      4.360173    0.471198   -1.345119
H      3.983751    0.948902    1.056051
H      1.883854    0.255428    2.147133
H     -0.007316   -1.415541    2.068949
H     -0.749135   -1.867543    0.519032
H     -0.699608    0.989891    1.713252
H     -2.062215   -0.164231    1.826649
H     -0.971576    1.074121   -0.915699
H     -3.195256    2.099965   -0.951597
H     -3.604852    1.326472    0.786154
H     -2.905526   -0.119721   -1.875097
H     -3.312898   -0.897384   -0.137339
