25

N      0.671341   -0.971644   -2.301232
C      1.332320   -0.338101   -1.208073
C      2.279176    0.658992   -1.471773
C      2.934350    1.304484   -0.420692
C      2.645747    0.958298    0.900443
C      1.702251   -0.035216    1.174164
C      1.039649   -0.698060    0.126063
C     -0.004831   -1.740033    0.456357
C     -1.340793   -1.100517    0.854428
C     -2.002814   -0.389500   -0.335328
C     -3.091538    0.601938    0.046146
C     -1.744364    1.106157   -0.446518
H      2.505862    0.936860   -2.493540
H      3.664394    2.075519   -0.630525
H      3.151261    1.462537    1.713881
H      1.483414   -0.285983    2.204880
H     -0.160071   -2.440676   -0.392070
H      0.358589   -2.358513    1.305944
H     -1.185225   -0.414141    1.716782
H     -2.026536   -1.905340    1.195304
H     -2.183411   -0.933000   -1.287432
H     -3.258315    0.756929    1.133815
H     -3.907210    0.703039   -0.700623
H     -1.106567    1.552127    0.346478
H     -1.756679    1.493843   -1.486878
