32

N     -2.853634   -2.474508   -0.141401
C     -3.416425   -1.169026   -0.029092
C     -4.781895   -0.990343   -0.282160
C     -5.353988    0.280970   -0.193848
C     -4.563515    1.381388    0.143287
C     -3.199778    1.212960    0.397879
C     -2.614528   -0.063398    0.327308
C     -1.133760   -0.216131    0.574121
C     -0.354180   -0.110322   -0.739929
C      1.121572   -0.265871   -0.492639
C      1.711985   -1.553627   -0.501488
C      3.082329   -1.712451   -0.237438
C      3.830229   -0.571207    0.039287
C      5.225522   -0.407267    0.352394
O      6.081131   -1.327169    0.429364
O      5.499746    0.937688    0.563429
C      4.307143    1.714695    0.401359
C      3.270640    0.682451    0.064120
C      1.912248    0.865464   -0.194024
H     -5.400457   -1.837292   -0.551739
H     -6.409736    0.413964   -0.391879
H     -5.007080    2.366814    0.204152
H     -2.598942    2.078495    0.648854
H     -0.785007    0.572627    1.277217
H     -0.926331   -1.194449    1.060156
H     -0.700440   -0.895224   -1.447963
H     -0.554158    0.875329   -1.215599
H      1.109112   -2.428834   -0.709513
H      3.540480   -2.692921   -0.244262
H      4.052961    2.232048    1.350307
H      4.428770    2.437346   -0.432731
H      1.479986    1.857800   -0.161188
