32

N     -3.156935   -2.496601    0.255364
C     -2.865333   -1.106977    0.386507
C     -3.358020   -0.407584    1.494814
C     -3.075113    0.951179    1.652852
C     -2.298103    1.618428    0.704170
C     -1.804375    0.929704   -0.406574
C     -2.086035   -0.437212   -0.580743
C     -1.493903   -1.175434   -1.759742
C     -0.207584   -1.922822   -1.379348
C      0.880106   -0.974780   -0.944594
C      1.658714   -0.295169   -1.913151
C      2.634153    0.635626   -1.519743
C      2.801564    0.869259   -0.157480
C      3.685085    1.759656    0.548368
O      4.533224    2.529753    0.027019
O      3.462731    1.648725    1.914744
C      2.429827    0.689227    2.169150
C      2.050233    0.224232    0.793494
C      1.077980   -0.705664    0.427900
H     -3.957433   -0.918660    2.237827
H     -3.455561    1.486373    2.513246
H     -2.073994    2.669587    0.831736
H     -1.191037    1.459349   -1.125229
H     -2.233835   -1.905514   -2.152667
H     -1.280729   -0.469129   -2.592338
H     -0.422769   -2.660067   -0.575166
H      0.143060   -2.504130   -2.259675
H      1.500539   -0.481523   -2.968042
H      3.230255    1.161186   -2.254364
H      1.567280    1.176129    2.671046
H      2.826674   -0.153057    2.773906
H      0.479334   -1.194089    1.186712
