32

N     -2.792783    2.465279    0.655325
C     -3.386152    1.193433    0.402442
C     -4.759458    1.121196    0.139205
C     -5.361649   -0.110870   -0.126702
C     -4.593698   -1.276888   -0.135601
C     -3.222356   -1.214878    0.126205
C     -2.606611    0.016690    0.410260
C     -1.118803    0.063616    0.657532
C     -0.362814    0.323083   -0.648921
C      1.120058    0.372670   -0.400277
C      1.742218    1.597399   -0.053957
C      3.120073    1.647376    0.214013
C      3.843504    0.460359    0.136521
C      5.239012    0.186609    0.358725
O      6.118419    1.029229    0.676287
O      5.482858   -1.167566    0.170604
C      4.268833   -1.842396   -0.180197
C      3.253256   -0.736878   -0.185423
C      1.886836   -0.811950   -0.454910
H     -5.360840    2.021723    0.136603
H     -6.423364   -0.161102   -0.331023
H     -5.060711   -2.229720   -0.348981
H     -2.639448   -2.127542    0.106064
H     -0.879425    0.857745    1.398086
H     -0.778859   -0.899959    1.098069
H     -0.594766   -0.481180   -1.381804
H     -0.700440    1.284329   -1.095346
H      1.158188    2.507080    0.010137
H      3.602391    2.579716    0.477419
H      4.016740   -2.604580    0.586802
H      4.359281   -2.298421   -1.188455
H      1.430508   -1.763602   -0.697359
