32

N     -3.782812   -0.768080   -1.011251
C     -3.092215   -0.065410    0.019580
C     -3.478421    1.244017    0.330194
C     -2.809011    1.958109    1.326794
C     -1.749809    1.367527    2.018360
C     -1.358994    0.060400    1.717458
C     -2.027733   -0.671779    0.720047
C     -1.551027   -2.063562    0.371736
C     -0.619966   -2.060523   -0.849338
C      0.644776   -1.285347   -0.584021
C      1.711809   -1.888703    0.125631
C      2.870659   -1.156149    0.430688
C      2.929270    0.173141    0.020902
C      3.949567    1.173173    0.195734
O      5.053848    1.011779    0.777720
O      3.533300    2.367400   -0.378091
C      2.229701    2.210267   -0.950966
C      1.900913    0.774729   -0.661363
C      0.741833    0.067680   -0.977993
H     -4.295797    1.711273   -0.204716
H     -3.109330    2.971307    1.560653
H     -1.227671    1.924664    2.785433
H     -0.525798   -0.377193    2.253616
H     -1.025417   -2.521813    1.238492
H     -2.425646   -2.714994    0.158233
H     -1.153516   -1.641080   -1.730209
H     -0.359565   -3.110765   -1.104339
H      1.637853   -2.919828    0.447897
H      3.688340   -1.609597    0.975665
H      1.505452    2.887553   -0.451256
H      2.265148    2.392973   -2.045509
H     -0.069741    0.558832   -1.500346
