32

N     -3.043885   -2.237764    0.130337
C     -3.495210   -0.887173    0.206732
C     -4.853201   -0.609134    0.009165
C     -5.317694    0.707149    0.063664
C     -4.426684    1.753199    0.311258
C     -3.069531    1.485578    0.509944
C     -2.591450    0.163972    0.472776
C     -1.116926   -0.097879    0.657527
C     -0.398194   -0.112988   -0.694826
C      1.071138   -0.377198   -0.509227
C      1.556581   -1.707881   -0.484615
C      2.921548   -1.966050   -0.277240
C      3.770347   -0.878505   -0.089753
C      5.188155   -0.815188    0.150174
O      5.971040   -1.797435    0.230729
O      5.578196    0.510884    0.284479
C      4.444227    1.374569    0.141396
C      3.313694    0.416412   -0.098236
C      1.962837    0.697951   -0.301415
H     -5.549606   -1.413849   -0.191002
H     -6.368187    0.916883   -0.091204
H     -4.787225    2.773162    0.345934
H     -2.390236    2.309435    0.691493
H     -0.672058    0.689663    1.305586
H     -0.963524   -1.067806    1.179130
H     -0.840519   -0.897113   -1.348107
H     -0.543082    0.864082   -1.206782
H      0.876666   -2.539340   -0.622849
H      3.299733   -2.979910   -0.258984
H      4.580777    2.048082   -0.730646
H      4.279607    1.951544    1.075613
H      1.612666    1.722647   -0.295473
