32

N      2.873346   -0.664079    2.313939
C      3.423745   -0.403319    1.024484
C      4.767195   -0.713253    0.780425
C      5.325792   -0.481640   -0.478803
C      4.543456    0.056656   -1.502335
C      3.201691    0.369442   -1.268252
C      2.631184    0.155434   -0.001243
C      1.171908    0.470016    0.218913
C      0.307118   -0.764609   -0.052213
C     -1.147091   -0.450249    0.170599
C     -1.718581   -0.604297    1.457709
C     -3.066481   -0.280416    1.683671
C     -3.810856    0.201031    0.610130
C     -5.184999    0.620651    0.524085
O     -6.020717    0.619944    1.465247
O     -5.463872    1.036552   -0.771251
C     -4.295427    0.911922   -1.590714
C     -3.268594    0.367995   -0.640266
C     -1.932579    0.054115   -0.889068
H      5.378816   -1.138172    1.566545
H      6.364430   -0.724348   -0.662733
H      4.976068    0.228697   -2.479456
H      2.606284    0.777500   -2.075795
H      1.010387    0.824625    1.260317
H      0.858482    1.298066   -0.455039
H      0.617634   -1.596818    0.617335
H      0.461830   -1.107518   -1.099228
H     -1.118198   -0.971187    2.280909
H     -3.510204   -0.397222    2.663845
H     -3.987368    1.906791   -1.975553
H     -4.481252    0.197713   -2.420226
H     -1.513148    0.199975   -1.876721
