32

N     -2.875945   -2.451798   -0.001509
C     -3.423999   -1.141439    0.125876
C     -4.764120   -0.995966    0.504549
C     -5.320248    0.277041    0.651181
C     -4.538707    1.411649    0.424722
C     -3.200261    1.276554    0.046203
C     -2.632405    0.001168   -0.119684
C     -1.176441   -0.120179   -0.496991
C     -0.300842   -0.217051    0.755847
C      1.149972   -0.341788    0.378000
C      1.718311   -1.619584    0.151700
C      3.062715   -1.744491   -0.235292
C      3.806751   -0.578692   -0.395565
C      5.177672   -0.377263   -0.785121
O      6.010140   -1.279921   -1.061559
O      5.457537    0.982674   -0.814868
C      4.292969    1.733122   -0.450289
C      3.267412    0.667605   -0.192408
C      1.934898    0.817247    0.191488
H     -5.375036   -1.870702    0.689571
H     -6.356309    0.384058    0.945516
H     -4.969336    2.397243    0.545883
H     -2.605345    2.166944   -0.116350
H     -0.867516    0.763566   -1.098384
H     -1.021166   -1.015323   -1.138062
H     -0.448868    0.687147    1.386935
H     -0.607254   -1.097396    1.362797
H      1.118176   -2.512852    0.272648
H      3.504038   -2.717438   -0.408148
H      4.487513    2.323015    0.469982
H      3.978037    2.387192   -1.290391
H      1.517654    1.805657    0.338496
