32

N     -2.925451   -2.018473    1.284571
C     -3.448639   -0.863513    0.631907
C     -4.812146   -0.816333    0.317110
C     -5.345987    0.297200   -0.335869
C     -4.519061    1.367631   -0.681989
C     -3.156965    1.329800   -0.371782
C     -2.609849    0.221788    0.298709
C     -1.130459    0.188632    0.594046
C     -0.368527   -0.497318   -0.543756
C      1.105726   -0.532718   -0.246241
C      1.658231   -1.615278    0.481621
C      3.027290   -1.640391    0.794404
C      3.812252   -0.569608    0.375333
C      5.216391   -0.302396    0.544872
O      6.045964   -1.042512    1.134996
O      5.532847    0.913908   -0.045971
C      4.360990    1.499212   -0.626039
C      3.289814    0.493013   -0.319872
C      1.933491    0.540978   -0.641513
H     -5.458915   -1.645617    0.575165
H     -6.400404    0.328094   -0.578265
H     -4.933094    2.226446   -1.194367
H     -2.527665    2.164350   -0.655771
H     -0.748317    1.225474    0.724559
H     -0.943827   -0.345517    1.551236
H     -0.547128    0.048682   -1.496511
H     -0.748322   -1.533793   -0.680706
H      1.027014   -2.433106    0.806338
H      3.456569   -2.464956    1.348555
H      4.490693    1.614541   -1.722669
H      4.136652    2.472529   -0.141182
H      1.530832    1.389250   -1.180920
