32

N     -3.002166   -2.064648   -0.976751
C     -3.482160   -0.834572   -0.438097
C     -4.836390   -0.719077   -0.101647
C     -5.328011    0.470125    0.441894
C     -4.467858    1.548785    0.656507
C     -3.114709    1.443101    0.323668
C     -2.610098    0.257214   -0.238139
C     -1.139252    0.154656   -0.559096
C     -0.367464   -0.428557    0.628284
C      1.098212   -0.533004    0.305681
C      1.607918   -1.699547   -0.315898
C      2.968353   -1.792616   -0.652568
C      3.787910   -0.704646   -0.364443
C      5.193637   -0.493045   -0.590073
O      5.991555   -1.311941   -1.116332
O      5.552374    0.769666   -0.136741
C      4.408473    1.442464    0.402836
C      3.307019    0.437890    0.226125
C      1.960064    0.554268    0.568948
H     -5.508661   -1.553524   -0.257748
H     -6.375410    0.553771    0.701633
H     -4.849118    2.466934    1.084483
H     -2.459164    2.285946    0.505373
H     -0.987907   -0.481165   -1.458645
H     -0.735627    1.161852   -0.805577
H     -0.510851    0.218192    1.522105
H     -0.768384   -1.434909    0.880869
H      0.950190   -2.530163   -0.539926
H      3.365036   -2.681344   -1.125935
H      4.566353    1.668209    1.478401
H      4.195935    2.365347   -0.176715
H      1.590202    1.464338    1.024618
