32

N     -3.273169   -1.693474    1.559939
C     -2.926023   -0.564113    0.761622
C     -3.435419    0.694899    1.101681
C     -3.099503    1.818861    0.343315
C     -2.252501    1.690770   -0.759018
C     -1.741491    0.438161   -1.107868
C     -2.075810   -0.702575   -0.356154
C     -1.465776   -2.037846   -0.717456
C     -0.232015   -2.354037    0.140309
C      0.876587   -1.359594   -0.089799
C      1.726547   -1.491443   -1.215136
C      2.724155   -0.536736   -1.471924
C      2.841653    0.536955   -0.593431
C      3.731972    1.667869   -0.594993
O      4.635646    1.898804   -1.440117
O      3.444969    2.487070    0.489105
C      2.360216    1.938493    1.247144
C      2.021237    0.683062    0.497661
C      1.025620   -0.252627    0.774916
H     -4.089157    0.803831    1.958021
H     -3.493268    2.790414    0.612542
H     -1.987624    2.563763   -1.341390
H     -1.074107    0.359190   -1.957298
H     -1.184899   -2.057513   -1.793674
H     -2.219452   -2.842428   -0.577729
H     -0.515032   -2.376380    1.215457
H      0.130853   -3.373248   -0.115382
H      1.606839   -2.326835   -1.893614
H      3.374814   -0.629177   -2.331759
H      2.692204    1.702893    2.280069
H      1.498924    2.639301    1.249242
H      0.373011   -0.116312    1.628293
