32

N     -2.644195   -2.637286    0.581499
C     -3.309473   -1.426291    0.228614
C     -4.689461   -1.319113    0.439863
C     -5.361668   -0.137963    0.116830
C     -4.657495    0.944172   -0.414722
C     -3.280044    0.846613   -0.629367
C     -2.593984   -0.341632   -0.322800
C     -1.101339   -0.412601   -0.532313
C     -0.357672   -0.002739    0.742300
C      1.130212   -0.076983    0.532823
C      1.823497   -1.287276    0.780875
C      3.206924   -1.376621    0.555186
C      3.864216   -0.246995    0.075310
C      5.247078   -0.027114   -0.258005
O      6.176205   -0.870659   -0.161227
O      5.414505    1.274460   -0.712443
C      4.159640    1.965457   -0.700365
C      3.204730    0.929547   -0.182065
C      1.831348    1.042500    0.033398
H     -5.241755   -2.150990    0.858870
H     -6.428264   -0.059717    0.283436
H     -5.178803    1.861091   -0.657660
H     -2.747279    1.698621   -1.033577
H     -0.805708   -1.442620   -0.829005
H     -0.805065    0.260195   -1.367585
H     -0.651875   -0.670640    1.581724
H     -0.646278    1.033186    1.027473
H      1.290292   -2.156795    1.144671
H      3.743366   -2.297376    0.744160
H      3.881856    2.276853   -1.729263
H      4.206270    2.836442   -0.013390
H      1.320220    1.972272   -0.183244
