32

N      0.903648    0.752391    2.160504
C      1.754295    0.044294    1.261368
C      2.214386   -1.228063    1.620891
C      3.037632   -1.950522    0.754369
C      3.404161   -1.406252   -0.477748
C      2.948931   -0.137833   -0.846682
C      2.125531    0.603789    0.018387
C      1.606003    1.950902   -0.431729
C      0.407827    1.812414   -1.381915
C     -0.779714    1.188358   -0.696255
C     -1.639497    1.984451    0.099601
C     -2.714358    1.402185    0.791168
C     -2.898428    0.027231    0.672934
C     -3.874865   -0.850888    1.262066
O     -4.810593   -0.509342    2.031449
O     -3.631643   -2.156322    0.855351
C     -2.492141   -2.197578   -0.011874
C     -2.070395   -0.759228   -0.089149
C     -0.998656   -0.204151   -0.786910
H      1.930309   -1.660055    2.572338
H      3.389125   -2.934429    1.036922
H      4.038084   -1.969704   -1.150149
H      3.232716    0.265337   -1.811062
H      1.326874    2.585375    0.436823
H      2.418093    2.493573   -0.962958
H      0.127776    2.821393   -1.755387
H      0.700121    1.212624   -2.271875
H     -1.467696    3.049765    0.189697
H     -3.372789    2.003562    1.404373
H     -2.783843   -2.576702   -1.013788
H     -1.688827   -2.818755    0.437333
H     -0.342068   -0.837820   -1.370077
