32

N     -0.782352   -0.059692   -2.263689
C     -1.723249   -0.246081   -1.208502
C     -2.333759   -1.496547   -1.055385
C     -3.248916   -1.712160   -0.022649
C     -3.557669   -0.679594    0.864573
C     -2.952566    0.571634    0.721351
C     -2.034895    0.805217   -0.317714
C     -1.357053    2.153703   -0.414363
C     -0.194945    2.281325    0.581064
C      0.913018    1.307644    0.274156
C      1.872801    1.614733   -0.721279
C      2.874209    0.688930   -1.056980
C      2.885348   -0.531844   -0.387691
C      3.751428   -1.674101   -0.517134
O      4.730009   -1.777330   -1.301936
O      3.344283   -2.668406    0.362824
C      2.199713   -2.230680    1.104848
C      1.958600   -0.847316    0.574881
C      0.956859    0.055963    0.927311
H     -2.095752   -2.304642   -1.735756
H     -3.716713   -2.681443    0.091862
H     -4.263300   -0.850020    1.667382
H     -3.193979    1.358754    1.425105
H     -0.992691    2.348057   -1.446021
H     -2.100985    2.950029   -0.193868
H      0.204152    3.317950    0.535456
H     -0.568286    2.128540    1.617640
H      1.835203    2.564391   -1.240187
H      3.608237    0.915079   -1.819387
H      1.330242   -2.888670    0.895007
H      2.432040   -2.201570    2.190129
H      0.220969   -0.211853    1.675289
