32

N     -3.018698    2.270402   -0.097535
C     -3.489504    0.928089   -0.198342
C     -4.832409    0.698243   -0.521233
C     -5.314362   -0.607397   -0.641022
C     -4.455649   -1.690435   -0.443370
C     -3.113777   -1.471051   -0.120548
C     -2.619485   -0.162207    0.017974
C     -1.159613    0.050700    0.334778
C     -0.343668    0.195249   -0.953245
C      1.110989    0.410522   -0.635715
C      1.608142    1.721715   -0.434235
C      2.957056    1.930645   -0.103220
C      3.777662    0.813522    0.027192
C      5.173301    0.698384    0.359893
O      5.959097    1.651616    0.600898
O      5.537643   -0.641587    0.379196
C      4.407630   -1.463692    0.063721
C      3.308438   -0.464362   -0.152411
C      1.973029   -0.697239   -0.480756
H     -5.503226    1.532647   -0.683685
H     -6.352977   -0.779662   -0.892246
H     -4.829163   -2.701343   -0.543726
H     -2.458872   -2.322192    0.020170
H     -1.034000    0.956911    0.966732
H     -0.772208   -0.809265    0.925107
H     -0.461580   -0.719244   -1.575788
H     -0.728188    1.052323   -1.548936
H      0.949492    2.575833   -0.531093
H      3.344179    2.929549    0.050395
H      4.168621   -2.133107    0.916669
H      4.600147   -2.043563   -0.863323
H      1.611954   -1.710008   -0.609529
