32

N      2.750072   -1.046845    2.334738
C      3.355051   -0.724652    1.084210
C      4.743176   -0.552324    1.021827
C      5.358017   -0.221326   -0.188024
C      4.588302   -0.056138   -1.341141
C      3.202199   -0.226273   -1.288837
C      2.572561   -0.574315   -0.080941
C      1.071245   -0.720576   -0.041241
C      0.409829    0.607278    0.339547
C     -1.086665    0.459144    0.381449
C     -1.727264    0.049519    1.576783
C     -3.120357   -0.125176    1.616341
C     -3.840771    0.107755    0.447960
C     -5.249409    0.008552    0.169297
O     -6.145955   -0.320622    0.989090
O     -5.484248    0.332862   -1.160483
C     -4.250983    0.656827   -1.813486
C     -3.233621    0.492952   -0.721830
C     -1.851917    0.672171   -0.786141
H      5.346565   -0.671063    1.913139
H      6.431266   -0.087791   -0.230589
H      5.065638    0.207435   -2.276127
H      2.618792   -0.085153   -2.190426
H      0.697642   -1.049471   -1.036410
H      0.783396   -1.509959    0.687032
H      0.689883    1.390510   -0.399287
H      0.781348    0.942272    1.333041
H     -1.145948   -0.135726    2.471475
H     -3.616673   -0.436174    2.526407
H     -4.056128   -0.055053   -2.642957
H     -4.271974    1.705484   -2.177634
H     -1.383070    0.965877   -1.717043
