32

N     -2.974362   -1.679171   -2.144346
C     -2.743221   -1.168576   -0.833181
C     -3.146461   -1.923903    0.274571
C     -2.919361   -1.451635    1.569422
C     -2.287849   -0.221932    1.764316
C     -1.884405    0.540257    0.665151
C     -2.111625    0.079123   -0.643990
C     -1.615462    0.893408   -1.817188
C     -0.257638    0.391018   -2.328878
C      0.820256    0.538530   -1.286166
C      1.450475    1.791531   -1.088643
C      2.413289    1.955027   -0.079243
C      2.717640    0.854176    0.716915
C      3.625840    0.709189    1.824069
O      4.369697    1.608466    2.295421
O      3.561855   -0.589903    2.310892
C      2.615055   -1.353267    1.553862
C      2.110746   -0.364990    0.543060
C      1.154115   -0.552640   -0.453577
H     -3.632588   -2.880986    0.132326
H     -3.229981   -2.041063    2.422382
H     -2.106366    0.139305    2.768309
H     -1.382740    1.485128    0.834624
H     -2.355000    0.843848   -2.645157
H     -1.532817    1.966829   -1.537074
H      0.023609    0.975007   -3.232040
H     -0.343796   -0.670376   -2.649133
H      1.186760    2.638189   -1.710067
H      2.896273    2.910374    0.079688
H      1.788894   -1.700921    2.209269
H      3.119835   -2.205899    1.052987
H      0.669331   -1.514145   -0.568582
