      -----------------------------------------------------------      
     |                   =====================                   |     
     |                           x T B                           |     
     |                   =====================                   |     
     |                         S. Grimme                         |     
     |          Mulliken Center for Theoretical Chemistry        |     
     |                    University of Bonn                     |     
      -----------------------------------------------------------      

   * xtb version 6.7.1 (edcfbbe) compiled by 'runner@sat12-gn217-0cbadaec-b866-44ae-a866-732403219ae3-6E01A8DFFD18.local' on 2026-06-10

   xtb is free software: you can redistribute it and/or modify it under
   the terms of the GNU Lesser General Public License as published by
   the Free Software Foundation, either version 3 of the License, or
   (at your option) any later version.
   
   xtb is distributed in the hope that it will be useful,
   but WITHOUT ANY WARRANTY; without even the implied warranty of
   MERCHANTABILITY or FITNESS FOR A PARTICULAR PURPOSE.  See the
   GNU Lesser General Public License for more details.
   
   Cite this work as:
   * C. Bannwarth, E. Caldeweyher, S. Ehlert, A. Hansen, P. Pracht,
     J. Seibert, S. Spicher, S. Grimme, WIREs Comput. Mol. Sci., 2020, 11,
     e01493. DOI: 10.1002/wcms.1493
   
   for GFN2-xTB:
   * C. Bannwarth, S. Ehlert and S. Grimme., J. Chem. Theory Comput., 2019,
     15, 1652-1671. DOI: 10.1021/acs.jctc.8b01176
   for GFN1-xTB:
   * S. Grimme, C. Bannwarth, P. Shushkov, J. Chem. Theory Comput., 2017,
     13, 1989-2009. DOI: 10.1021/acs.jctc.7b00118
   for GFN0-xTB:
   * P. Pracht, E. Caldeweyher, S. Ehlert, S. Grimme, ChemRxiv, 2019, preprint.
     DOI: 10.26434/chemrxiv.8326202.v1
   for GFN-FF:
   * S. Spicher and S. Grimme, Angew. Chem. Int. Ed., 2020, 59, 15665-15673.
     DOI: 10.1002/anie.202004239
   
   for ALPB and GBSA implicit solvation:
   * S. Ehlert, M. Stahn, S. Spicher, S. Grimme, J. Chem. Theory Comput.,
     2021, 17, 4250-4261. DOI: 10.1021/acs.jctc.1c00471
   
   for ddCOSMO and CPCM-X implicit solvation:
   * M. Stahn, S. Ehlert, S. Grimme, J. Phys. Chem. A,
     2023, XX, XXXX-XXXX. DOI: 10.1021/acs.jpca.3c04382
   
   for DFT-D4:
   * E. Caldeweyher, C. Bannwarth and S. Grimme, J. Chem. Phys., 2017,
     147, 034112. DOI: 10.1063/1.4993215
   * E. Caldeweyher, S. Ehlert, A. Hansen, H. Neugebauer, S. Spicher,
     C. Bannwarth and S. Grimme, J. Chem. Phys., 2019, 150, 154122.
     DOI: 10.1063/1.5090222
   * E. Caldeweyher, J.-M. Mewes, S. Ehlert and S. Grimme, Phys. Chem. Chem. Phys.
     2020, 22, 8499-8512. DOI: 10.1039/D0CP00502A
   
   for sTDA-xTB:
   * S. Grimme and C. Bannwarth, J. Chem. Phys., 2016, 145, 054103.
     DOI: 10.1063/1.4959605
   
   in the mass-spec context:
   * V. Asgeirsson, C. Bauer and S. Grimme, Chem. Sci., 2017, 8, 4879.
     DOI: 10.1039/c7sc00601b
   * J. Koopman and S. Grimme, ACS Omega 2019, 4, 12, 15120-15133.
     DOI: 10.1021/acsomega.9b02011
   
   for metadynamics refer to:
   * S. Grimme, J. Chem. Theory Comput., 2019, 155, 2847-2862
     DOI: 10.1021/acs.jctc.9b00143
   
   for SPH calculations refer to:
   * S. Spicher and S. Grimme, J. Chem. Theory Comput., 2021, 17, 1701-1714
     DOI: 10.1021/acs.jctc.0c01306
   
   for ONIOM refer to:
   * C. Plett, A. Katbashev, S. Ehlert, S. Grimme, M. Bursch,
     Phys. Chem. Chem. Phys., 2023, 25, 17860-17868. DOI: 10.1039/D3CP02178E
   
   for DIPRO refer to:
   * J. Kohn, N. Gildemeister, S. Grimme, D. Fazzi, A. Hansen,
     J. Chem. Phys., 2023, just accepted.
   
   for PTB refer to:
   * S. Grimme, M. Mueller, A. Hansen, J. Chem. Phys., 2023, 158, 124111.
     DOI: 10.1063/5.0137838
   
   with help from (in alphabetical order)
   P. Atkinson, C. Bannwarth, F. Bohle, G. Brandenburg, E. Caldeweyher
   M. Checinski, S. Dohm, S. Ehlert, S. Ehrlich, I. Gerasimov, C. Hölzer
   A. Katbashev, J. Kohn, J. Koopman, C. Lavigne, S. Lehtola, F. März, M. Müller,
   F. Musil, H. Neugebauer, J. Pisarek, C. Plett, P. Pracht, F. Pultar,
   J. Seibert, P. Shushkov, S. Spicher, M. Stahn, M. Steiner, T. Strunk,
   J. Stückrath, T. Rose, and J. Unsleber
   
 * started run on 2026/07/31 at 15:14:15.692     
   ID    Z sym.   atoms
    1    7 N      1, 2, 24, 25, 53, 55, 110, 112, 215
    2    6 C      3-5, 7, 9-12, 14, 16-20, 22, 23, 26-28, 30, 32-35, 37,
                  39-43, 45, 46, 49-52, 54, 57, 58, 61, 65, 67, 68, 70, 71,
                  73, 77, 81, 86-89, 91, 92, 106-109, 111, 114, 115, 118,
                  122, 124, 125, 127, 128, 130, 134, 138, 143-146, 148, 149,
                  171-174, 176, 178, 182-185, 187, 189, 193-196, 198, 200,
                  204-207, 209, 211, 216-229
    3    1 H      6, 8, 13, 15, 21, 29, 31, 36, 38, 44, 56, 59, 60, 62, 63,
                  69, 72, 74-76, 78-80, 90, 93-105, 113, 116, 117, 119, 120,
                  126, 129, 131-133, 135-137, 147, 150-166, 175, 177,
                  179-181, 186, 188, 190-192, 197, 199, 201-203, 208, 210,
                  212-214, 230-242
    4   26 Fe     47
    5   17 Cl     48
    6    8 O      64, 66, 82-85, 121, 123, 139-142, 167-170

           -------------------------------------------------
          |                Calculation Setup                |
           -------------------------------------------------

          program call               : /Users/haywoodau3/Documents/genaisubstrate/.chem-env/bin/xtb /Users/haywoodau3/Documents/genaisubstrate/data/jacs_2025/stage3/pilot/reference-optimizations/1a/start-0001/input-assembly.xyz --gfn 2 --alpb ether --opt --input /Users/haywoodau3/Documents/genaisubstrate/data/jacs_2025/stage3/pilot/reference-optimizations/1a/start-0001/xcontrol
          coordinate file            : /Users/haywoodau3/Documents/genaisubstrate/data/jacs_2025/stage3/pilot/reference-optimizations/1a/start-0001/input-assembly.xyz
          omp threads                :                     4


           -------------------------------------------------
          |                 G F N 2 - x T B                 |
           -------------------------------------------------

        Reference                      10.1021/acs.jctc.8b01176
      * Hamiltonian:
        H0-scaling (s, p, d)           1.850000    2.230000    2.230000
        zeta-weighting                 0.500000
      * Dispersion:
        s8                             2.700000
        a1                             0.520000
        a2                             5.000000
        s9                             5.000000
      * Repulsion:
        kExp                           1.500000    1.000000
        rExp                           1.000000
      * Coulomb:
        alpha                          2.000000
        third order                    shell-resolved
        anisotropic                    true
        a3                             3.000000
        a5                             4.000000
        cn-shift                       1.200000
        cn-exp                         4.000000
        max-rad                        5.000000

      * Solvation model:               ALPB
        Solvent                        ether
        Parameter file                 internal GFN2-xTB/ALPB
        Dielectric constant                4.3300E+00
        Reference state                gsolv [1 M gas/solution]
        Free energy shift                  4.9534E-03 Eh       3.1083E+00 kcal/mol
        Temperature                        2.9815E+02 K
        Density                            7.1300E-01 kg/L
        Solvent mass                       7.4120E+01 g/mol
        Interaction kernel             P16
        Born radius scaling (c1)           1.5847E+00
        Born radii integrator          GBOBC
        Born offset                        0.0000E+00 a0       0.0000E+00 AA
        H-bond correction              true
        Ion screening                  false
        Surface tension                    1.0000E-05 Eh       1.5569E+01 dyn/cm
        Grid points                               230 per atom

          ...................................................
          :                      SETUP                      :
          :.................................................:
          :  # basis functions                 677          :
          :  # atomic orbitals                 675          :
          :  # shells                          385          :
          :  # electrons                       713          :
          :  max. iterations                   250          :
          :  Hamiltonian                  GFN2-xTB          :
          :  restarted?                      false          :
          :  GBSA solvation                   true          :
          :  PC potential                    false          :
          :  electronic temp.          300.0000000     K    :
          :  accuracy                    1.0000000          :
          :  -> integral cutoff          0.2500000E+02      :
          :  -> integral neglect         0.1000000E-07      :
          :  -> SCF convergence          0.1000000E-05 Eh   :
          :  -> wf. convergence          0.1000000E-03 e    :
          :  Broyden damping             0.4000000          :
          :  net charge                          0          :
          :  unpaired electrons                  0          :
          ...................................................

 iter      E             dE          RMSdq      gap      omega  full diag
   1   -398.4524754 -0.398452E+03  0.459E+00    0.19       0.0  T
   2   -398.6637581 -0.211283E+00  0.307E+00    0.46       1.0  T
   3   -397.4488367  0.121492E+01  0.316E+00    0.46       1.0  T
   4   -399.0566668 -0.160783E+01  0.162E+00    0.54       1.0  T
   5   -399.2144964 -0.157830E+00  0.765E-01    0.19       1.0  T
   6   -399.2721019 -0.576055E-01  0.687E-01    0.22       1.0  T
   7   -399.3781084 -0.106006E+00  0.288E-01    0.10       1.0  T
   8   -399.3880486 -0.994022E-02  0.149E-01    0.07       1.0  T
   9   -399.3904582 -0.240963E-02  0.929E-02    0.07       1.0  T
  10   -399.3919359 -0.147768E-02  0.523E-02    0.06       1.0  T
  11   -399.3918754  0.604712E-04  0.423E-02    0.06       1.0  T
  12   -399.3921681 -0.292638E-03  0.185E-02    0.06       1.0  T
  13   -399.3921957 -0.276011E-04  0.135E-02    0.06       1.0  T
  14   -399.3922174 -0.217507E-04  0.811E-03    0.06       1.0  T
  15   -399.3922209 -0.348060E-05  0.580E-03    0.06       1.1  T
  16   -399.3922252 -0.429654E-05  0.280E-03    0.06       2.3  T
  17   -399.3922257 -0.517458E-06  0.179E-03    0.06       3.6  T
  18   -399.3922261 -0.383681E-06  0.917E-04    0.06       7.0  T
  19   -399.3922262 -0.124909E-06  0.325E-04    0.06      19.8  T

   *** convergence criteria satisfied after 19 iterations ***

         #    Occupation            Energy/Eh            Energy/eV
      -------------------------------------------------------------
         1        2.0000           -0.9905772             -26.9550
       ...           ...                  ...                  ...
       351        2.0000           -0.3564762              -9.7002
       352        2.0000           -0.3534218              -9.6171
       353        2.0000           -0.3523234              -9.5872
       354        2.0000           -0.3432045              -9.3391
       355        2.0000           -0.3374264              -9.1818
       356        1.9980           -0.3132322              -8.5235
       357        0.7776           -0.3013835              -8.2011 (HOMO)
       358        0.2244           -0.2990252              -8.1369 (LUMO)
       359        0.0000           -0.2854207              -7.7667
       360                         -0.2742779              -7.4635
       361                         -0.2687000              -7.3117
       362                         -0.2599875              -7.0746
       ...                                ...                  ...
       675                          1.4888097              40.5126
      -------------------------------------------------------------
                  HL-Gap            0.0023584 Eh            0.0642 eV
             Fermi-level           -0.3037752 Eh           -8.2661 eV

 SCC (total)                   0 d,  0 h,  0 min,  1.231 sec
 SCC setup                      ...        0 min,  0.003 sec (  0.275%)
 Dispersion                     ...        0 min,  0.004 sec (  0.301%)
 classical contributions        ...        0 min,  0.001 sec (  0.047%)
 integral evaluation            ...        0 min,  0.021 sec (  1.714%)
 iterations                     ...        0 min,  0.972 sec ( 78.983%)
 molecular gradient             ...        0 min,  0.214 sec ( 17.355%)
 printout                       ...        0 min,  0.016 sec (  1.323%)

         :::::::::::::::::::::::::::::::::::::::::::::::::::::
         ::                     SUMMARY                     ::
         :::::::::::::::::::::::::::::::::::::::::::::::::::::
         :: total energy            -394.146719760411 Eh    ::
         :: total w/o Gsasa/hb      -394.036071066500 Eh    ::
         :: gradient norm              0.571517108099 Eh/a0 ::
         :: HOMO-LUMO gap              0.064174446618 eV    ::
         ::.................................................::
         :: SCC energy              -399.367963308208 Eh    ::
         :: -> isotropic ES            0.581011715069 Eh    ::
         :: -> anisotropic ES          0.005498318650 Eh    ::
         :: -> anisotropic XC          0.167584503516 Eh    ::
         :: -> dispersion             -0.362354585064 Eh    ::
         :: -> Gsolv                  -0.188988987099 Eh    ::
         ::    -> Gelec               -0.078340293188 Eh    ::
         ::    -> Gsasa               -0.109507326612 Eh    ::
         ::    -> Ghb                 -0.006094804876 Eh    ::
         ::    -> Gshift               0.004953437577 Eh    ::
         :: repulsion energy           5.221243547797 Eh    ::
         :: add. restraining           0.000000000000 Eh    ::
         :: total charge               0.000000000000 e     ::
         :::::::::::::::::::::::::::::::::::::::::::::::::::::

      ----------------------------------------------------------- 
     |                   =====================                   |
     |                        A N C O P T                        |
     |                   =====================                   |
     |               Approximate Normal Coordinate               |
     |                Rational Function Optimizer                |
      ----------------------------------------------------------- 
      ----------------------------------------------------------- 
     |                   =====================                   |
     |                        A N C O P T                        |
     |                   =====================                   |
     |               Approximate Normal Coordinate               |
     |                Rational Function Optimizer                |
      ----------------------------------------------------------- 

          ...................................................
          :                      SETUP                      :
          :.................................................:
          :   optimization level            normal          :
          :   max. optcycles                   726          :
          :   ANC micro-cycles                  20          :
          :   degrees of freedom               720          :
          :.................................................:
          :   RF solver                   davidson          :
          :   write xtbopt.log                true          :
          :   linear?                        false          :
          :   energy convergence         0.5000000E-05 Eh   :
          :   grad. convergence          0.1000000E-02 Eh/α :
          :   maxmium RF displ.          1.0000000          :
          :   Hlow (freq-cutoff)         0.1000000E-01      :
          :   Hmax (freq-cutoff)         5.0000000          :
          :   S6 in model hess.         20.0000000          :
          ...................................................

generating ANC from exact Hessian ...
Using Lindh-Hessian (1995)
 Shifting diagonal of input Hessian by    9.0391473781087153E-003
 Lowest  eigenvalues of input Hessian
    0.000000    0.000000    0.000000    0.000000    0.000000    0.000000
    0.010000    0.010748    0.011973    0.013103    0.014163    0.014964
    0.017415    0.023188    0.024528    0.029431    0.029631    0.032728
 Highest eigenvalues
    3.094971    3.146955    3.173845    3.208810    3.292753    3.296541


........................................................................
.............................. CYCLE    1 ..............................
........................................................................

 iter      E             dE          RMSdq      gap      omega  full diag
   1   -399.3922262 -0.399392E+03  0.350E-04    0.06       0.0  T
   2   -399.3922259  0.338798E-06  0.124E-03    0.06       5.2  T
   3   -399.3922262 -0.347757E-06  0.240E-04    0.06      26.8  T
   4   -399.3922262 -0.750720E-08  0.162E-04    0.06      39.7  T
     SCC iter.                  ...        0 min,  0.207 sec
     gradient                   ...        0 min,  0.214 sec
 * total energy  :  -394.1467198 Eh     change       -0.7485539E-08 Eh
   gradient norm :     0.5715219 Eh/α   predicted     0.0000000E+00 (-100.00%)
   displ. norm   :     0.5554489 α      lambda       -0.2627873E+00
   maximum displ.:     0.1088699 α      in ANC's #60, #13, #331, ...

........................................................................
.............................. CYCLE    2 ..............................
........................................................................

 iter      E             dE          RMSdq      gap      omega  full diag
   1   -399.7126964 -0.399713E+03  0.297E-01    0.10       0.0  T
   2   -399.6131310  0.995654E-01  0.666E-01    0.27       1.0  T
   3   -399.7200008 -0.106870E+00  0.201E-01    0.09       1.0  T
   4   -399.7223410 -0.234018E-02  0.158E-01    0.08       1.0  T
   5   -399.7242766 -0.193562E-02  0.881E-02    0.09       1.0  T
   6   -399.7252400 -0.963398E-03  0.333E-02    0.08       1.0  T
   7   -399.7254475 -0.207450E-03  0.130E-02    0.08       1.0  T
   8   -399.7254810 -0.335794E-04  0.547E-03    0.08       1.2  T
   9   -399.7254850 -0.397916E-05  0.283E-03    0.08       2.3  T
  10   -399.7254858 -0.755334E-06  0.182E-03    0.08       3.5  T
  11   -399.7254862 -0.462184E-06  0.984E-04    0.08       6.5  T
  12   -399.7254863 -0.564602E-07  0.729E-04    0.08       8.8  T
     SCC iter.                  ...        0 min,  0.621 sec
     gradient                   ...        0 min,  0.215 sec
 * total energy  :  -394.3485886 Eh     change       -0.2018688E+00 Eh
   gradient norm :     0.2965030 Eh/α   predicted    -0.1719767E+00 ( -14.81%)
   displ. norm   :     0.6578514 α      lambda       -0.1621266E+00
   maximum displ.:     0.1803606 α      in ANC's #13, #60, #30, ...

........................................................................
.............................. CYCLE    3 ..............................
........................................................................

 iter      E             dE          RMSdq      gap      omega  full diag
   1   -399.9382626 -0.399938E+03  0.292E-01    0.11       0.0  T
   2   -399.8449185  0.933441E-01  0.657E-01    0.27       1.0  T
   3   -399.9482205 -0.103302E+00  0.192E-01    0.11       1.0  T
   4   -399.9492771 -0.105657E-02  0.166E-01    0.09       1.0  T
   5   -399.9501838 -0.906728E-03  0.911E-02    0.10       1.0  T
   6   -399.9519951 -0.181129E-02  0.406E-02    0.09       1.0  T
   7   -399.9522220 -0.226909E-03  0.131E-02    0.10       1.0  T
   8   -399.9522375 -0.155412E-04  0.711E-03    0.10       1.0  T
   9   -399.9522457 -0.818971E-05  0.379E-03    0.10       1.7  T
  10   -399.9522476 -0.187190E-05  0.213E-03    0.10       3.0  T
  11   -399.9522478 -0.251172E-06  0.166E-03    0.10       3.9  T
  12   -399.9522482 -0.326523E-06  0.114E-03    0.10       5.6  T
  13   -399.9522482 -0.803672E-07  0.761E-04    0.10       8.4  T
  14   -399.9522483 -0.531079E-07  0.457E-04    0.10      14.1  T
     SCC iter.                  ...        0 min,  0.723 sec
     gradient                   ...        0 min,  0.215 sec
 * total energy  :  -394.4762194 Eh     change       -0.1276308E+00 Eh
   gradient norm :     0.1723208 Eh/α   predicted    -0.1161450E+00 (  -9.00%)
   displ. norm   :     0.7323590 α      lambda       -0.1074699E+00
   maximum displ.:     0.2804428 α      in ANC's #13, #30, #41, ...

........................................................................
.............................. CYCLE    4 ..............................
........................................................................

 iter      E             dE          RMSdq      gap      omega  full diag
   1   -400.0614324 -0.400061E+03  0.246E-01    0.10       0.0  T
   2   -399.9988448  0.625875E-01  0.536E-01    0.20       1.0  T
   3   -400.0706690 -0.718242E-01  0.147E-01    0.10       1.0  T
   4   -400.0708222 -0.153234E-03  0.129E-01    0.08       1.0  T
   5   -400.0716434 -0.821188E-03  0.810E-02    0.09       1.0  T
   6   -400.0727635 -0.112011E-02  0.358E-02    0.09       1.0  T
   7   -400.0729818 -0.218317E-03  0.107E-02    0.09       1.0  T
   8   -400.0729941 -0.122795E-04  0.603E-03    0.09       1.1  T
   9   -400.0729984 -0.427062E-05  0.366E-03    0.09       1.8  T
  10   -400.0729997 -0.135325E-05  0.188E-03    0.09       3.4  T
  11   -400.0729999 -0.153342E-06  0.154E-03    0.09       4.2  T
  12   -400.0730001 -0.204643E-06  0.108E-03    0.09       6.0  T
  13   -400.0730002 -0.633028E-07  0.760E-04    0.09       8.5  T
  14   -400.0730003 -0.805068E-07  0.358E-04    0.09      18.0  T
     SCC iter.                  ...        0 min,  0.728 sec
     gradient                   ...        0 min,  0.216 sec
 * total energy  :  -394.5683470 Eh     change       -0.9212766E-01 Eh
   gradient norm :     0.1445823 Eh/α   predicted    -0.8255566E-01 ( -10.39%)
   displ. norm   :     0.8048418 α      lambda       -0.9103587E-01
   maximum displ.:     0.3519906 α      in ANC's #13, #30, #10, ...

........................................................................
.............................. CYCLE    5 ..............................
........................................................................

 iter      E             dE          RMSdq      gap      omega  full diag
   1   -400.1318965 -0.400132E+03  0.223E-01    0.07       0.0  T
   2   -400.0964761  0.354205E-01  0.408E-01    0.14       1.0  T
   3   -400.1401822 -0.437062E-01  0.136E-01    0.08       1.0  T
   4   -400.1408898 -0.707506E-03  0.721E-02    0.07       1.0  T
   5   -400.1416063 -0.716579E-03  0.501E-02    0.07       1.0  T
   6   -400.1419959 -0.389538E-03  0.286E-02    0.07       1.0  T
   7   -400.1420958 -0.999578E-04  0.106E-02    0.07       1.0  T
   8   -400.1421074 -0.115837E-04  0.406E-03    0.07       1.6  T
   9   -400.1421086 -0.114683E-05  0.297E-03    0.07       2.2  T
  10   -400.1421095 -0.968473E-06  0.177E-03    0.07       3.6  T
  11   -400.1421098 -0.267954E-06  0.127E-03    0.07       5.1  T
  12   -400.1421099 -0.121874E-06  0.717E-04    0.07       9.0  T
  13   -400.1421100 -0.528074E-07  0.467E-04    0.07      13.8  T
     SCC iter.                  ...        0 min,  0.673 sec
     gradient                   ...        0 min,  0.214 sec
 * total energy  :  -394.6474135 Eh     change       -0.7906653E-01 Eh
   gradient norm :     0.1226666 Eh/α   predicted    -0.7500309E-01 (  -5.14%)
   displ. norm   :     0.8219131 α      lambda       -0.7363750E-01
   maximum displ.:     0.4055971 α      in ANC's #13, #10, #30, ...

........................................................................
.............................. CYCLE    6 ..............................
........................................................................

 iter      E             dE          RMSdq      gap      omega  full diag
   1   -400.1734887 -0.400173E+03  0.198E-01    0.05       0.0  T
   2   -400.1554625  0.180261E-01  0.304E-01    0.10       1.0  T
   3   -400.1790750 -0.236124E-01  0.133E-01    0.07       1.0  T
   4   -400.1801456 -0.107066E-02  0.580E-02    0.05       1.0  T
   5   -400.1803438 -0.198208E-03  0.344E-02    0.05       1.0  T
   6   -400.1806774 -0.333567E-03  0.883E-03    0.05       1.0  T
   7   -400.1806654  0.119899E-04  0.113E-02    0.05       1.0  T
   8   -400.1806833 -0.179524E-04  0.327E-03    0.05       2.0  T
   9   -400.1806841 -0.748772E-06  0.217E-03    0.05       3.0  T
  10   -400.1806846 -0.538225E-06  0.138E-03    0.05       4.7  T
  11   -400.1806848 -0.135007E-06  0.940E-04    0.05       6.8  T
  12   -400.1806848 -0.542366E-07  0.604E-04    0.05      10.6  T
     SCC iter.                  ...        0 min,  0.624 sec
     gradient                   ...        0 min,  0.214 sec
 * total energy  :  -394.7123996 Eh     change       -0.6498601E-01 Eh
   gradient norm :     0.0946082 Eh/α   predicted    -0.6169135E-01 (  -5.07%)
   displ. norm   :     0.8352690 α      lambda       -0.5945354E-01
   maximum displ.:     0.4524234 α      in ANC's #13, #10, #4, ...

........................................................................
.............................. CYCLE    7 ..............................
........................................................................

 iter      E             dE          RMSdq      gap      omega  full diag
   1   -400.2039376 -0.400204E+03  0.182E-01    0.03       0.0  T
   2   -400.1947350  0.920264E-02  0.235E-01    0.07       1.0  T
   3   -400.2065124 -0.117774E-01  0.136E-01    0.05       1.0  T
   4   -400.2081340 -0.162158E-02  0.498E-02    0.03       1.0  T
   5   -400.2080303  0.103686E-03  0.293E-02    0.03       1.0  T
   6   -400.2083371 -0.306749E-03  0.129E-02    0.03       1.0  T
   7   -400.2083442 -0.712657E-05  0.973E-03    0.03       1.0  T
   8   -400.2083568 -0.125804E-04  0.253E-03    0.03       2.5  T
   9   -400.2083573 -0.537009E-06  0.158E-03    0.03       4.1  T
  10   -400.2083576 -0.317109E-06  0.933E-04    0.03       6.9  T
  11   -400.2083577 -0.443912E-07  0.665E-04    0.03       9.7  T
     SCC iter.                  ...        0 min,  0.569 sec
     gradient                   ...        0 min,  0.214 sec
 * total energy  :  -394.7638477 Eh     change       -0.5144813E-01 Eh
   gradient norm :     0.0687561 Eh/α   predicted    -0.5046638E-01 (  -1.91%)
   displ. norm   :     0.8359125 α      lambda       -0.4506825E-01
   maximum displ.:     0.4858668 α      in ANC's #13, #4, #10, ...

........................................................................
.............................. CYCLE    8 ..............................
........................................................................

 iter      E             dE          RMSdq      gap      omega  full diag
   1   -400.2293984 -0.400229E+03  0.163E-01    0.02       0.0  T
   2   -400.2250961  0.430229E-02  0.183E-01    0.04       1.0  T
   3   -400.2302116 -0.511557E-02  0.123E-01    0.03       1.0  T
   4   -400.2317625 -0.155089E-02  0.474E-02    0.01       1.0  T
   5   -400.2316576  0.104905E-03  0.288E-02    0.01       1.0  T
   6   -400.2318772 -0.219614E-03  0.132E-02    0.01       1.0  T
   7   -400.2318821 -0.486234E-05  0.713E-03    0.01       1.0  T
   8   -400.2318937 -0.115684E-04  0.196E-03    0.01       3.3  T
   9   -400.2318940 -0.297171E-06  0.102E-03    0.01       6.3  T
  10   -400.2318940 -0.794861E-07  0.748E-04    0.01       8.6  T
  11   -400.2318941 -0.485290E-07  0.497E-04    0.01      12.9  T
     SCC iter.                  ...        0 min,  0.596 sec
     gradient                   ...        0 min,  0.214 sec
 * total energy  :  -394.8033900 Eh     change       -0.3954229E-01 Eh
   gradient norm :     0.0522868 Eh/α   predicted    -0.3827984E-01 (  -3.19%)
   displ. norm   :     0.8471949 α      lambda       -0.3506658E-01
   maximum displ.:     0.4948615 α      in ANC's #13, #4, #8, ...

........................................................................
.............................. CYCLE    9 ..............................
........................................................................

 iter      E             dE          RMSdq      gap      omega  full diag
   1   -400.2510191 -0.400251E+03  0.140E-01    0.03       0.0  T
   2   -400.2488076  0.221148E-02  0.147E-01    0.03       1.0  T
   3   -400.2513835 -0.257593E-02  0.102E-01    0.03       1.0  T
   4   -400.2523639 -0.980357E-03  0.450E-02    0.01       1.0  T
   5   -400.2522894  0.744906E-04  0.316E-02    0.01       1.0  T
   6   -400.2524865 -0.197155E-03  0.101E-02    0.01       1.0  T
   7   -400.2524900 -0.351933E-05  0.548E-03    0.01       1.2  T
   8   -400.2524977 -0.767265E-05  0.175E-03    0.01       3.7  T
   9   -400.2524980 -0.311885E-06  0.826E-04    0.01       7.8  T
  10   -400.2524981 -0.290383E-07  0.597E-04    0.01      10.8  T
     SCC iter.                  ...        0 min,  0.525 sec
     gradient                   ...        0 min,  0.214 sec
 * total energy  :  -394.8341258 Eh     change       -0.3073586E-01 Eh
   gradient norm :     0.0431735 Eh/α   predicted    -0.3011769E-01 (  -2.01%)
   displ. norm   :     0.8512729 α      lambda       -0.2776595E-01
   maximum displ.:     0.4766793 α      in ANC's #13, #4, #8, ...

........................................................................
.............................. CYCLE   10 ..............................
........................................................................

 iter      E             dE          RMSdq      gap      omega  full diag
   1   -400.2682665 -0.400268E+03  0.115E-01    0.03       0.0  T
   2   -400.2670845  0.118199E-02  0.118E-01    0.02       1.0  T
   3   -400.2684418 -0.135726E-02  0.814E-02    0.03       1.0  T
   4   -400.2689259 -0.484168E-03  0.402E-02    0.02       1.0  T
   5   -400.2689090  0.169091E-04  0.308E-02    0.02       1.0  T
   6   -400.2690656 -0.156560E-03  0.688E-03    0.02       1.0  T
   7   -400.2690694 -0.385457E-05  0.412E-03    0.02       1.6  T
   8   -400.2690739 -0.442724E-05  0.142E-03    0.02       4.5  T
   9   -400.2690741 -0.219624E-06  0.686E-04    0.02       9.4  T
  10   -400.2690741 -0.260200E-07  0.465E-04    0.02      13.8  T
     SCC iter.                  ...        0 min,  0.520 sec
     gradient                   ...        0 min,  0.213 sec
 * total energy  :  -394.8590699 Eh     change       -0.2494408E-01 Eh
   gradient norm :     0.0374705 Eh/α   predicted    -0.2394349E-01 (  -4.01%)
   displ. norm   :     0.8682069 α      lambda       -0.2363042E-01
   maximum displ.:     0.4792758 α      in ANC's #4, #13, #8, ...

........................................................................
.............................. CYCLE   11 ..............................
........................................................................

 iter      E             dE          RMSdq      gap      omega  full diag
   1   -400.2846039 -0.400285E+03  0.104E-01    0.04       0.0  T
   2   -400.2835810  0.102291E-02  0.112E-01    0.02       1.0  T
   3   -400.2848332 -0.125220E-02  0.681E-02    0.04       1.0  T
   4   -400.2849968 -0.163665E-03  0.370E-02    0.03       1.0  T
   5   -400.2850607 -0.639022E-04  0.301E-02    0.03       1.0  T
   6   -400.2851904 -0.129650E-03  0.536E-03    0.03       1.2  T
   7   -400.2851944 -0.401679E-05  0.337E-03    0.03       1.9  T
   8   -400.2851973 -0.294186E-05  0.110E-03    0.03       5.8  T
   9   -400.2851974 -0.113085E-06  0.555E-04    0.03      11.6  T
  10   -400.2851975 -0.165410E-07  0.376E-04    0.03      17.1  T
     SCC iter.                  ...        0 min,  0.517 sec
     gradient                   ...        0 min,  0.215 sec
 * total energy  :  -394.8805131 Eh     change       -0.2144317E-01 Eh
   gradient norm :     0.0318440 Eh/α   predicted    -0.2072131E-01 (  -3.37%)
   displ. norm   :     0.8787167 α      lambda       -0.2033386E-01
   maximum displ.:     0.5273278 α      in ANC's #4, #13, #7, ...

........................................................................
.............................. CYCLE   12 ..............................
........................................................................

 iter      E             dE          RMSdq      gap      omega  full diag
   1   -400.2998065 -0.400300E+03  0.989E-02    0.05       0.0  T
   2   -400.2986762  0.113028E-02  0.117E-01    0.02       1.0  T
   3   -400.3000972 -0.142097E-02  0.587E-02    0.04       1.0  T
   4   -400.3000250  0.722104E-04  0.399E-02    0.03       1.0  T
   5   -400.3002251 -0.200166E-03  0.271E-02    0.03       1.0  T
   6   -400.3003183 -0.931379E-04  0.445E-03    0.03       1.4  T
   7   -400.3003218 -0.353682E-05  0.277E-03    0.03       2.3  T
   8   -400.3003237 -0.190014E-05  0.849E-04    0.03       7.6  T
   9   -400.3003238 -0.470519E-07  0.484E-04    0.03      13.3  T
  10   -400.3003238 -0.125619E-07  0.338E-04    0.03      19.0  T
     SCC iter.                  ...        0 min,  0.524 sec
     gradient                   ...        0 min,  0.213 sec
 * total energy  :  -394.8990734 Eh     change       -0.1856034E-01 Eh
   gradient norm :     0.0286294 Eh/α   predicted    -0.1801726E-01 (  -2.93%)
   displ. norm   :     0.8838106 α      lambda       -0.1767925E-01
   maximum displ.:     0.5642187 α      in ANC's #4, #13, #7, ...

........................................................................
.............................. CYCLE   13 ..............................
........................................................................

 iter      E             dE          RMSdq      gap      omega  full diag
   1   -400.3145682 -0.400315E+03  0.968E-02    0.06       0.0  T
   2   -400.3133063  0.126187E-02  0.122E-01    0.02       1.0  T
   3   -400.3148904 -0.158411E-02  0.533E-02    0.05       1.0  T
   4   -400.3146310  0.259429E-03  0.489E-02    0.04       1.0  T
   5   -400.3150200 -0.389004E-03  0.179E-02    0.04       1.0  T
   6   -400.3150580 -0.380192E-04  0.402E-03    0.04       1.6  T
   7   -400.3150612 -0.321409E-05  0.234E-03    0.04       2.8  T
   8   -400.3150624 -0.121228E-05  0.757E-04    0.04       8.5  T
   9   -400.3150625 -0.357035E-07  0.472E-04    0.04      13.6  T
  10   -400.3150625 -0.150301E-07  0.316E-04    0.04      20.4  T
     SCC iter.                  ...        0 min,  0.522 sec
     gradient                   ...        0 min,  0.215 sec
 * total energy  :  -394.9153069 Eh     change       -0.1623351E-01 Eh
   gradient norm :     0.0272865 Eh/α   predicted    -0.1574445E-01 (  -3.01%)
   displ. norm   :     0.8875443 α      lambda       -0.1563509E-01
   maximum displ.:     0.5939100 α      in ANC's #4, #13, #7, ...

........................................................................
.............................. CYCLE   14 ..............................
........................................................................

 iter      E             dE          RMSdq      gap      omega  full diag
   1   -400.3282364 -0.400328E+03  0.959E-02    0.07       0.0  T
   2   -400.3269786  0.125779E-02  0.121E-01    0.03       1.0  T
   3   -400.3285336 -0.155499E-02  0.520E-02    0.06       1.0  T
   4   -400.3281602  0.373411E-03  0.575E-02    0.06       1.0  T
   5   -400.3286860 -0.525816E-03  0.102E-02    0.06       1.0  T
   6   -400.3287004 -0.143924E-04  0.374E-03    0.06       1.7  T
   7   -400.3287033 -0.289901E-05  0.200E-03    0.06       3.2  T
   8   -400.3287040 -0.772768E-06  0.760E-04    0.06       8.5  T
   9   -400.3287041 -0.513735E-07  0.458E-04    0.06      14.0  T
     SCC iter.                  ...        0 min,  0.467 sec
     gradient                   ...        0 min,  0.216 sec
 * total energy  :  -394.9297244 Eh     change       -0.1441752E-01 Eh
   gradient norm :     0.0262346 Eh/α   predicted    -0.1397571E-01 (  -3.06%)
   displ. norm   :     0.8880208 α      lambda       -0.1400995E-01
   maximum displ.:     0.6139554 α      in ANC's #4, #13, #7, ...

........................................................................
.............................. CYCLE   15 ..............................
........................................................................

 iter      E             dE          RMSdq      gap      omega  full diag
   1   -400.3426268 -0.400343E+03  0.938E-02    0.09       0.0  T
   2   -400.3415374  0.108939E-02  0.112E-01    0.04       1.0  T
   3   -400.3428606 -0.132312E-02  0.522E-02    0.08       1.0  T
   4   -400.3424977  0.362845E-03  0.601E-02    0.07       1.0  T
   5   -400.3430401 -0.542375E-03  0.766E-03    0.07       1.0  T
   6   -400.3430489 -0.880864E-05  0.319E-03    0.07       2.0  T
   7   -400.3430510 -0.209621E-05  0.164E-03    0.07       3.9  T
   8   -400.3430515 -0.451956E-06  0.727E-04    0.07       8.8  T
   9   -400.3430515 -0.568304E-07  0.441E-04    0.07      14.6  T
     SCC iter.                  ...        0 min,  0.467 sec
     gradient                   ...        0 min,  0.214 sec
 * total energy  :  -394.9426097 Eh     change       -0.1288527E-01 Eh
   gradient norm :     0.0242740 Eh/α   predicted    -0.1252896E-01 (  -2.77%)
   displ. norm   :     0.8846142 α      lambda       -0.1250243E-01
   maximum displ.:     0.6231114 α      in ANC's #4, #13, #7, ...

........................................................................
.............................. CYCLE   16 ..............................
........................................................................

 iter      E             dE          RMSdq      gap      omega  full diag
   1   -400.3537802 -0.400354E+03  0.935E-02    0.10       0.0  T
   2   -400.3529532  0.826957E-03  0.993E-02    0.06       1.0  T
   3   -400.3538744 -0.921183E-03  0.563E-02    0.09       1.0  T
   4   -400.3536496  0.224820E-03  0.582E-02    0.09       1.0  T
   5   -400.3541326 -0.483050E-03  0.699E-03    0.08       1.0  T
   6   -400.3541385 -0.592822E-05  0.243E-03    0.08       2.6  T
   7   -400.3541395 -0.911151E-06  0.130E-03    0.08       4.9  T
   8   -400.3541397 -0.199085E-06  0.721E-04    0.08       8.9  T
   9   -400.3541397 -0.733176E-07  0.416E-04    0.08      15.4  T
     SCC iter.                  ...        0 min,  0.466 sec
     gradient                   ...        0 min,  0.215 sec
 * total energy  :  -394.9539229 Eh     change       -0.1131314E-01 Eh
   gradient norm :     0.0233306 Eh/α   predicted    -0.1114306E-01 (  -1.50%)
   displ. norm   :     0.8840864 α      lambda       -0.1141563E-01
   maximum displ.:     0.6275806 α      in ANC's #4, #13, #7, ...

........................................................................
.............................. CYCLE   17 ..............................
........................................................................

 iter      E             dE          RMSdq      gap      omega  full diag
   1   -400.3679281 -0.400368E+03  0.936E-02    0.11       0.0  T
   2   -400.3673416  0.586519E-03  0.878E-02    0.08       1.0  T
   3   -400.3678502 -0.508530E-03  0.618E-02    0.11       1.0  T
   4   -400.3678325  0.176382E-04  0.525E-02    0.11       1.0  T
   5   -400.3682215 -0.388996E-03  0.619E-03    0.10       1.0  T
   6   -400.3682255 -0.398495E-05  0.199E-03    0.10       3.2  T
   7   -400.3682259 -0.434029E-06  0.105E-03    0.10       6.1  T
   8   -400.3682260 -0.587175E-07  0.633E-04    0.10      10.2  T
   9   -400.3682261 -0.616927E-07  0.343E-04    0.10      18.7  T
     SCC iter.                  ...        0 min,  0.472 sec
     gradient                   ...        0 min,  0.217 sec
 * total energy  :  -394.9633079 Eh     change       -0.9385073E-02 Eh
   gradient norm :     0.0317863 Eh/α   predicted    -0.1016910E-01 (   8.35%)
   displ. norm   :     0.8373694 α      lambda       -0.1006762E-01
   maximum displ.:     0.5884983 α      in ANC's #4, #13, #3, ...

........................................................................
.............................. CYCLE   18 ..............................
........................................................................

 iter      E             dE          RMSdq      gap      omega  full diag
   1   -400.3749168 -0.400375E+03  0.892E-02    0.12       0.0  T
   2   -400.3746403  0.276436E-03  0.704E-02    0.09       1.0  T
   3   -400.3746031  0.372148E-04  0.646E-02    0.12       1.0  T
   4   -400.3748477 -0.244602E-03  0.427E-02    0.11       1.0  T
   5   -400.3750927 -0.244945E-03  0.559E-03    0.11       1.2  T
   6   -400.3750944 -0.176307E-05  0.200E-03    0.11       3.2  T
   7   -400.3750949 -0.411252E-06  0.102E-03    0.11       6.3  T
   8   -400.3750949 -0.311375E-07  0.588E-04    0.11      10.9  T
   9   -400.3750949 -0.484269E-07  0.332E-04    0.11      19.3  T
     SCC iter.                  ...        0 min,  0.498 sec
     gradient                   ...        0 min,  0.218 sec
 * total energy  :  -394.9712348 Eh     change       -0.7926918E-02 Eh
   gradient norm :     0.0228761 Eh/α   predicted    -0.8563476E-02 (   8.03%)
   displ. norm   :     0.8095966 α      lambda       -0.7795084E-02
   maximum displ.:     0.5621338 α      in ANC's #4, #3, #13, ...

........................................................................
.............................. CYCLE   19 ..............................
........................................................................

 iter      E             dE          RMSdq      gap      omega  full diag
   1   -400.3750884 -0.400375E+03  0.898E-02    0.12       0.0  T
   2   -400.3749480  0.140379E-03  0.636E-02    0.10       1.0  T
   3   -400.3745897  0.358359E-03  0.689E-02    0.13       1.0  T
   4   -400.3750498 -0.460171E-03  0.359E-02    0.12       1.0  T
   5   -400.3752019 -0.152033E-03  0.653E-03    0.11       1.0  T
   6   -400.3752068 -0.493278E-05  0.213E-03    0.12       3.0  T
   7   -400.3752074 -0.639629E-06  0.796E-04    0.11       8.1  T
   8   -400.3752074  0.279380E-08  0.495E-04    0.11      13.0  T
     SCC iter.                  ...        0 min,  0.416 sec
     gradient                   ...        0 min,  0.215 sec
 * total energy  :  -394.9771195 Eh     change       -0.5884615E-02 Eh
   gradient norm :     0.0320178 Eh/α   predicted    -0.6452172E-02 (   9.64%)
   displ. norm   :     0.7570433 α      lambda       -0.7065316E-02
   maximum displ.:     0.5088228 α      in ANC's #4, #3, #13, ...

........................................................................
.............................. CYCLE   20 ..............................
........................................................................

 iter      E             dE          RMSdq      gap      omega  full diag
   1   -400.3867791 -0.400387E+03  0.759E-02    0.12       0.0  T
   2   -400.3867574  0.216483E-04  0.486E-02    0.11       1.0  T
   3   -400.3864806  0.276792E-03  0.517E-02    0.13       1.0  T
   4   -400.3867355 -0.254822E-03  0.294E-02    0.12       1.0  T
   5   -400.3868348 -0.992989E-04  0.636E-03    0.12       1.0  T
   6   -400.3868403 -0.556785E-05  0.195E-03    0.12       3.3  T
   7   -400.3868409 -0.583597E-06  0.672E-04    0.12       9.6  T
   8   -400.3868409 -0.323121E-08  0.400E-04    0.12      16.1  T
     SCC iter.                  ...        0 min,  0.426 sec
     gradient                   ...        0 min,  0.216 sec
 * total energy  :  -394.9827395 Eh     change       -0.5620053E-02 Eh
   gradient norm :     0.0234390 Eh/α   predicted    -0.5557282E-02 (  -1.12%)
   displ. norm   :     0.7384377 α      lambda       -0.5816572E-02
   maximum displ.:     0.4408755 α      in ANC's #4, #3, #13, ...
 * RMSD in coord.:     0.8983005 α      energy gain  -0.8360198E+00 Eh

generating ANC from exact Hessian ...
Using Lindh-Hessian (1995)
 Shifting diagonal of input Hessian by    9.7981032599696004E-003
 Lowest  eigenvalues of input Hessian
    0.000000    0.000000    0.000000    0.000000    0.000000    0.000000
    0.010000    0.010243    0.010455    0.010694    0.011009    0.011160
    0.012837    0.013780    0.015442    0.016918    0.018905    0.022447
 Highest eigenvalues
    3.130076    3.201955    3.211621    3.246322    3.330013    3.333772


........................................................................
.............................. CYCLE   21 ..............................
........................................................................

 iter      E             dE          RMSdq      gap      omega  full diag
   1   -400.3973415 -0.400397E+03  0.759E-02    0.11       0.0  T
   2   -400.3973621 -0.205631E-04  0.445E-02    0.11       1.0  T
   3   -400.3973537  0.835323E-05  0.257E-02    0.11       1.0  T
   4   -400.3973495  0.425853E-05  0.122E-02    0.12       1.0  T
   5   -400.3973734 -0.239284E-04  0.458E-03    0.11       1.4  T
   6   -400.3973756 -0.219835E-05  0.252E-03    0.11       2.6  T
   7   -400.3973764 -0.748028E-06  0.693E-04    0.11       9.3  T
   8   -400.3973764 -0.362718E-08  0.401E-04    0.11      16.0  T
     SCC iter.                  ...        0 min,  0.416 sec
     gradient                   ...        0 min,  0.214 sec
 * total energy  :  -394.9876754 Eh     change       -0.4935877E-02 Eh
   gradient norm :     0.0287229 Eh/α   predicted     0.0000000E+00 (-100.00%)
   displ. norm   :     0.4628110 α      lambda       -0.5493129E-02
   maximum displ.:     0.1985012 α      in ANC's #8, #9, #1, ...

........................................................................
.............................. CYCLE   22 ..............................
........................................................................

 iter      E             dE          RMSdq      gap      omega  full diag
   1   -400.4013610 -0.400401E+03  0.629E-02    0.09       0.0  T
   2   -400.4013621 -0.112811E-05  0.389E-02    0.11       1.0  T
   3   -400.4013382  0.239413E-04  0.285E-02    0.09       1.0  T
   4   -400.4013744 -0.362695E-04  0.171E-02    0.10       1.0  T
   5   -400.4014003 -0.259168E-04  0.275E-03    0.10       2.3  T
   6   -400.4014003  0.266760E-08  0.248E-03    0.10       2.6  T
   7   -400.4014011 -0.799878E-06  0.781E-04    0.10       8.2  T
   8   -400.4014012 -0.363429E-07  0.322E-04    0.10      20.0  T
     SCC iter.                  ...        0 min,  0.420 sec
     gradient                   ...        0 min,  0.216 sec
 * total energy  :  -394.9921635 Eh     change       -0.4488073E-02 Eh
   gradient norm :     0.0134115 Eh/α   predicted    -0.3362851E-02 ( -25.07%)
   displ. norm   :     0.7050421 α      lambda       -0.5571536E-02
   maximum displ.:     0.3886673 α      in ANC's #8, #6, #9, ...

........................................................................
.............................. CYCLE   23 ..............................
........................................................................

 iter      E             dE          RMSdq      gap      omega  full diag
   1   -400.3992066 -0.400399E+03  0.871E-02    0.07       0.0  T
   2   -400.3991503  0.563292E-04  0.606E-02    0.10       1.0  T
   3   -400.3991854 -0.351074E-04  0.440E-02    0.07       1.0  T
   4   -400.3992656 -0.802441E-04  0.243E-02    0.09       1.0  T
   5   -400.3993025 -0.369087E-04  0.122E-02    0.08       1.0  T
   6   -400.3993214 -0.188480E-04  0.301E-03    0.08       2.1  T
   7   -400.3993224 -0.989314E-06  0.889E-04    0.08       7.2  T
   8   -400.3993224  0.118113E-07  0.577E-04    0.08      11.1  T
     SCC iter.                  ...        0 min,  0.414 sec
     gradient                   ...        0 min,  0.214 sec
 * total energy  :  -394.9966579 Eh     change       -0.4494453E-02 Eh
   gradient norm :     0.0143565 Eh/α   predicted    -0.4170530E-02 (  -7.21%)
   displ. norm   :     0.7304103 α      lambda       -0.4147152E-02
   maximum displ.:     0.3986021 α      in ANC's #8, #6, #9, ...

........................................................................
.............................. CYCLE   24 ..............................
........................................................................

 iter      E             dE          RMSdq      gap      omega  full diag
   1   -400.3957111 -0.400396E+03  0.840E-02    0.06       0.0  T
   2   -400.3956044  0.106674E-03  0.637E-02    0.09       1.0  T
   3   -400.3956930 -0.885717E-04  0.451E-02    0.06       1.0  T
   4   -400.3957422 -0.492434E-04  0.275E-02    0.08       1.0  T
   5   -400.3957870 -0.447447E-04  0.190E-02    0.07       1.0  T
   6   -400.3958317 -0.447309E-04  0.251E-03    0.07       2.6  T
   7   -400.3958323 -0.582489E-06  0.909E-04    0.07       7.1  T
   8   -400.3958323  0.259992E-07  0.650E-04    0.07       9.9  T
     SCC iter.                  ...        0 min,  0.425 sec
     gradient                   ...        0 min,  0.215 sec
 * total energy  :  -395.0001312 Eh     change       -0.3473269E-02 Eh
   gradient norm :     0.0171576 Eh/α   predicted    -0.3179830E-02 (  -8.45%)
   displ. norm   :     0.7054544 α      lambda       -0.3480088E-02
   maximum displ.:     0.3775349 α      in ANC's #8, #6, #2, ...

........................................................................
.............................. CYCLE   25 ..............................
........................................................................

 iter      E             dE          RMSdq      gap      omega  full diag
   1   -400.3967102 -0.400397E+03  0.785E-02    0.06       0.0  T
   2   -400.3965746  0.135585E-03  0.635E-02    0.08       1.0  T
   3   -400.3966769 -0.102232E-03  0.449E-02    0.05       1.0  T
   4   -400.3966955 -0.186430E-04  0.309E-02    0.07       1.0  T
   5   -400.3967756 -0.800667E-04  0.197E-02    0.06       1.0  T
   6   -400.3968201 -0.445088E-04  0.225E-03    0.06       2.9  T
   7   -400.3968205 -0.407618E-06  0.889E-04    0.06       7.2  T
   8   -400.3968205  0.255705E-07  0.656E-04    0.06       9.8  T
     SCC iter.                  ...        0 min,  0.419 sec
     gradient                   ...        0 min,  0.217 sec
 * total energy  :  -395.0030077 Eh     change       -0.2876559E-02 Eh
   gradient norm :     0.0149417 Eh/α   predicted    -0.2606006E-02 (  -9.41%)
   displ. norm   :     0.6632474 α      lambda       -0.2704133E-02
   maximum displ.:     0.3256071 α      in ANC's #2, #8, #6, ...

........................................................................
.............................. CYCLE   26 ..............................
........................................................................

 iter      E             dE          RMSdq      gap      omega  full diag
   1   -400.4010459 -0.400401E+03  0.728E-02    0.05       0.0  T
   2   -400.4009416  0.104247E-03  0.576E-02    0.07       1.0  T
   3   -400.4009767 -0.350831E-04  0.444E-02    0.05       1.0  T
   4   -400.4010066 -0.299462E-04  0.306E-02    0.06       1.0  T
   5   -400.4010857 -0.790990E-04  0.185E-02    0.06       1.0  T
   6   -400.4011247 -0.389498E-04  0.218E-03    0.06       3.0  T
   7   -400.4011251 -0.375269E-06  0.864E-04    0.06       7.4  T
   8   -400.4011250  0.179594E-07  0.643E-04    0.06      10.0  T
     SCC iter.                  ...        0 min,  0.419 sec
     gradient                   ...        0 min,  0.216 sec
 * total energy  :  -395.0051913 Eh     change       -0.2183584E-02 Eh
   gradient norm :     0.0110209 Eh/α   predicted    -0.1946838E-02 ( -10.84%)
   displ. norm   :     0.6505547 α      lambda       -0.1950520E-02
   maximum displ.:     0.3616380 α      in ANC's #2, #8, #6, ...

........................................................................
.............................. CYCLE   27 ..............................
........................................................................

 iter      E             dE          RMSdq      gap      omega  full diag
   1   -400.4034693 -0.400403E+03  0.696E-02    0.05       0.0  T
   2   -400.4034034  0.659191E-04  0.523E-02    0.06       1.0  T
   3   -400.4034004  0.297641E-05  0.423E-02    0.05       1.0  T
   4   -400.4034283 -0.279057E-04  0.290E-02    0.06       1.0  T
   5   -400.4034923 -0.640112E-04  0.171E-02    0.06       1.0  T
   6   -400.4035279 -0.355369E-04  0.219E-03    0.05       2.9  T
   7   -400.4035283 -0.411174E-06  0.838E-04    0.05       7.7  T
   8   -400.4035283 -0.374450E-08  0.608E-04    0.05      10.6  T
     SCC iter.                  ...        0 min,  0.421 sec
     gradient                   ...        0 min,  0.218 sec
 * total energy  :  -395.0067650 Eh     change       -0.1573693E-02 Eh
   gradient norm :     0.0095316 Eh/α   predicted    -0.1388018E-02 ( -11.80%)
   displ. norm   :     0.6049652 α      lambda       -0.1447470E-02
   maximum displ.:     0.3719590 α      in ANC's #2, #1, #8, ...

........................................................................
.............................. CYCLE   28 ..............................
........................................................................

 iter      E             dE          RMSdq      gap      omega  full diag
   1   -400.4078427 -0.400408E+03  0.640E-02    0.05       0.0  T
   2   -400.4078164  0.263009E-04  0.450E-02    0.06       1.0  T
   3   -400.4078081  0.827913E-05  0.362E-02    0.05       1.0  T
   4   -400.4078281 -0.199791E-04  0.243E-02    0.06       1.0  T
   5   -400.4078678 -0.396768E-04  0.106E-02    0.05       1.0  T
   6   -400.4078826 -0.148806E-04  0.280E-03    0.05       2.3  T
   7   -400.4078835 -0.847378E-06  0.792E-04    0.05       8.1  T
   8   -400.4078835 -0.457646E-08  0.560E-04    0.05      11.5  T
     SCC iter.                  ...        0 min,  0.415 sec
     gradient                   ...        0 min,  0.217 sec
 * total energy  :  -395.0079280 Eh     change       -0.1162962E-02 Eh
   gradient norm :     0.0080918 Eh/α   predicted    -0.9886161E-03 ( -14.99%)
   displ. norm   :     0.6516121 α      lambda       -0.1179469E-02
   maximum displ.:     0.4078426 α      in ANC's #2, #1, #8, ...

........................................................................
.............................. CYCLE   29 ..............................
........................................................................

 iter      E             dE          RMSdq      gap      omega  full diag
   1   -400.4053902 -0.400405E+03  0.693E-02    0.05       0.0  T
   2   -400.4053730  0.172001E-04  0.467E-02    0.06       1.0  T
   3   -400.4053600  0.129247E-04  0.379E-02    0.05       1.0  T
   4   -400.4053793 -0.192810E-04  0.254E-02    0.06       1.0  T
   5   -400.4054294 -0.500429E-04  0.336E-03    0.05       1.9  T
   6   -400.4054306 -0.120070E-05  0.186E-03    0.05       3.5  T
   7   -400.4054311 -0.495478E-06  0.113E-03    0.05       5.7  T
   8   -400.4054311 -0.528810E-07  0.713E-04    0.05       9.0  T
   9   -400.4054312 -0.975509E-07  0.181E-04    0.05      35.4  T
     SCC iter.                  ...        0 min,  0.470 sec
     gradient                   ...        0 min,  0.217 sec
 * total energy  :  -395.0088413 Eh     change       -0.9133534E-03 Eh
   gradient norm :     0.0098659 Eh/α   predicted    -0.8401362E-03 (  -8.02%)
   displ. norm   :     0.6127768 α      lambda       -0.1130770E-02
   maximum displ.:     0.4062684 α      in ANC's #2, #1, #8, ...

........................................................................
.............................. CYCLE   30 ..............................
........................................................................

 iter      E             dE          RMSdq      gap      omega  full diag
   1   -400.4103260 -0.400410E+03  0.668E-02    0.05       0.0  T
   2   -400.4103128  0.132303E-04  0.427E-02    0.05       1.0  T
   3   -400.4102363  0.764777E-04  0.391E-02    0.05       1.0  T
   4   -400.4101947  0.416166E-04  0.352E-02    0.05       1.0  T
   5   -400.4103486 -0.153913E-03  0.971E-03    0.05       1.0  T
   6   -400.4103573 -0.868705E-05  0.225E-03    0.05       2.9  T
   7   -400.4103579 -0.563911E-06  0.743E-04    0.05       8.7  T
   8   -400.4103578  0.753664E-08  0.512E-04    0.05      12.6  T
     SCC iter.                  ...        0 min,  0.418 sec
     gradient                   ...        0 min,  0.216 sec
 * total energy  :  -395.0097127 Eh     change       -0.8714135E-03 Eh
   gradient norm :     0.0087329 Eh/α   predicted    -0.7776894E-03 ( -10.76%)
   displ. norm   :     0.6732780 α      lambda       -0.9747248E-03
   maximum displ.:     0.4493625 α      in ANC's #2, #1, #3, ...

........................................................................
.............................. CYCLE   31 ..............................
........................................................................

 iter      E             dE          RMSdq      gap      omega  full diag
   1   -400.4083756 -0.400408E+03  0.719E-02    0.05       0.0  T
   2   -400.4083665  0.912695E-05  0.445E-02    0.05       1.0  T
   3   -400.4082597  0.106751E-03  0.411E-02    0.05       1.0  T
   4   -400.4081964  0.633627E-04  0.394E-02    0.05       1.0  T
   5   -400.4084014 -0.205025E-03  0.689E-03    0.05       1.0  T
   6   -400.4084060 -0.457888E-05  0.262E-03    0.05       2.5  T
   7   -400.4084065 -0.556233E-06  0.758E-04    0.05       8.5  T
   8   -400.4084065  0.760565E-10  0.516E-04    0.05      12.5  T
     SCC iter.                  ...        0 min,  0.419 sec
     gradient                   ...        0 min,  0.216 sec
 * total energy  :  -395.0105077 Eh     change       -0.7950008E-03 Eh
   gradient norm :     0.0089049 Eh/α   predicted    -0.7082949E-03 ( -10.91%)
   displ. norm   :     0.6525656 α      lambda       -0.9407067E-03
   maximum displ.:     0.4454460 α      in ANC's #2, #3, #6, ...

........................................................................
.............................. CYCLE   32 ..............................
........................................................................

 iter      E             dE          RMSdq      gap      omega  full diag
   1   -400.4099669 -0.400410E+03  0.692E-02    0.06       0.0  T
   2   -400.4099311  0.357974E-04  0.446E-02    0.05       1.0  T
   3   -400.4096975  0.233582E-03  0.516E-02    0.06       1.0  T
   4   -400.4099059 -0.208395E-03  0.287E-02    0.05       1.0  T
   5   -400.4099947 -0.887735E-04  0.427E-03    0.05       1.5  T
   6   -400.4099961 -0.143028E-05  0.237E-03    0.06       2.7  T
   7   -400.4099966 -0.548506E-06  0.674E-04    0.05       9.5  T
   8   -400.4099966  0.258768E-07  0.524E-04    0.05      12.3  T
     SCC iter.                  ...        0 min,  0.420 sec
     gradient                   ...        0 min,  0.215 sec
 * total energy  :  -395.0113006 Eh     change       -0.7928601E-03 Eh
   gradient norm :     0.0062838 Eh/α   predicted    -0.6706507E-03 ( -15.41%)
   displ. norm   :     0.6614679 α      lambda       -0.8615771E-03
   maximum displ.:     0.4461902 α      in ANC's #2, #3, #6, ...

........................................................................
.............................. CYCLE   33 ..............................
........................................................................

 iter      E             dE          RMSdq      gap      omega  full diag
   1   -400.4089543 -0.400409E+03  0.730E-02    0.06       0.0  T
   2   -400.4089498  0.448973E-05  0.444E-02    0.06       1.0  T
   3   -400.4088238  0.125971E-03  0.415E-02    0.06       1.0  T
   4   -400.4088144  0.936728E-05  0.361E-02    0.06       1.0  T
   5   -400.4089760 -0.161581E-03  0.496E-03    0.06       1.3  T
   6   -400.4089780 -0.201591E-05  0.254E-03    0.06       2.5  T
   7   -400.4089786 -0.570156E-06  0.677E-04    0.06       9.5  T
   8   -400.4089786  0.264913E-07  0.475E-04    0.06      13.5  T
     SCC iter.                  ...        0 min,  0.422 sec
     gradient                   ...        0 min,  0.213 sec
 * total energy  :  -395.0120136 Eh     change       -0.7129954E-03 Eh
   gradient norm :     0.0083469 Eh/α   predicted    -0.6192774E-03 ( -13.14%)
   displ. norm   :     0.6277527 α      lambda       -0.8711945E-03
   maximum displ.:     0.4061755 α      in ANC's #2, #3, #6, ...

........................................................................
.............................. CYCLE   34 ..............................
........................................................................

 iter      E             dE          RMSdq      gap      omega  full diag
   1   -400.4141675 -0.400414E+03  0.723E-02    0.07       0.0  T
   2   -400.4141348  0.327909E-04  0.472E-02    0.06       1.0  T
   3   -400.4139349  0.199812E-03  0.545E-02    0.07       1.0  T
   4   -400.4141309 -0.195920E-03  0.231E-02    0.06       1.0  T
   5   -400.4141727 -0.417955E-04  0.136E-02    0.06       1.0  T
   6   -400.4141921 -0.194266E-04  0.215E-03    0.06       3.0  T
   7   -400.4141925 -0.433337E-06  0.476E-04    0.06      13.5  T
   8   -400.4141925  0.210190E-08  0.257E-04    0.06      25.0  T
     SCC iter.                  ...        0 min,  0.419 sec
     gradient                   ...        0 min,  0.214 sec
 * total energy  :  -395.0126069 Eh     change       -0.5932490E-03 Eh
   gradient norm :     0.0104783 Eh/α   predicted    -0.6072560E-03 (   2.36%)
   displ. norm   :     0.6998094 α      lambda       -0.8536023E-03
   maximum displ.:     0.4474020 α      in ANC's #2, #3, #6, ...

........................................................................
.............................. CYCLE   35 ..............................
........................................................................

 iter      E             dE          RMSdq      gap      omega  full diag
   1   -400.4057838 -0.400406E+03  0.805E-02    0.08       0.0  T
   2   -400.4057752  0.861734E-05  0.489E-02    0.07       1.0  T
   3   -400.4055570  0.218176E-03  0.496E-02    0.07       1.0  T
   4   -400.4056979 -0.140899E-03  0.327E-02    0.07       1.0  T
   5   -400.4058001 -0.102191E-03  0.101E-02    0.07       1.0  T
   6   -400.4058115 -0.113363E-04  0.224E-03    0.07       2.9  T
   7   -400.4058118 -0.301791E-06  0.673E-04    0.07       9.6  T
   8   -400.4058117  0.262597E-07  0.493E-04    0.07      13.1  T
     SCC iter.                  ...        0 min,  0.418 sec
     gradient                   ...        0 min,  0.215 sec
 * total energy  :  -395.0131158 Eh     change       -0.5088976E-03 Eh
   gradient norm :     0.0107724 Eh/α   predicted    -0.6358222E-03 (  24.94%)
   displ. norm   :     0.3652078 α      lambda       -0.4856406E-03
   maximum displ.:     0.2261359 α      in ANC's #3, #2, #6, ...

........................................................................
.............................. CYCLE   36 ..............................
........................................................................

 iter      E             dE          RMSdq      gap      omega  full diag
   1   -400.4082321 -0.400408E+03  0.463E-02    0.08       0.0  T
   2   -400.4082284  0.378084E-05  0.282E-02    0.08       1.0  T
   3   -400.4081285  0.998826E-04  0.318E-02    0.08       1.0  T
   4   -400.4082143 -0.858574E-04  0.155E-02    0.08       1.0  T
   5   -400.4082360 -0.216128E-04  0.538E-03    0.08       1.2  T
   6   -400.4082394 -0.339924E-05  0.877E-04    0.08       7.3  T
   7   -400.4082394 -0.365196E-07  0.372E-04    0.08      17.3  T
   8   -400.4082394 -0.174373E-08  0.212E-04    0.08      30.3  T
     SCC iter.                  ...        0 min,  0.420 sec
     gradient                   ...        0 min,  0.217 sec
 * total energy  :  -395.0134927 Eh     change       -0.3769360E-03 Eh
   gradient norm :     0.0091884 Eh/α   predicted    -0.2752134E-03 ( -26.99%)
   displ. norm   :     0.5122343 α      lambda       -0.6809373E-03
   maximum displ.:     0.3031811 α      in ANC's #3, #2, #6, ...

........................................................................
.............................. CYCLE   37 ..............................
........................................................................

 iter      E             dE          RMSdq      gap      omega  full diag
   1   -400.4103712 -0.400410E+03  0.679E-02    0.09       0.0  T
   2   -400.4103608  0.104374E-04  0.414E-02    0.08       1.0  T
   3   -400.4101575  0.203306E-03  0.468E-02    0.09       1.0  T
   4   -400.4103375 -0.180060E-03  0.220E-02    0.08       1.0  T
   5   -400.4103739 -0.363145E-04  0.926E-03    0.08       1.0  T
   6   -400.4103851 -0.112505E-04  0.144E-03    0.08       4.5  T
   7   -400.4103852 -0.138946E-06  0.472E-04    0.08      13.6  T
   8   -400.4103852  0.802447E-08  0.365E-04    0.08      17.6  T
     SCC iter.                  ...        0 min,  0.416 sec
     gradient                   ...        0 min,  0.218 sec
 * total energy  :  -395.0137982 Eh     change       -0.3055129E-03 Eh
   gradient norm :     0.0125119 Eh/α   predicted    -0.4298056E-03 (  40.68%)
   displ. norm   :     0.3429482 α      lambda       -0.4429599E-03
   maximum displ.:     0.2127150 α      in ANC's #3, #1, #6, ...

........................................................................
.............................. CYCLE   38 ..............................
........................................................................

 iter      E             dE          RMSdq      gap      omega  full diag
   1   -400.4125128 -0.400413E+03  0.472E-02    0.09       0.0  T
   2   -400.4125085  0.435279E-05  0.292E-02    0.09       1.0  T
   3   -400.4124406  0.678693E-04  0.322E-02    0.09       1.0  T
   4   -400.4125181 -0.775243E-04  0.626E-03    0.09       1.0  T
   5   -400.4125192 -0.111472E-05  0.294E-03    0.09       2.2  T
   6   -400.4125205 -0.128136E-05  0.786E-04    0.09       8.2  T
   7   -400.4125205 -0.731109E-08  0.490E-04    0.09      13.1  T
   8   -400.4125206 -0.285335E-07  0.196E-04    0.09      32.8  T
     SCC iter.                  ...        0 min,  0.416 sec
     gradient                   ...        0 min,  0.214 sec
 * total energy  :  -395.0139858 Eh     change       -0.1875571E-03 Eh
   gradient norm :     0.0089164 Eh/α   predicted    -0.2475307E-03 (  31.98%)
   displ. norm   :     0.2660605 α      lambda       -0.2344151E-03
   maximum displ.:     0.1558915 α      in ANC's #3, #2, #6, ...

........................................................................
.............................. CYCLE   39 ..............................
........................................................................

 iter      E             dE          RMSdq      gap      omega  full diag
   1   -400.4080137 -0.400408E+03  0.343E-02    0.09       0.0  T
   2   -400.4080159 -0.223194E-05  0.201E-02    0.09       1.0  T
   3   -400.4080098  0.606728E-05  0.117E-02    0.09       1.0  T
   4   -400.4080101 -0.271741E-06  0.966E-03    0.09       1.0  T
   5   -400.4080180 -0.786930E-05  0.119E-03    0.09       5.4  T
   6   -400.4080180 -0.346877E-07  0.859E-04    0.09       7.5  T
   7   -400.4080181 -0.744752E-07  0.433E-04    0.09      14.8  T
     SCC iter.                  ...        0 min,  0.366 sec
     gradient                   ...        0 min,  0.218 sec
 * total energy  :  -395.0140616 Eh     change       -0.7585673E-04 Eh
   gradient norm :     0.0084989 Eh/α   predicted    -0.1255061E-03 (  65.45%)
   displ. norm   :     0.1126145 α      lambda       -0.1728280E-03
   maximum displ.:     0.0595602 α      in ANC's #1, #2, #8, ...

........................................................................
.............................. CYCLE   40 ..............................
........................................................................

 iter      E             dE          RMSdq      gap      omega  full diag
   1   -400.4109939 -0.400411E+03  0.145E-02    0.09       0.0  T
   2   -400.4109881  0.582165E-05  0.111E-02    0.09       1.0  T
   3   -400.4109751  0.130224E-04  0.134E-02    0.09       1.0  T
   4   -400.4109949 -0.198269E-04  0.363E-03    0.09       1.8  T
   5   -400.4109959 -0.984096E-06  0.115E-03    0.09       5.6  T
   6   -400.4109960 -0.132501E-06  0.277E-04    0.09      23.2  T
   7   -400.4109960 -0.725692E-08  0.148E-04    0.09      43.4  T
     SCC iter.                  ...        0 min,  0.370 sec
     gradient                   ...        0 min,  0.216 sec
 * total energy  :  -395.0141626 Eh     change       -0.1009659E-03 Eh
   gradient norm :     0.0044404 Eh/α   predicted    -0.8750985E-04 ( -13.33%)
   displ. norm   :     0.1879415 α      lambda       -0.1180585E-03
   maximum displ.:     0.0950832 α      in ANC's #1, #3, #8, ...

........................................................................
.............................. CYCLE   41 ..............................
........................................................................

 iter      E             dE          RMSdq      gap      omega  full diag
   1   -400.4137634 -0.400414E+03  0.226E-02    0.09       0.0  T
   2   -400.4137527  0.107616E-04  0.160E-02    0.09       1.0  T
   3   -400.4137074  0.452785E-04  0.221E-02    0.09       1.0  T
   4   -400.4137649 -0.574565E-04  0.413E-03    0.09       1.6  T
   5   -400.4137663 -0.148311E-05  0.255E-03    0.09       2.5  T
   6   -400.4137669 -0.576061E-06  0.581E-04    0.09      11.1  T
   7   -400.4137670 -0.436075E-07  0.190E-04    0.09      33.7  T
     SCC iter.                  ...        0 min,  0.372 sec
     gradient                   ...        0 min,  0.215 sec
 * total energy  :  -395.0142305 Eh     change       -0.6790257E-04 Eh
   gradient norm :     0.0037602 Eh/α   predicted    -0.6112014E-04 (  -9.99%)
   displ. norm   :     0.3271781 α      lambda       -0.1127480E-03
   maximum displ.:     0.2171397 α      in ANC's #3, #6, #1, ...

........................................................................
.............................. CYCLE   42 ..............................
........................................................................

 iter      E             dE          RMSdq      gap      omega  full diag
   1   -400.4121209 -0.400412E+03  0.400E-02    0.10       0.0  T
   2   -400.4121132  0.770817E-05  0.249E-02    0.09       1.0  T
   3   -400.4119897  0.123533E-03  0.331E-02    0.10       1.0  T
   4   -400.4121134 -0.123736E-03  0.101E-02    0.10       1.0  T
   5   -400.4121234 -0.997247E-05  0.509E-03    0.09       1.3  T
   6   -400.4121257 -0.230231E-05  0.852E-04    0.10       7.5  T
   7   -400.4121258 -0.719537E-07  0.245E-04    0.10      26.3  T
   8   -400.4121258 -0.470891E-09  0.122E-04    0.10      52.8  T
     SCC iter.                  ...        0 min,  0.423 sec
     gradient                   ...        0 min,  0.218 sec
 * total energy  :  -395.0142883 Eh     change       -0.5778694E-04 Eh
   gradient norm :     0.0041863 Eh/α   predicted    -0.6241091E-04 (   8.00%)
   displ. norm   :     0.1276866 α      lambda       -0.7521096E-04
   maximum displ.:     0.0606533 α      in ANC's #3, #2, #8, ...
 * RMSD in coord.:     0.5544589 α      energy gain  -0.3154876E-01 Eh

generating ANC from exact Hessian ...
Using Lindh-Hessian (1995)
 Shifting diagonal of input Hessian by    9.9429877160693101E-003
 Lowest  eigenvalues of input Hessian
    0.000000    0.000000    0.000000    0.000000    0.000000    0.000000
    0.010000    0.010230    0.010698    0.010853    0.010941    0.011556
    0.012040    0.013134    0.015291    0.016208    0.017405    0.021798
 Highest eigenvalues
    3.132737    3.202027    3.211751    3.246436    3.330174    3.333884


........................................................................
.............................. CYCLE   43 ..............................
........................................................................

 iter      E             dE          RMSdq      gap      omega  full diag
   1   -400.4131571 -0.400413E+03  0.128E-02    0.09       0.0  T
   2   -400.4131547  0.244297E-05  0.880E-03    0.09       1.0  T
   3   -400.4131378  0.168818E-04  0.127E-02    0.10       1.0  T
   4   -400.4131578 -0.199470E-04  0.280E-03    0.09       2.3  T
   5   -400.4131581 -0.347866E-06  0.619E-04    0.09      10.4  T
   6   -400.4131581 -0.210763E-07  0.387E-04    0.09      16.6  T
     SCC iter.                  ...        0 min,  0.316 sec
     gradient                   ...        0 min,  0.215 sec
 * total energy  :  -395.0143320 Eh     change       -0.4370051E-04 Eh
   gradient norm :     0.0038638 Eh/α   predicted     0.0000000E+00 (-100.00%)
   displ. norm   :     0.0447263 α      lambda       -0.3929466E-04
   maximum displ.:     0.0263502 α      in ANC's #3, #8, #5, ...

........................................................................
.............................. CYCLE   44 ..............................
........................................................................

 iter      E             dE          RMSdq      gap      omega  full diag
   1   -400.4123172 -0.400412E+03  0.624E-03    0.09       0.0  T
   2   -400.4123162  0.105079E-05  0.478E-03    0.09       1.3  T
   3   -400.4123151  0.100360E-05  0.486E-03    0.09       1.3  T
   4   -400.4123171 -0.199519E-05  0.232E-03    0.09       2.8  T
   5   -400.4123176 -0.462884E-06  0.546E-04    0.09      11.8  T
   6   -400.4123176 -0.350992E-07  0.168E-04    0.09      38.2  T
     SCC iter.                  ...        0 min,  0.316 sec
     gradient                   ...        0 min,  0.217 sec
 * total energy  :  -395.0143676 Eh     change       -0.3567738E-04 Eh
   gradient norm :     0.0016536 Eh/α   predicted    -0.2226546E-04 ( -37.59%)
   displ. norm   :     0.1865271 α      lambda       -0.7040861E-04
   maximum displ.:     0.1078059 α      in ANC's #3, #8, #5, ...

........................................................................
.............................. CYCLE   45 ..............................
........................................................................

 iter      E             dE          RMSdq      gap      omega  full diag
   1   -400.4104611 -0.400410E+03  0.221E-02    0.09       0.0  T
   2   -400.4104443  0.168073E-04  0.173E-02    0.09       1.0  T
   3   -400.4104236  0.207294E-04  0.194E-02    0.09       1.0  T
   4   -400.4104630 -0.394503E-04  0.518E-03    0.09       1.2  T
   5   -400.4104655 -0.253787E-05  0.155E-03    0.09       4.1  T
   6   -400.4104659 -0.308329E-06  0.544E-04    0.09      11.8  T
   7   -400.4104659 -0.291052E-07  0.177E-04    0.09      36.3  T
     SCC iter.                  ...        0 min,  0.368 sec
     gradient                   ...        0 min,  0.239 sec
 * total energy  :  -395.0144267 Eh     change       -0.5907554E-04 Eh
   gradient norm :     0.0041684 Eh/α   predicted    -0.3575027E-04 ( -39.48%)
   displ. norm   :     0.0792332 α      lambda       -0.3324183E-04
   maximum displ.:     0.0465273 α      in ANC's #3, #8, #5, ...

........................................................................
.............................. CYCLE   46 ..............................
........................................................................

 iter      E             dE          RMSdq      gap      omega  full diag
   1   -400.4105377 -0.400411E+03  0.941E-03    0.09       0.0  T
   2   -400.4105360  0.178304E-05  0.714E-03    0.09       1.0  T
   3   -400.4105344  0.151463E-05  0.681E-03    0.09       1.0  T
   4   -400.4105357 -0.126275E-05  0.435E-03    0.09       1.5  T
   5   -400.4105384 -0.273177E-05  0.867E-04    0.09       7.4  T
   6   -400.4105385 -0.791973E-07  0.151E-04    0.09      42.5  T
   7   -400.4105385 -0.331835E-08  0.719E-05    0.09      89.4  T
     SCC iter.                  ...        0 min,  0.370 sec
     gradient                   ...        0 min,  0.255 sec
 * total energy  :  -395.0144569 Eh     change       -0.3018057E-04 Eh
   gradient norm :     0.0035640 Eh/α   predicted    -0.1672599E-04 ( -44.58%)
   displ. norm   :     0.2156157 α      lambda       -0.8705161E-04
   maximum displ.:     0.1219392 α      in ANC's #3, #5, #8, ...

........................................................................
.............................. CYCLE   47 ..............................
........................................................................

 iter      E             dE          RMSdq      gap      omega  full diag
   1   -400.4107806 -0.400411E+03  0.258E-02    0.09       0.0  T
   2   -400.4107739  0.671004E-05  0.181E-02    0.09       1.0  T
   3   -400.4107634  0.105141E-04  0.171E-02    0.09       1.0  T
   4   -400.4107661 -0.274812E-05  0.109E-02    0.09       1.0  T
   5   -400.4107841 -0.179271E-04  0.298E-03    0.09       2.2  T
   6   -400.4107849 -0.853463E-06  0.434E-04    0.09      14.8  T
   7   -400.4107849 -0.231536E-07  0.214E-04    0.09      30.1  T
     SCC iter.                  ...        0 min,  0.377 sec
     gradient                   ...        0 min,  0.218 sec
 * total energy  :  -395.0145206 Eh     change       -0.6366151E-04 Eh
   gradient norm :     0.0014147 Eh/α   predicted    -0.4555714E-04 ( -28.44%)
   displ. norm   :     0.2887668 α      lambda       -0.4249190E-04
   maximum displ.:     0.1653294 α      in ANC's #3, #5, #8, ...

........................................................................
.............................. CYCLE   48 ..............................
........................................................................

 iter      E             dE          RMSdq      gap      omega  full diag
   1   -400.4104470 -0.400410E+03  0.317E-02    0.09       0.0  T
   2   -400.4104442  0.288556E-05  0.200E-02    0.09       1.0  T
   3   -400.4104229  0.212357E-04  0.202E-02    0.09       1.0  T
   4   -400.4104343 -0.114162E-04  0.101E-02    0.09       1.0  T
   5   -400.4104492 -0.148621E-04  0.358E-03    0.09       1.8  T
   6   -400.4104505 -0.131312E-05  0.497E-04    0.09      12.9  T
   7   -400.4104505 -0.267190E-07  0.230E-04    0.09      28.0  T
   8   -400.4104505  0.441673E-10  0.154E-04    0.09      41.8  T
     SCC iter.                  ...        0 min,  0.423 sec
     gradient                   ...        0 min,  0.216 sec
 * total energy  :  -395.0145597 Eh     change       -0.3911900E-04 Eh
   gradient norm :     0.0023690 Eh/α   predicted    -0.2203366E-04 ( -43.68%)
   displ. norm   :     0.0904090 α      lambda       -0.2066754E-04
   maximum displ.:     0.0507012 α      in ANC's #3, #5, #4, ...

........................................................................
.............................. CYCLE   49 ..............................
........................................................................

 iter      E             dE          RMSdq      gap      omega  full diag
   1   -400.4106107 -0.400411E+03  0.835E-03    0.09       0.0  T
   2   -400.4106107  0.302356E-08  0.493E-03    0.09       1.3  T
   3   -400.4106089  0.182079E-05  0.438E-03    0.09       1.5  T
   4   -400.4106108 -0.191807E-05  0.111E-03    0.09       5.8  T
   5   -400.4106108 -0.215190E-07  0.400E-04    0.09      16.1  T
   6   -400.4106108 -0.197732E-07  0.187E-04    0.09      34.4  T
     SCC iter.                  ...        0 min,  0.319 sec
     gradient                   ...        0 min,  0.215 sec
 * total energy  :  -395.0145792 Eh     change       -0.1954992E-04 Eh
   gradient norm :     0.0018941 Eh/α   predicted    -0.1041865E-04 ( -46.71%)
   displ. norm   :     0.2604579 α      lambda       -0.5166124E-04
   maximum displ.:     0.1469644 α      in ANC's #4, #5, #3, ...

........................................................................
.............................. CYCLE   50 ..............................
........................................................................

 iter      E             dE          RMSdq      gap      omega  full diag
   1   -400.4109654 -0.400411E+03  0.243E-02    0.09       0.0  T
   2   -400.4109600  0.533691E-05  0.167E-02    0.09       1.0  T
   3   -400.4109453  0.147121E-04  0.178E-02    0.10       1.0  T
   4   -400.4109667 -0.213576E-04  0.495E-03    0.09       1.3  T
   5   -400.4109668 -0.888501E-07  0.484E-03    0.09       1.3  T
   6   -400.4109696 -0.282963E-05  0.650E-04    0.09       9.9  T
   7   -400.4109696 -0.502026E-07  0.222E-04    0.09      29.0  T
   8   -400.4109696 -0.168717E-08  0.139E-04    0.09      46.4  T
     SCC iter.                  ...        0 min,  0.420 sec
     gradient                   ...        0 min,  0.217 sec
 * total energy  :  -395.0146434 Eh     change       -0.6415466E-04 Eh
   gradient norm :     0.0012667 Eh/α   predicted    -0.2661303E-04 ( -58.52%)
   displ. norm   :     0.4028221 α      lambda       -0.6092390E-04
   maximum displ.:     0.2324554 α      in ANC's #4, #5, #3, ...

........................................................................
.............................. CYCLE   51 ..............................
........................................................................

 iter      E             dE          RMSdq      gap      omega  full diag
   1   -400.4101346 -0.400410E+03  0.366E-02    0.10       0.0  T
   2   -400.4101293  0.533561E-05  0.231E-02    0.09       1.0  T
   3   -400.4100786  0.506285E-04  0.263E-02    0.10       1.0  T
   4   -400.4101372 -0.585640E-04  0.687E-03    0.09       1.0  T
   5   -400.4101361  0.112156E-05  0.633E-03    0.09       1.0  T
   6   -400.4101410 -0.495589E-05  0.104E-03    0.09       6.2  T
   7   -400.4101412 -0.124562E-06  0.327E-04    0.09      19.7  T
   8   -400.4101412 -0.254425E-08  0.194E-04    0.09      33.1  T
     SCC iter.                  ...        0 min,  0.421 sec
     gradient                   ...        0 min,  0.218 sec
 * total energy  :  -395.0147274 Eh     change       -0.8402789E-04 Eh
   gradient norm :     0.0026910 Eh/α   predicted    -0.3265919E-04 ( -61.13%)
   displ. norm   :     0.3885855 α      lambda       -0.8975225E-04
   maximum displ.:     0.2249028 α      in ANC's #4, #5, #3, ...

........................................................................
.............................. CYCLE   52 ..............................
........................................................................

 iter      E             dE          RMSdq      gap      omega  full diag
   1   -400.4093104 -0.400409E+03  0.347E-02    0.10       0.0  T
   2   -400.4093087  0.171509E-05  0.210E-02    0.09       1.0  T
   3   -400.4092702  0.385572E-04  0.219E-02    0.10       1.0  T
   4   -400.4093142 -0.439991E-04  0.569E-03    0.10       1.1  T
   5   -400.4093145 -0.334151E-06  0.230E-03    0.10       2.8  T
   6   -400.4093150 -0.505327E-06  0.112E-03    0.10       5.7  T
   7   -400.4093151 -0.149591E-06  0.351E-04    0.10      18.3  T
   8   -400.4093152 -0.581110E-08  0.192E-04    0.10      33.5  T
     SCC iter.                  ...        0 min,  0.424 sec
     gradient                   ...        0 min,  0.218 sec
 * total energy  :  -395.0148181 Eh     change       -0.9065390E-04 Eh
   gradient norm :     0.0035160 Eh/α   predicted    -0.5165324E-04 ( -43.02%)
   displ. norm   :     0.3899064 α      lambda       -0.9656823E-04
   maximum displ.:     0.2268285 α      in ANC's #5, #4, #3, ...

........................................................................
.............................. CYCLE   53 ..............................
........................................................................

 iter      E             dE          RMSdq      gap      omega  full diag
   1   -400.4076332 -0.400408E+03  0.342E-02    0.10       0.0  T
   2   -400.4076327  0.489907E-06  0.204E-02    0.10       1.0  T
   3   -400.4076012  0.315299E-04  0.189E-02    0.10       1.0  T
   4   -400.4076354 -0.342537E-04  0.639E-03    0.10       1.0  T
   5   -400.4076365 -0.111419E-05  0.207E-03    0.10       3.1  T
   6   -400.4076369 -0.380240E-06  0.109E-03    0.10       5.9  T
   7   -400.4076371 -0.142727E-06  0.341E-04    0.10      18.9  T
   8   -400.4076371 -0.501637E-08  0.190E-04    0.10      33.8  T
     SCC iter.                  ...        0 min,  0.423 sec
     gradient                   ...        0 min,  0.216 sec
 * total energy  :  -395.0149250 Eh     change       -0.1068822E-03 Eh
   gradient norm :     0.0048717 Eh/α   predicted    -0.5562535E-04 ( -47.96%)
   displ. norm   :     0.4327837 α      lambda       -0.1444247E-03
   maximum displ.:     0.2514825 α      in ANC's #5, #4, #3, ...

........................................................................
.............................. CYCLE   54 ..............................
........................................................................

 iter      E             dE          RMSdq      gap      omega  full diag
   1   -400.4051199 -0.400405E+03  0.375E-02    0.10       0.0  T
   2   -400.4051197  0.219746E-06  0.222E-02    0.10       1.0  T
   3   -400.4050823  0.374476E-04  0.196E-02    0.10       1.0  T
   4   -400.4051193 -0.369982E-04  0.837E-03    0.10       1.0  T
   5   -400.4051224 -0.313858E-05  0.383E-03    0.10       1.7  T
   6   -400.4051241 -0.170102E-05  0.106E-03    0.10       6.1  T
   7   -400.4051242 -0.124272E-06  0.355E-04    0.10      18.1  T
   8   -400.4051242 -0.432857E-08  0.214E-04    0.10      30.0  T
     SCC iter.                  ...        0 min,  0.420 sec
     gradient                   ...        0 min,  0.217 sec
 * total energy  :  -395.0150875 Eh     change       -0.1625578E-03 Eh
   gradient norm :     0.0069901 Eh/α   predicted    -0.8573879E-04 ( -47.26%)
   displ. norm   :     0.4290203 α      lambda       -0.2077581E-03
   maximum displ.:     0.2482579 α      in ANC's #5, #4, #3, ...

........................................................................
.............................. CYCLE   55 ..............................
........................................................................

 iter      E             dE          RMSdq      gap      omega  full diag
   1   -400.4027223 -0.400403E+03  0.361E-02    0.10       0.0  T
   2   -400.4027219  0.392306E-06  0.215E-02    0.10       1.0  T
   3   -400.4026805  0.413456E-04  0.198E-02    0.10       1.0  T
   4   -400.4027198 -0.392433E-04  0.874E-03    0.10       1.0  T
   5   -400.4027244 -0.457538E-05  0.414E-03    0.10       1.6  T
   6   -400.4027263 -0.192320E-05  0.942E-04    0.10       6.8  T
   7   -400.4027264 -0.901534E-07  0.356E-04    0.10      18.1  T
   8   -400.4027264 -0.554758E-08  0.220E-04    0.10      29.2  T
     SCC iter.                  ...        0 min,  0.418 sec
     gradient                   ...        0 min,  0.214 sec
 * total energy  :  -395.0153039 Eh     change       -0.2163609E-03 Eh
   gradient norm :     0.0090635 Eh/α   predicted    -0.1230005E-03 ( -43.15%)
   displ. norm   :     0.3300510 α      lambda       -0.2405150E-03
   maximum displ.:     0.1904723 α      in ANC's #5, #4, #3, ...

........................................................................
.............................. CYCLE   56 ..............................
........................................................................

 iter      E             dE          RMSdq      gap      omega  full diag
   1   -400.4023551 -0.400402E+03  0.260E-02    0.10       0.0  T
   2   -400.4023548  0.284422E-06  0.155E-02    0.10       1.0  T
   3   -400.4023313  0.235083E-04  0.154E-02    0.10       1.0  T
   4   -400.4023567 -0.254274E-04  0.416E-03    0.10       1.5  T
   5   -400.4023570 -0.244278E-06  0.228E-03    0.10       2.8  T
   6   -400.4023576 -0.615692E-06  0.741E-04    0.10       8.7  T
   7   -400.4023577 -0.560565E-07  0.301E-04    0.10      21.4  T
     SCC iter.                  ...        0 min,  0.363 sec
     gradient                   ...        0 min,  0.217 sec
 * total energy  :  -395.0155499 Eh     change       -0.2459835E-03 Eh
   gradient norm :     0.0094227 Eh/α   predicted    -0.1333596E-03 ( -45.79%)
   displ. norm   :     0.3330606 α      lambda       -0.2603988E-03
   maximum displ.:     0.1922842 α      in ANC's #5, #4, #3, ...

........................................................................
.............................. CYCLE   57 ..............................
........................................................................

 iter      E             dE          RMSdq      gap      omega  full diag
   1   -400.4011708 -0.400401E+03  0.261E-02    0.10       0.0  T
   2   -400.4011709 -0.895248E-07  0.155E-02    0.10       1.0  T
   3   -400.4011515  0.193953E-04  0.134E-02    0.10       1.0  T
   4   -400.4011712 -0.196810E-04  0.521E-03    0.10       1.2  T
   5   -400.4011722 -0.103432E-05  0.237E-03    0.10       2.7  T
   6   -400.4011729 -0.667485E-06  0.676E-04    0.10       9.5  T
   7   -400.4011729 -0.442893E-07  0.276E-04    0.10      23.3  T
     SCC iter.                  ...        0 min,  0.365 sec
     gradient                   ...        0 min,  0.214 sec
 * total energy  :  -395.0158106 Eh     change       -0.2607859E-03 Eh
   gradient norm :     0.0104681 Eh/α   predicted    -0.1446433E-03 ( -44.54%)
   displ. norm   :     0.9062496 α      lambda       -0.8949123E-03
   maximum displ.:     0.5223762 α      in ANC's #5, #4, #3, ...

........................................................................
.............................. CYCLE   58 ..............................
........................................................................

 iter      E             dE          RMSdq      gap      omega  full diag
   1   -400.3985678 -0.400399E+03  0.729E-02    0.09       0.0  T
   2   -400.3985724 -0.465733E-05  0.428E-02    0.09       1.0  T
   3   -400.3984998  0.726041E-04  0.269E-02    0.10       1.0  T
   4   -400.3985676 -0.677703E-04  0.154E-02    0.09       1.0  T
   5   -400.3985821 -0.145549E-04  0.154E-03    0.09       4.2  T
   6   -400.3985822 -0.422314E-07  0.106E-03    0.09       6.1  T
   7   -400.3985823 -0.158116E-06  0.709E-04    0.09       9.1  T
   8   -400.3985824 -0.355876E-07  0.449E-04    0.09      14.3  T
     SCC iter.                  ...        0 min,  0.411 sec
     gradient                   ...        0 min,  0.217 sec
 * total energy  :  -395.0166592 Eh     change       -0.8485262E-03 Eh
   gradient norm :     0.0136826 Eh/α   predicted    -0.8149639E-03 (  -3.96%)
   displ. norm   :     0.8138123 α      lambda       -0.3013089E-02
   maximum displ.:     0.3436553 α      in ANC's #1, #4, #9, ...

........................................................................
.............................. CYCLE   59 ..............................
........................................................................

 iter      E             dE          RMSdq      gap      omega  full diag
   1   -400.4632795 -0.400463E+03  0.173E-01    0.06       0.0  T
   2   -400.4599418  0.333778E-02  0.202E-01    0.09       1.0  T
   3   -400.4632371 -0.329534E-02  0.109E-01    0.07       1.0  T
   4   -400.4639256 -0.688475E-03  0.368E-02    0.07       1.0  T
   5   -400.4640914 -0.165835E-03  0.121E-02    0.08       1.0  T
   6   -400.4641103 -0.188821E-04  0.343E-03    0.08       1.9  T
   7   -400.4641102  0.137696E-06  0.225E-03    0.08       2.9  T
   8   -400.4641111 -0.911776E-06  0.109E-03    0.08       5.9  T
   9   -400.4641112 -0.116027E-06  0.648E-04    0.08       9.9  T
  10   -400.4641112 -0.310910E-07  0.403E-04    0.08      16.0  T
     SCC iter.                  ...        0 min,  0.520 sec
     gradient                   ...        0 min,  0.214 sec
 * total energy  :  -395.0087266 Eh     change        0.7932609E-02 Eh
   gradient norm :     0.0707342 Eh/α   predicted    -0.2504320E-02 (-131.57%)
   displ. norm   :     0.3467513 α      lambda       -0.1414095E-01
   maximum displ.:     0.1061803 α      in ANC's #57, #14, #13, ...

........................................................................
.............................. CYCLE   60 ..............................
........................................................................

 iter      E             dE          RMSdq      gap      omega  full diag
   1   -400.4200283 -0.400420E+03  0.110E-01    0.09       0.0  T
   2   -400.4188010  0.122729E-02  0.125E-01    0.07       1.0  T
   3   -400.4200320 -0.123101E-02  0.686E-02    0.09       1.0  T
   4   -400.4203095 -0.277483E-03  0.241E-02    0.08       1.0  T
   5   -400.4203665 -0.570010E-04  0.440E-03    0.08       1.5  T
   6   -400.4203702 -0.375731E-05  0.206E-03    0.08       3.1  T
   7   -400.4203709 -0.662109E-06  0.107E-03    0.08       6.0  T
   8   -400.4203711 -0.189557E-06  0.504E-04    0.08      12.8  T
   9   -400.4203711 -0.768375E-08  0.375E-04    0.08      17.1  T
     SCC iter.                  ...        0 min,  0.467 sec
     gradient                   ...        0 min,  0.218 sec
 * total energy  :  -395.0168093 Eh     change       -0.8082758E-02 Eh
   gradient norm :     0.0130875 Eh/α   predicted    -0.7920604E-02 (  -2.01%)
   displ. norm   :     0.6145306 α      lambda       -0.1946813E-02
   maximum displ.:     0.3296967 α      in ANC's #3, #5, #4, ...

........................................................................
.............................. CYCLE   61 ..............................
........................................................................

 iter      E             dE          RMSdq      gap      omega  full diag
   1   -400.4022174 -0.400402E+03  0.583E-02    0.08       0.0  T
   2   -400.4020183  0.199176E-03  0.536E-02    0.08       1.0  T
   3   -400.4020503 -0.320147E-04  0.475E-02    0.08       1.0  T
   4   -400.4022475 -0.197229E-03  0.153E-02    0.08       1.0  T
   5   -400.4022733 -0.257817E-04  0.702E-03    0.08       1.0  T
   6   -400.4022789 -0.557408E-05  0.135E-03    0.08       4.8  T
   7   -400.4022789 -0.334493E-07  0.757E-04    0.08       8.5  T
   8   -400.4022790 -0.909870E-07  0.342E-04    0.08      18.8  T
     SCC iter.                  ...        0 min,  0.415 sec
     gradient                   ...        0 min,  0.214 sec
 * total energy  :  -395.0178417 Eh     change       -0.1032405E-02 Eh
   gradient norm :     0.0124578 Eh/α   predicted    -0.1341017E-02 (  29.89%)
   displ. norm   :     0.8161334 α      lambda       -0.1141728E-02
   maximum displ.:     0.4928111 α      in ANC's #5, #4, #3, ...

........................................................................
.............................. CYCLE   62 ..............................
........................................................................

 iter      E             dE          RMSdq      gap      omega  full diag
   1   -400.3959565 -0.400396E+03  0.716E-02    0.08       0.0  T
   2   -400.3959427  0.138205E-04  0.438E-02    0.08       1.0  T
   3   -400.3956204  0.322362E-03  0.553E-02    0.07       1.0  T
   4   -400.3959162 -0.295868E-03  0.214E-02    0.08       1.0  T
   5   -400.3959740 -0.578080E-04  0.260E-03    0.08       2.5  T
   6   -400.3959749 -0.909423E-06  0.111E-03    0.08       5.8  T
   7   -400.3959750 -0.920748E-07  0.621E-04    0.08      10.4  T
   8   -400.3959751 -0.169068E-07  0.476E-04    0.08      13.5  T
     SCC iter.                  ...        0 min,  0.421 sec
     gradient                   ...        0 min,  0.215 sec
 * total energy  :  -395.0186291 Eh     change       -0.7873740E-03 Eh
   gradient norm :     0.0168136 Eh/α   predicted    -0.9511072E-03 (  20.79%)
   displ. norm   :     0.3265787 α      lambda       -0.8440282E-03
   maximum displ.:     0.2116883 α      in ANC's #5, #4, #1, ...

........................................................................
.............................. CYCLE   63 ..............................
........................................................................

 iter      E             dE          RMSdq      gap      omega  full diag
   1   -400.4044217 -0.400404E+03  0.383E-02    0.08       0.0  T
   2   -400.4042297  0.192019E-03  0.459E-02    0.08       1.0  T
   3   -400.4044428 -0.213149E-03  0.232E-02    0.08       1.0  T
   4   -400.4044533 -0.104749E-04  0.152E-02    0.08       1.0  T
   5   -400.4044650 -0.117069E-04  0.763E-03    0.08       1.0  T
   6   -400.4044741 -0.909742E-05  0.106E-03    0.08       6.0  T
   7   -400.4044743 -0.138693E-06  0.409E-04    0.08      15.7  T
   8   -400.4044743 -0.355561E-08  0.272E-04    0.08      23.6  T
     SCC iter.                  ...        0 min,  0.422 sec
     gradient                   ...        0 min,  0.218 sec
 * total energy  :  -395.0191193 Eh     change       -0.4902089E-03 Eh
   gradient norm :     0.0168011 Eh/α   predicted    -0.4670266E-03 (  -4.73%)
   displ. norm   :     0.6296625 α      lambda       -0.1329491E-02
   maximum displ.:     0.3874663 α      in ANC's #5, #3, #4, ...

........................................................................
.............................. CYCLE   64 ..............................
........................................................................

 iter      E             dE          RMSdq      gap      omega  full diag
   1   -400.4046148 -0.400405E+03  0.483E-02    0.08       0.0  T
   2   -400.4046117  0.311006E-05  0.293E-02    0.08       1.0  T
   3   -400.4044816  0.130082E-03  0.343E-02    0.08       1.0  T
   4   -400.4045939 -0.112311E-03  0.147E-02    0.08       1.0  T
   5   -400.4046223 -0.283871E-04  0.234E-03    0.08       2.8  T
   6   -400.4046229 -0.571370E-06  0.839E-04    0.08       7.7  T
   7   -400.4046229  0.360387E-10  0.678E-04    0.08       9.5  T
     SCC iter.                  ...        0 min,  0.369 sec
     gradient                   ...        0 min,  0.216 sec
 * total energy  :  -395.0202179 Eh     change       -0.1098637E-02 Eh
   gradient norm :     0.0143312 Eh/α   predicted    -0.9283020E-03 ( -15.50%)
   displ. norm   :     0.5654527 α      lambda       -0.2075056E-02
   maximum displ.:     0.2952574 α      in ANC's #5, #8, #12, ...

........................................................................
.............................. CYCLE   65 ..............................
........................................................................

 iter      E             dE          RMSdq      gap      omega  full diag
   1   -400.4192839 -0.400419E+03  0.597E-02    0.09       0.0  T
   2   -400.4192278  0.561625E-04  0.448E-02    0.08       1.0  T
   3   -400.4191491  0.786966E-04  0.439E-02    0.09       1.0  T
   4   -400.4192897 -0.140639E-03  0.235E-02    0.09       1.0  T
   5   -400.4193182 -0.284672E-04  0.118E-02    0.08       1.0  T
   6   -400.4193371 -0.188799E-04  0.163E-03    0.08       3.9  T
   7   -400.4193372 -0.989456E-07  0.105E-03    0.08       6.1  T
   8   -400.4193373 -0.133603E-06  0.414E-04    0.08      15.5  T
   9   -400.4193373 -0.343845E-07  0.221E-04    0.08      29.1  T
     SCC iter.                  ...        0 min,  0.471 sec
     gradient                   ...        0 min,  0.216 sec
 * total energy  :  -395.0208146 Eh     change       -0.5966764E-03 Eh
   gradient norm :     0.0280529 Eh/α   predicted    -0.1369263E-02 ( 129.48%)
   displ. norm   :     0.5362074 α      lambda       -0.1941460E-02
   maximum displ.:     0.3505392 α      in ANC's #5, #3, #4, ...

........................................................................
.............................. CYCLE   66 ..............................
........................................................................

 iter      E             dE          RMSdq      gap      omega  full diag
   1   -400.4116528 -0.400412E+03  0.460E-02    0.08       0.0  T
   2   -400.4116544 -0.163529E-05  0.283E-02    0.08       1.0  T
   3   -400.4116141  0.403160E-04  0.239E-02    0.08       1.0  T
   4   -400.4116016  0.124396E-04  0.226E-02    0.08       1.0  T
   5   -400.4116635 -0.618714E-04  0.235E-03    0.08       2.7  T
   6   -400.4116640 -0.439588E-06  0.100E-03    0.08       6.4  T
   7   -400.4116640 -0.281384E-07  0.627E-04    0.08      10.2  T
   8   -400.4116640 -0.497412E-07  0.185E-04    0.08      34.8  T
     SCC iter.                  ...        0 min,  0.419 sec
     gradient                   ...        0 min,  0.219 sec
 * total energy  :  -395.0222999 Eh     change       -0.1485294E-02 Eh
   gradient norm :     0.0142674 Eh/α   predicted    -0.1249834E-02 ( -15.85%)
   displ. norm   :     0.7106483 α      lambda       -0.1561702E-02
   maximum displ.:     0.4560761 α      in ANC's #5, #3, #1, ...
 * RMSD in coord.:     0.5542490 α      energy gain  -0.8011641E-02 Eh

generating ANC from exact Hessian ...
Using Lindh-Hessian (1995)
 Shifting diagonal of input Hessian by    9.7249954015607605E-003
 Lowest  eigenvalues of input Hessian
    0.000000    0.000000    0.000000    0.000000    0.000000    0.000000
    0.010000    0.010190    0.010497    0.010651    0.010945    0.011463
    0.012513    0.013081    0.015178    0.015959    0.018011    0.020914
 Highest eigenvalues
    3.132424    3.201815    3.211572    3.246214    3.329870    3.333731


........................................................................
.............................. CYCLE   67 ..............................
........................................................................

 iter      E             dE          RMSdq      gap      omega  full diag
   1   -400.4079131 -0.400408E+03  0.501E-02    0.09       0.0  T
   2   -400.4078951  0.179269E-04  0.337E-02    0.08       1.0  T
   3   -400.4078068  0.883059E-04  0.350E-02    0.09       1.0  T
   4   -400.4078943 -0.874612E-04  0.181E-02    0.08       1.0  T
   5   -400.4079234 -0.291213E-04  0.854E-03    0.08       1.0  T
   6   -400.4079312 -0.778271E-05  0.152E-03    0.08       4.2  T
   7   -400.4079314 -0.258945E-06  0.479E-04    0.08      13.4  T
   8   -400.4079315 -0.585942E-08  0.286E-04    0.08      22.5  T
     SCC iter.                  ...        0 min,  0.419 sec
     gradient                   ...        0 min,  0.217 sec
 * total energy  :  -395.0235733 Eh     change       -0.1273373E-02 Eh
   gradient norm :     0.0141303 Eh/α   predicted     0.0000000E+00 (-100.00%)
   displ. norm   :     0.1959223 α      lambda       -0.9098364E-03
   maximum displ.:     0.0929508 α      in ANC's #2, #8, #4, ...

........................................................................
.............................. CYCLE   68 ..............................
........................................................................

 iter      E             dE          RMSdq      gap      omega  full diag
   1   -400.4166630 -0.400417E+03  0.240E-02    0.09       0.0  T
   2   -400.4166627  0.323745E-06  0.149E-02    0.08       1.0  T
   3   -400.4166467  0.160051E-04  0.151E-02    0.09       1.0  T
   4   -400.4166532 -0.652008E-05  0.961E-03    0.08       1.0  T
   5   -400.4166670 -0.137832E-04  0.185E-03    0.08       3.5  T
   6   -400.4166674 -0.428226E-06  0.550E-04    0.09      11.7  T
   7   -400.4166674 -0.150225E-07  0.328E-04    0.08      19.6  T
     SCC iter.                  ...        0 min,  0.363 sec
     gradient                   ...        0 min,  0.219 sec
 * total energy  :  -395.0243179 Eh     change       -0.7445873E-03 Eh
   gradient norm :     0.0056832 Eh/α   predicted    -0.4723832E-03 ( -36.56%)
   displ. norm   :     0.5000416 α      lambda       -0.1431958E-02
   maximum displ.:     0.2395484 α      in ANC's #2, #8, #4, ...

........................................................................
.............................. CYCLE   69 ..............................
........................................................................

 iter      E             dE          RMSdq      gap      omega  full diag
   1   -400.4257510 -0.400426E+03  0.470E-02    0.09       0.0  T
   2   -400.4257235  0.274892E-04  0.321E-02    0.09       1.0  T
   3   -400.4255462  0.177288E-03  0.437E-02    0.09       1.0  T
   4   -400.4257520 -0.205812E-03  0.101E-02    0.09       1.0  T
   5   -400.4257673 -0.152992E-04  0.195E-03    0.09       3.3  T
   6   -400.4257677 -0.406481E-06  0.884E-04    0.09       7.3  T
   7   -400.4257678 -0.838781E-07  0.476E-04    0.09      13.5  T
     SCC iter.                  ...        0 min,  0.364 sec
     gradient                   ...        0 min,  0.216 sec
 * total energy  :  -395.0254764 Eh     change       -0.1158540E-02 Eh
   gradient norm :     0.0087038 Eh/α   predicted    -0.8950750E-03 ( -22.74%)
   displ. norm   :     0.6673887 α      lambda       -0.1467687E-02
   maximum displ.:     0.3351341 α      in ANC's #2, #8, #4, ...

........................................................................
.............................. CYCLE   70 ..............................
........................................................................

 iter      E             dE          RMSdq      gap      omega  full diag
   1   -400.4276936 -0.400428E+03  0.536E-02    0.09       0.0  T
   2   -400.4276408  0.528778E-04  0.386E-02    0.09       1.0  T
   3   -400.4274085  0.232236E-03  0.513E-02    0.09       1.0  T
   4   -400.4277091 -0.300611E-03  0.758E-03    0.09       1.0  T
   5   -400.4277175 -0.840801E-05  0.141E-03    0.09       4.6  T
   6   -400.4277177 -0.112509E-06  0.852E-04    0.09       7.5  T
   7   -400.4277177 -0.693233E-07  0.515E-04    0.09      12.5  T
     SCC iter.                  ...        0 min,  0.373 sec
     gradient                   ...        0 min,  0.218 sec
 * total energy  :  -395.0267847 Eh     change       -0.1308255E-02 Eh
   gradient norm :     0.0138214 Eh/α   predicted    -0.1060810E-02 ( -18.91%)
   displ. norm   :     0.7675756 α      lambda       -0.1681191E-02
   maximum displ.:     0.4082803 α      in ANC's #2, #8, #4, ...

........................................................................
.............................. CYCLE   71 ..............................
........................................................................

 iter      E             dE          RMSdq      gap      omega  full diag
   1   -400.4238787 -0.400424E+03  0.586E-02    0.09       0.0  T
   2   -400.4238261  0.526456E-04  0.414E-02    0.09       1.0  T
   3   -400.4235824  0.243687E-03  0.526E-02    0.09       1.0  T
   4   -400.4238934 -0.311028E-03  0.135E-02    0.09       1.0  T
   5   -400.4239056 -0.122165E-04  0.195E-03    0.09       3.3  T
   6   -400.4239058 -0.237176E-06  0.167E-03    0.09       3.9  T
   7   -400.4239062 -0.401355E-06  0.571E-04    0.09      11.3  T
   8   -400.4239063 -0.841021E-08  0.313E-04    0.09      20.6  T
     SCC iter.                  ...        0 min,  0.414 sec
     gradient                   ...        0 min,  0.219 sec
 * total energy  :  -395.0281970 Eh     change       -0.1412340E-02 Eh
   gradient norm :     0.0163924 Eh/α   predicted    -0.1335861E-02 (  -5.42%)
   displ. norm   :     0.6259005 α      lambda       -0.1606759E-02
   maximum displ.:     0.3689405 α      in ANC's #2, #8, #4, ...

........................................................................
.............................. CYCLE   72 ..............................
........................................................................

 iter      E             dE          RMSdq      gap      omega  full diag
   1   -400.4204582 -0.400420E+03  0.516E-02    0.09       0.0  T
   2   -400.4204414  0.168201E-04  0.340E-02    0.09       1.0  T
   3   -400.4203371  0.104318E-03  0.358E-02    0.09       1.0  T
   4   -400.4204307 -0.936205E-04  0.216E-02    0.09       1.0  T
   5   -400.4204748 -0.440948E-04  0.295E-03    0.09       2.2  T
   6   -400.4204759 -0.107801E-05  0.157E-03    0.09       4.1  T
   7   -400.4204760 -0.142576E-06  0.549E-04    0.09      11.7  T
   8   -400.4204761 -0.508390E-07  0.282E-04    0.09      22.8  T
     SCC iter.                  ...        0 min,  0.422 sec
     gradient                   ...        0 min,  0.218 sec
 * total energy  :  -395.0295186 Eh     change       -0.1321618E-02 Eh
   gradient norm :     0.0133075 Eh/α   predicted    -0.1118118E-02 ( -15.40%)
   displ. norm   :     0.5697074 α      lambda       -0.1633557E-02
   maximum displ.:     0.3638226 α      in ANC's #2, #7, #4, ...

........................................................................
.............................. CYCLE   73 ..............................
........................................................................

 iter      E             dE          RMSdq      gap      omega  full diag
   1   -400.4226015 -0.400423E+03  0.520E-02    0.09       0.0  T
   2   -400.4226082 -0.673910E-05  0.314E-02    0.09       1.0  T
   3   -400.4226043  0.396848E-05  0.191E-02    0.09       1.0  T
   4   -400.4226073 -0.299076E-05  0.729E-03    0.09       1.0  T
   5   -400.4226150 -0.776933E-05  0.135E-03    0.09       4.8  T
   6   -400.4226149  0.961645E-07  0.128E-03    0.09       5.0  T
   7   -400.4226151 -0.118454E-06  0.914E-04    0.09       7.0  T
   8   -400.4226152 -0.108703E-06  0.245E-04    0.09      26.3  T
     SCC iter.                  ...        0 min,  0.414 sec
     gradient                   ...        0 min,  0.217 sec
 * total energy  :  -395.0308404 Eh     change       -0.1321821E-02 Eh
   gradient norm :     0.0142650 Eh/α   predicted    -0.1081885E-02 ( -18.15%)
   displ. norm   :     0.7066902 α      lambda       -0.1686634E-02
   maximum displ.:     0.4415085 α      in ANC's #2, #7, #4, ...

........................................................................
.............................. CYCLE   74 ..............................
........................................................................

 iter      E             dE          RMSdq      gap      omega  full diag
   1   -400.4236936 -0.400424E+03  0.561E-02    0.10       0.0  T
   2   -400.4236981 -0.443165E-05  0.337E-02    0.10       1.0  T
   3   -400.4236049  0.931337E-04  0.302E-02    0.09       1.0  T
   4   -400.4236732 -0.682977E-04  0.169E-02    0.10       1.0  T
   5   -400.4237081 -0.349168E-04  0.338E-03    0.10       1.9  T
   6   -400.4237098 -0.162726E-05  0.121E-03    0.10       5.3  T
   7   -400.4237101 -0.307010E-06  0.498E-04    0.10      12.9  T
   8   -400.4237101 -0.903901E-08  0.306E-04    0.10      21.0  T
     SCC iter.                  ...        0 min,  0.422 sec
     gradient                   ...        0 min,  0.214 sec
 * total energy  :  -395.0323196 Eh     change       -0.1479170E-02 Eh
   gradient norm :     0.0182728 Eh/α   predicted    -0.1264480E-02 ( -14.51%)
   displ. norm   :     0.7088668 α      lambda       -0.2280997E-02
   maximum displ.:     0.4527981 α      in ANC's #2, #7, #3, ...

........................................................................
.............................. CYCLE   75 ..............................
........................................................................

 iter      E             dE          RMSdq      gap      omega  full diag
   1   -400.4361066 -0.400436E+03  0.552E-02    0.10       0.0  T
   2   -400.4360845  0.221611E-04  0.363E-02    0.10       1.0  T
   3   -400.4357734  0.311051E-03  0.534E-02    0.09       1.0  T
   4   -400.4361207 -0.347284E-03  0.830E-03    0.10       1.0  T
   5   -400.4361300 -0.934908E-05  0.393E-03    0.10       1.6  T
   6   -400.4361328 -0.279742E-05  0.129E-03    0.10       5.0  T
   7   -400.4361330 -0.202269E-06  0.650E-04    0.10       9.9  T
   8   -400.4361330  0.920744E-08  0.416E-04    0.10      15.5  T
     SCC iter.                  ...        0 min,  0.419 sec
     gradient                   ...        0 min,  0.243 sec
 * total energy  :  -395.0340533 Eh     change       -0.1733725E-02 Eh
   gradient norm :     0.0164225 Eh/α   predicted    -0.1713593E-02 (  -1.16%)
   displ. norm   :     0.7955620 α      lambda       -0.2035041E-02
   maximum displ.:     0.5028247 α      in ANC's #2, #7, #10, ...

........................................................................
.............................. CYCLE   76 ..............................
........................................................................

 iter      E             dE          RMSdq      gap      omega  full diag
   1   -400.4337153 -0.400434E+03  0.589E-02    0.10       0.0  T
   2   -400.4337224 -0.717053E-05  0.349E-02    0.10       1.0  T
   3   -400.4335625  0.159918E-03  0.330E-02    0.10       1.0  T
   4   -400.4337181 -0.155590E-03  0.128E-02    0.10       1.0  T
   5   -400.4337348 -0.166668E-04  0.446E-03    0.10       1.4  T
   6   -400.4337378 -0.297096E-05  0.146E-03    0.10       4.4  T
   7   -400.4337379 -0.173295E-06  0.685E-04    0.10       9.4  T
   8   -400.4337379  0.368539E-08  0.460E-04    0.10      14.0  T
     SCC iter.                  ...        0 min,  0.419 sec
     gradient                   ...        0 min,  0.216 sec
 * total energy  :  -395.0357310 Eh     change       -0.1677707E-02 Eh
   gradient norm :     0.0182551 Eh/α   predicted    -0.1661620E-02 (  -0.96%)
   displ. norm   :     0.6306094 α      lambda       -0.2010735E-02
   maximum displ.:     0.3993817 α      in ANC's #2, #7, #3, ...

........................................................................
.............................. CYCLE   77 ..............................
........................................................................

 iter      E             dE          RMSdq      gap      omega  full diag
   1   -400.4387821 -0.400439E+03  0.513E-02    0.09       0.0  T
   2   -400.4387310  0.510350E-04  0.371E-02    0.09       1.0  T
   3   -400.4385633  0.167750E-03  0.467E-02    0.09       1.0  T
   4   -400.4388044 -0.241089E-03  0.118E-02    0.09       1.0  T
   5   -400.4388121 -0.775820E-05  0.685E-03    0.09       1.0  T
   6   -400.4388171 -0.497159E-05  0.123E-03    0.09       5.2  T
   7   -400.4388172 -0.703932E-07  0.645E-04    0.09      10.0  T
   8   -400.4388172  0.145025E-07  0.452E-04    0.09      14.2  T
     SCC iter.                  ...        0 min,  0.415 sec
     gradient                   ...        0 min,  0.218 sec
 * total energy  :  -395.0372445 Eh     change       -0.1513478E-02 Eh
   gradient norm :     0.0200433 Eh/α   predicted    -0.1405180E-02 (  -7.16%)
   displ. norm   :     0.6891546 α      lambda       -0.1857704E-02
   maximum displ.:     0.4164730 α      in ANC's #2, #7, #3, ...

........................................................................
.............................. CYCLE   78 ..............................
........................................................................

 iter      E             dE          RMSdq      gap      omega  full diag
   1   -400.4367133 -0.400437E+03  0.571E-02    0.09       0.0  T
   2   -400.4366691  0.441997E-04  0.397E-02    0.09       1.0  T
   3   -400.4363661  0.302963E-03  0.550E-02    0.09       1.0  T
   4   -400.4367351 -0.368948E-03  0.867E-03    0.09       1.0  T
   5   -400.4367438 -0.872204E-05  0.338E-03    0.09       1.9  T
   6   -400.4367459 -0.208466E-05  0.131E-03    0.09       4.9  T
   7   -400.4367461 -0.173225E-06  0.620E-04    0.09      10.4  T
   8   -400.4367460  0.190196E-07  0.439E-04    0.09      14.7  T
     SCC iter.                  ...        0 min,  0.420 sec
     gradient                   ...        0 min,  0.217 sec
 * total energy  :  -395.0387303 Eh     change       -0.1485799E-02 Eh
   gradient norm :     0.0202476 Eh/α   predicted    -0.1370000E-02 (  -7.79%)
   displ. norm   :     0.5514564 α      lambda       -0.2307439E-02
   maximum displ.:     0.2714323 α      in ANC's #2, #3, #9, ...

........................................................................
.............................. CYCLE   79 ..............................
........................................................................

 iter      E             dE          RMSdq      gap      omega  full diag
   1   -400.4465941 -0.400447E+03  0.614E-02    0.09       0.0  T
   2   -400.4464996  0.944859E-04  0.482E-02    0.08       1.0  T
   3   -400.4464324  0.672008E-04  0.464E-02    0.09       1.0  T
   4   -400.4466207 -0.188231E-03  0.165E-02    0.09       1.0  T
   5   -400.4466420 -0.213798E-04  0.528E-03    0.08       1.2  T
   6   -400.4466457 -0.361724E-05  0.174E-03    0.09       3.7  T
   7   -400.4466458 -0.165088E-06  0.732E-04    0.09       8.8  T
   8   -400.4466458  0.151214E-07  0.488E-04    0.09      13.2  T
     SCC iter.                  ...        0 min,  0.419 sec
     gradient                   ...        0 min,  0.215 sec
 * total energy  :  -395.0401599 Eh     change       -0.1429625E-02 Eh
   gradient norm :     0.0173997 Eh/α   predicted    -0.1504573E-02 (   5.24%)
   displ. norm   :     0.7176081 α      lambda       -0.2143272E-02
   maximum displ.:     0.3732661 α      in ANC's #2, #3, #7, ...

........................................................................
.............................. CYCLE   80 ..............................
........................................................................

 iter      E             dE          RMSdq      gap      omega  full diag
   1   -400.4397543 -0.400440E+03  0.659E-02    0.09       0.0  T
   2   -400.4397604 -0.611525E-05  0.432E-02    0.08       1.0  T
   3   -400.4397383  0.221193E-04  0.330E-02    0.09       1.0  T
   4   -400.4397637 -0.253949E-04  0.183E-02    0.08       1.0  T
   5   -400.4397960 -0.323665E-04  0.778E-03    0.09       1.0  T
   6   -400.4398035 -0.745845E-05  0.178E-03    0.09       3.6  T
   7   -400.4398037 -0.178703E-06  0.827E-04    0.09       7.8  T
   8   -400.4398037  0.135971E-07  0.541E-04    0.09      11.9  T
     SCC iter.                  ...        0 min,  0.424 sec
     gradient                   ...        0 min,  0.218 sec
 * total energy  :  -395.0415430 Eh     change       -0.1383076E-02 Eh
   gradient norm :     0.0205211 Eh/α   predicted    -0.1623489E-02 (  17.38%)
   displ. norm   :     0.4071789 α      lambda       -0.1377440E-02
   maximum displ.:     0.2137165 α      in ANC's #3, #10, #2, ...

........................................................................
.............................. CYCLE   81 ..............................
........................................................................

 iter      E             dE          RMSdq      gap      omega  full diag
   1   -400.4406617 -0.400441E+03  0.494E-02    0.09       0.0  T
   2   -400.4406344  0.272949E-04  0.351E-02    0.09       1.0  T
   3   -400.4406359 -0.148284E-05  0.276E-02    0.09       1.0  T
   4   -400.4406624 -0.265305E-04  0.189E-02    0.09       1.0  T
   5   -400.4406834 -0.209926E-04  0.828E-03    0.09       1.0  T
   6   -400.4406928 -0.941668E-05  0.905E-04    0.09       7.1  T
   7   -400.4406928  0.974728E-08  0.548E-04    0.09      11.7  T
   8   -400.4406929 -0.361733E-07  0.291E-04    0.09      22.1  T
     SCC iter.                  ...        0 min,  0.419 sec
     gradient                   ...        0 min,  0.216 sec
 * total energy  :  -395.0426087 Eh     change       -0.1065665E-02 Eh
   gradient norm :     0.0189382 Eh/α   predicted    -0.8029104E-03 ( -24.66%)
   displ. norm   :     0.4631389 α      lambda       -0.1877347E-02
   maximum displ.:     0.2788829 α      in ANC's #3, #8, #5, ...

........................................................................
.............................. CYCLE   82 ..............................
........................................................................

 iter      E             dE          RMSdq      gap      omega  full diag
   1   -400.4472116 -0.400447E+03  0.598E-02    0.10       0.0  T
   2   -400.4471755  0.360663E-04  0.407E-02    0.09       1.0  T
   3   -400.4470978  0.776660E-04  0.397E-02    0.09       1.0  T
   4   -400.4472141 -0.116304E-03  0.204E-02    0.10       1.0  T
   5   -400.4472316 -0.174799E-04  0.958E-03    0.09       1.0  T
   6   -400.4472442 -0.125989E-04  0.137E-03    0.09       4.7  T
   7   -400.4472443 -0.114677E-06  0.650E-04    0.09       9.9  T
   8   -400.4472444 -0.329812E-07  0.287E-04    0.09      22.4  T
     SCC iter.                  ...        0 min,  0.420 sec
     gradient                   ...        0 min,  0.217 sec
 * total energy  :  -395.0440002 Eh     change       -0.1391498E-02 Eh
   gradient norm :     0.0153455 Eh/α   predicted    -0.1140017E-02 ( -18.07%)
   displ. norm   :     0.6473253 α      lambda       -0.1662987E-02
   maximum displ.:     0.3908513 α      in ANC's #3, #8, #53, ...

........................................................................
.............................. CYCLE   83 ..............................
........................................................................

 iter      E             dE          RMSdq      gap      omega  full diag
   1   -400.4452183 -0.400445E+03  0.661E-02    0.09       0.0  T
   2   -400.4452152  0.304913E-05  0.404E-02    0.09       1.0  T
   3   -400.4450583  0.156946E-03  0.397E-02    0.10       1.0  T
   4   -400.4451768 -0.118471E-03  0.221E-02    0.09       1.0  T
   5   -400.4452334 -0.566151E-04  0.158E-03    0.09       4.1  T
   6   -400.4452336 -0.194398E-06  0.988E-04    0.09       6.5  T
   7   -400.4452337 -0.162325E-06  0.527E-04    0.09      12.2  T
     SCC iter.                  ...        0 min,  0.365 sec
     gradient                   ...        0 min,  0.218 sec
 * total energy  :  -395.0451769 Eh     change       -0.1176663E-02 Eh
   gradient norm :     0.0162002 Eh/α   predicted    -0.1179917E-02 (   0.28%)
   displ. norm   :     0.5022320 α      lambda       -0.1659620E-02
   maximum displ.:     0.2793957 α      in ANC's #3, #8, #53, ...

........................................................................
.............................. CYCLE   84 ..............................
........................................................................

 iter      E             dE          RMSdq      gap      omega  full diag
   1   -400.4518163 -0.400452E+03  0.537E-02    0.09       0.0  T
   2   -400.4518219 -0.563210E-05  0.315E-02    0.09       1.0  T
   3   -400.4517485  0.734477E-04  0.250E-02    0.09       1.0  T
   4   -400.4518161 -0.676223E-04  0.113E-02    0.09       1.0  T
   5   -400.4518292 -0.131517E-04  0.354E-03    0.09       1.8  T
   6   -400.4518309 -0.162715E-05  0.116E-03    0.09       5.5  T
   7   -400.4518310 -0.861416E-07  0.510E-04    0.09      12.6  T
   8   -400.4518309  0.797581E-08  0.340E-04    0.09      18.9  T
     SCC iter.                  ...        0 min,  0.415 sec
     gradient                   ...        0 min,  0.217 sec
 * total energy  :  -395.0461599 Eh     change       -0.9830615E-03 Eh
   gradient norm :     0.0167444 Eh/α   predicted    -0.1039121E-02 (   5.70%)
   displ. norm   :     0.5512000 α      lambda       -0.1303445E-02
   maximum displ.:     0.3270662 α      in ANC's #3, #8, #53, ...

........................................................................
.............................. CYCLE   85 ..............................
........................................................................

 iter      E             dE          RMSdq      gap      omega  full diag
   1   -400.4474962 -0.400447E+03  0.558E-02    0.09       0.0  T
   2   -400.4474837  0.125520E-04  0.353E-02    0.09       1.0  T
   3   -400.4472174  0.266245E-03  0.502E-02    0.08       1.0  T
   4   -400.4475084 -0.290952E-03  0.742E-03    0.09       1.0  T
   5   -400.4475115 -0.312322E-05  0.372E-03    0.09       1.7  T
   6   -400.4475129 -0.141206E-05  0.808E-04    0.09       8.0  T
   7   -400.4475129 -0.156426E-07  0.407E-04    0.09      15.8  T
   8   -400.4475129 -0.502382E-09  0.203E-04    0.09      31.7  T
     SCC iter.                  ...        0 min,  0.422 sec
     gradient                   ...        0 min,  0.215 sec
 * total energy  :  -395.0468467 Eh     change       -0.6867899E-03 Eh
   gradient norm :     0.0164346 Eh/α   predicted    -0.8497314E-03 (  23.73%)
   displ. norm   :     0.2945238 α      lambda       -0.1048516E-02
   maximum displ.:     0.1256884 α      in ANC's #4, #3, #2, ...

........................................................................
.............................. CYCLE   86 ..............................
........................................................................

 iter      E             dE          RMSdq      gap      omega  full diag
   1   -400.4551352 -0.400455E+03  0.345E-02    0.08       0.0  T
   2   -400.4551142  0.209303E-04  0.274E-02    0.09       1.0  T
   3   -400.4551248 -0.105484E-04  0.205E-02    0.08       1.0  T
   4   -400.4551310 -0.620123E-05  0.140E-02    0.09       1.0  T
   5   -400.4551542 -0.231785E-04  0.499E-03    0.09       1.3  T
   6   -400.4551562 -0.198381E-05  0.926E-04    0.09       6.9  T
   7   -400.4551562 -0.395697E-07  0.481E-04    0.09      13.4  T
   8   -400.4551562 -0.100875E-07  0.221E-04    0.09      29.1  T
     SCC iter.                  ...        0 min,  0.422 sec
     gradient                   ...        0 min,  0.219 sec
 * total energy  :  -395.0472856 Eh     change       -0.4389253E-03 Eh
   gradient norm :     0.0160377 Eh/α   predicted    -0.5697348E-03 (  29.80%)
   displ. norm   :     0.3956066 α      lambda       -0.1068186E-02
   maximum displ.:     0.2060663 α      in ANC's #3, #8, #53, ...

........................................................................
.............................. CYCLE   87 ..............................
........................................................................

 iter      E             dE          RMSdq      gap      omega  full diag
   1   -400.4499678 -0.400450E+03  0.435E-02    0.09       0.0  T
   2   -400.4499705 -0.266548E-05  0.259E-02    0.09       1.0  T
   3   -400.4498902  0.802307E-04  0.257E-02    0.09       1.0  T
   4   -400.4499694 -0.791703E-04  0.938E-03    0.09       1.0  T
   5   -400.4499760 -0.654143E-05  0.376E-03    0.09       1.7  T
   6   -400.4499777 -0.178333E-05  0.887E-04    0.09       7.3  T
   7   -400.4499777 -0.116396E-07  0.447E-04    0.09      14.4  T
   8   -400.4499778 -0.135735E-07  0.257E-04    0.09      25.0  T
     SCC iter.                  ...        0 min,  0.423 sec
     gradient                   ...        0 min,  0.218 sec
 * total energy  :  -395.0478213 Eh     change       -0.5356455E-03 Eh
   gradient norm :     0.0116279 Eh/α   predicted    -0.6176838E-03 (  15.32%)
   displ. norm   :     0.2136662 α      lambda       -0.5714499E-03
   maximum displ.:     0.1200526 α      in ANC's #8, #3, #5, ...

........................................................................
.............................. CYCLE   88 ..............................
........................................................................

 iter      E             dE          RMSdq      gap      omega  full diag
   1   -400.4489266 -0.400449E+03  0.322E-02    0.09       0.0  T
   2   -400.4489219  0.470939E-05  0.228E-02    0.09       1.0  T
   3   -400.4489279 -0.598519E-05  0.162E-02    0.09       1.0  T
   4   -400.4489331 -0.520360E-05  0.903E-03    0.09       1.0  T
   5   -400.4489382 -0.512290E-05  0.360E-03    0.09       1.8  T
   6   -400.4489399 -0.163986E-05  0.106E-03    0.09       6.0  T
   7   -400.4489400 -0.714285E-07  0.399E-04    0.09      16.1  T
   8   -400.4489400 -0.214480E-07  0.220E-04    0.09      29.2  T
     SCC iter.                  ...        0 min,  0.424 sec
     gradient                   ...        0 min,  0.218 sec
 * total energy  :  -395.0480226 Eh     change       -0.2013261E-03 Eh
   gradient norm :     0.0125917 Eh/α   predicted    -0.2987704E-03 (  48.40%)
   displ. norm   :     0.2021719 α      lambda       -0.3527369E-03
   maximum displ.:     0.0936016 α      in ANC's #3, #8, #53, ...

........................................................................
.............................. CYCLE   89 ..............................
........................................................................

 iter      E             dE          RMSdq      gap      omega  full diag
   1   -400.4489559 -0.400449E+03  0.213E-02    0.09       0.0  T
   2   -400.4489528  0.312540E-05  0.143E-02    0.09       1.0  T
   3   -400.4489360  0.168150E-04  0.155E-02    0.09       1.0  T
   4   -400.4489552 -0.192844E-04  0.720E-03    0.09       1.0  T
   5   -400.4489595 -0.425665E-05  0.193E-03    0.09       3.3  T
   6   -400.4489599 -0.433796E-06  0.407E-04    0.09      15.8  T
   7   -400.4489599 -0.874559E-08  0.244E-04    0.09      26.3  T
     SCC iter.                  ...        0 min,  0.366 sec
     gradient                   ...        0 min,  0.221 sec
 * total energy  :  -395.0482136 Eh     change       -0.1910285E-03 Eh
   gradient norm :     0.0073072 Eh/α   predicted    -0.1835812E-03 (  -3.90%)
   displ. norm   :     0.0952388 α      lambda       -0.1825590E-03
   maximum displ.:     0.0482633 α      in ANC's #1, #8, #2, ...

........................................................................
.............................. CYCLE   90 ..............................
........................................................................

 iter      E             dE          RMSdq      gap      omega  full diag
   1   -400.4513714 -0.400451E+03  0.131E-02    0.09       0.0  T
   2   -400.4513697  0.166652E-05  0.930E-03    0.09       1.0  T
   3   -400.4513619  0.776225E-05  0.104E-02    0.09       1.0  T
   4   -400.4513719 -0.998705E-05  0.319E-03    0.09       2.0  T
   5   -400.4513733 -0.134622E-05  0.116E-03    0.09       5.6  T
   6   -400.4513734 -0.103550E-06  0.326E-04    0.09      19.7  T
   7   -400.4513734 -0.415037E-08  0.161E-04    0.09      40.0  T
     SCC iter.                  ...        0 min,  0.367 sec
     gradient                   ...        0 min,  0.218 sec
 * total energy  :  -395.0482981 Eh     change       -0.8442910E-04 Eh
   gradient norm :     0.0062992 Eh/α   predicted    -0.9211056E-04 (   9.10%)
   displ. norm   :     0.1083819 α      lambda       -0.1041030E-03
   maximum displ.:     0.0455822 α      in ANC's #1, #8, #2, ...

........................................................................
.............................. CYCLE   91 ..............................
........................................................................

 iter      E             dE          RMSdq      gap      omega  full diag
   1   -400.4533087 -0.400453E+03  0.105E-02    0.09       0.0  T
   2   -400.4533088 -0.115271E-06  0.649E-03    0.09       1.0  T
   3   -400.4533065  0.229003E-05  0.629E-03    0.09       1.0  T
   4   -400.4533079 -0.140155E-05  0.357E-03    0.09       1.8  T
   5   -400.4533095 -0.154544E-05  0.103E-03    0.09       6.2  T
   6   -400.4533096 -0.963781E-07  0.231E-04    0.09      27.8  T
   7   -400.4533096 -0.250122E-08  0.115E-04    0.09      55.9  T
     SCC iter.                  ...        0 min,  0.369 sec
     gradient                   ...        0 min,  0.219 sec
 * total energy  :  -395.0483533 Eh     change       -0.5524711E-04 Eh
   gradient norm :     0.0036850 Eh/α   predicted    -0.5266572E-04 (  -4.67%)
   displ. norm   :     0.1187698 α      lambda       -0.7466473E-04
   maximum displ.:     0.0571623 α      in ANC's #8, #1, #4, ...

........................................................................
.............................. CYCLE   92 ..............................
........................................................................

 iter      E             dE          RMSdq      gap      omega  full diag
   1   -400.4514893 -0.400451E+03  0.124E-02    0.09       0.0  T
   2   -400.4514885  0.814690E-06  0.866E-03    0.09       1.0  T
   3   -400.4514857  0.282507E-05  0.803E-03    0.09       1.0  T
   4   -400.4514891 -0.345087E-05  0.280E-03    0.09       2.3  T
   5   -400.4514902 -0.111516E-05  0.128E-03    0.09       5.0  T
   6   -400.4514904 -0.150578E-06  0.206E-04    0.09      31.2  T
   7   -400.4514904 -0.152698E-08  0.123E-04    0.09      52.4  T
     SCC iter.                  ...        0 min,  0.364 sec
     gradient                   ...        0 min,  0.222 sec
 * total energy  :  -395.0483946 Eh     change       -0.4127894E-04 Eh
   gradient norm :     0.0031143 Eh/α   predicted    -0.3786217E-04 (  -8.28%)
   displ. norm   :     0.0989695 α      lambda       -0.5703002E-04
   maximum displ.:     0.0591613 α      in ANC's #1, #4, #6, ...
 * RMSD in coord.:     0.5969851 α      energy gain  -0.2609467E-01 Eh

generating ANC from exact Hessian ...
Using Lindh-Hessian (1995)
 Shifting diagonal of input Hessian by    1.0161326512316920E-002
 Lowest  eigenvalues of input Hessian
    0.000000    0.010000    0.000000    0.000000    0.000000    0.000000
    0.000000    0.010368    0.010783    0.010983    0.011280    0.011937
    0.012839    0.013493    0.015124    0.016773    0.018190    0.020386
 Highest eigenvalues
    3.131732    3.202233    3.212077    3.246667    3.330298    3.334157


........................................................................
.............................. CYCLE   93 ..............................
........................................................................

 iter      E             dE          RMSdq      gap      omega  full diag
   1   -400.4524407 -0.400452E+03  0.795E-03    0.09       0.0  T
   2   -400.4524407  0.341212E-07  0.490E-03    0.09       1.3  T
   3   -400.4524393  0.137506E-05  0.485E-03    0.09       1.3  T
   4   -400.4524401 -0.823027E-06  0.285E-03    0.09       2.3  T
   5   -400.4524411 -0.997076E-06  0.620E-04    0.09      10.4  T
   6   -400.4524411 -0.430643E-07  0.220E-04    0.09      29.3  T
     SCC iter.                  ...        0 min,  0.317 sec
     gradient                   ...        0 min,  0.214 sec
 * total energy  :  -395.0484287 Eh     change       -0.3407992E-04 Eh
   gradient norm :     0.0035101 Eh/α   predicted     0.0000000E+00 (-100.00%)
   displ. norm   :     0.0407773 α      lambda       -0.3954916E-04
   maximum displ.:     0.0243856 α      in ANC's #4, #2, #8, ...

........................................................................
.............................. CYCLE   94 ..............................
........................................................................

 iter      E             dE          RMSdq      gap      omega  full diag
   1   -400.4523031 -0.400452E+03  0.603E-03    0.09       0.0  T
   2   -400.4523029  0.142755E-06  0.377E-03    0.09       1.7  T
   3   -400.4523012  0.172616E-05  0.449E-03    0.09       1.4  T
   4   -400.4523029 -0.166638E-05  0.164E-03    0.09       3.9  T
   5   -400.4523033 -0.390719E-06  0.425E-04    0.09      15.1  T
   6   -400.4523033 -0.223925E-07  0.950E-05    0.09      67.7  T
     SCC iter.                  ...        0 min,  0.320 sec
     gradient                   ...        0 min,  0.218 sec
 * total energy  :  -395.0484601 Eh     change       -0.3143565E-04 Eh
   gradient norm :     0.0013390 Eh/α   predicted    -0.2105816E-04 ( -33.01%)
   displ. norm   :     0.1245139 α      lambda       -0.4108725E-04
   maximum displ.:     0.0786479 α      in ANC's #4, #2, #8, ...

........................................................................
.............................. CYCLE   95 ..............................
........................................................................

 iter      E             dE          RMSdq      gap      omega  full diag
   1   -400.4519258 -0.400452E+03  0.142E-02    0.09       0.0  T
   2   -400.4519249  0.840725E-06  0.890E-03    0.09       1.0  T
   3   -400.4519128  0.121370E-04  0.111E-02    0.09       1.0  T
   4   -400.4519252 -0.124357E-04  0.322E-03    0.09       2.0  T
   5   -400.4519265 -0.125422E-05  0.104E-03    0.09       6.2  T
   6   -400.4519266 -0.110200E-06  0.239E-04    0.09      26.9  T
   7   -400.4519266 -0.428736E-08  0.125E-04    0.09      51.4  T
     SCC iter.                  ...        0 min,  0.369 sec
     gradient                   ...        0 min,  0.219 sec
 * total energy  :  -395.0484961 Eh     change       -0.3604083E-04 Eh
   gradient norm :     0.0027407 Eh/α   predicted    -0.2068757E-04 ( -42.60%)
   displ. norm   :     0.0581617 α      lambda       -0.2114769E-04
   maximum displ.:     0.0361186 α      in ANC's #4, #2, #9, ...

........................................................................
.............................. CYCLE   96 ..............................
........................................................................

 iter      E             dE          RMSdq      gap      omega  full diag
   1   -400.4519213 -0.400452E+03  0.597E-03    0.09       0.0  T
   2   -400.4519213 -0.314643E-07  0.351E-03    0.09       1.8  T
   3   -400.4519211  0.220250E-06  0.163E-03    0.09       3.9  T
   4   -400.4519211 -0.536185E-07  0.122E-03    0.09       5.3  T
   5   -400.4519213 -0.197742E-06  0.202E-04    0.09      31.8  T
   6   -400.4519213 -0.404816E-08  0.121E-04    0.09      53.1  T
     SCC iter.                  ...        0 min,  0.315 sec
     gradient                   ...        0 min,  0.219 sec
 * total energy  :  -395.0485154 Eh     change       -0.1922306E-04 Eh
   gradient norm :     0.0023960 Eh/α   predicted    -0.1061023E-04 ( -44.80%)
   displ. norm   :     0.1498953 α      lambda       -0.5026698E-04
   maximum displ.:     0.0889060 α      in ANC's #4, #2, #9, ...

........................................................................
.............................. CYCLE   97 ..............................
........................................................................

 iter      E             dE          RMSdq      gap      omega  full diag
   1   -400.4519922 -0.400452E+03  0.153E-02    0.09       0.0  T
   2   -400.4519922  0.652319E-07  0.910E-03    0.09       1.0  T
   3   -400.4519867  0.550352E-05  0.820E-03    0.09       1.0  T
   4   -400.4519904 -0.376640E-05  0.410E-03    0.09       1.6  T
   5   -400.4519927 -0.222702E-05  0.547E-04    0.09      11.7  T
   6   -400.4519927 -0.442269E-07  0.252E-04    0.09      25.5  T
   7   -400.4519927 -0.112419E-07  0.955E-05    0.09      67.3  T
     SCC iter.                  ...        0 min,  0.368 sec
     gradient                   ...        0 min,  0.217 sec
 * total energy  :  -395.0485531 Eh     change       -0.3775236E-04 Eh
   gradient norm :     0.0010975 Eh/α   predicted    -0.2569907E-04 ( -31.93%)
   displ. norm   :     0.2196880 α      lambda       -0.2684363E-04
   maximum displ.:     0.1284549 α      in ANC's #4, #2, #9, ...

........................................................................
.............................. CYCLE   98 ..............................
........................................................................

 iter      E             dE          RMSdq      gap      omega  full diag
   1   -400.4519650 -0.400452E+03  0.214E-02    0.09       0.0  T
   2   -400.4519643  0.724218E-06  0.130E-02    0.09       1.0  T
   3   -400.4519448  0.194777E-04  0.144E-02    0.09       1.0  T
   4   -400.4519630 -0.181981E-04  0.463E-03    0.09       1.4  T
   5   -400.4519658 -0.280431E-05  0.712E-04    0.09       9.0  T
   6   -400.4519659 -0.639510E-07  0.347E-04    0.09      18.5  T
   7   -400.4519659 -0.126377E-07  0.124E-04    0.09      51.8  T
     SCC iter.                  ...        0 min,  0.369 sec
     gradient                   ...        0 min,  0.218 sec
 * total energy  :  -395.0485732 Eh     change       -0.2006629E-04 Eh
   gradient norm :     0.0013586 Eh/α   predicted    -0.1371208E-04 ( -31.67%)
   displ. norm   :     0.0280621 α      lambda       -0.4701531E-05
   maximum displ.:     0.0168322 α      in ANC's #2, #6, #4, ...

........................................................................
.............................. CYCLE   99 ..............................
........................................................................

 iter      E             dE          RMSdq      gap      omega  full diag
   1   -400.4523116 -0.400452E+03  0.253E-03    0.09       0.0  T
   2   -400.4523116 -0.115964E-07  0.150E-03    0.09       4.3  T
   3   -400.4523116  0.554801E-07  0.104E-03    0.09       6.2  T
   4   -400.4523116  0.249088E-09  0.788E-04    0.09       8.2  T
   5   -400.4523117 -0.812279E-07  0.164E-04    0.09      39.3  T
     SCC iter.                  ...        0 min,  0.266 sec
     gradient                   ...        0 min,  0.225 sec
 * total energy  :  -395.0485789 Eh     change       -0.5722867E-05 Eh
   gradient norm :     0.0007603 Eh/α   predicted    -0.2351804E-05 ( -58.91%)
   displ. norm   :     0.0617291 α      lambda       -0.7514846E-05
   maximum displ.:     0.0344217 α      in ANC's #2, #1, #6, ...

........................................................................
.............................. CYCLE  100 ..............................
........................................................................

 iter      E             dE          RMSdq      gap      omega  full diag
   1   -400.4522825 -0.400452E+03  0.560E-03    0.09       0.0  T
   2   -400.4522825 -0.774860E-07  0.333E-03    0.09       1.9  T
   3   -400.4522825  0.895315E-07  0.226E-03    0.09       2.8  T
   4   -400.4522825 -0.315030E-07  0.127E-03    0.09       5.1  T
   5   -400.4522827 -0.195816E-06  0.274E-04    0.09      23.5  T
   6   -400.4522827 -0.320097E-08  0.231E-04    0.09      27.8  T
     SCC iter.                  ...        0 min,  0.316 sec
     gradient                   ...        0 min,  0.221 sec
 * total energy  :  -395.0485862 Eh     change       -0.7285599E-05 Eh
   gradient norm :     0.0005805 Eh/α   predicted    -0.3764748E-05 ( -48.33%)
   displ. norm   :     0.0447303 α      lambda       -0.2549752E-05
   maximum displ.:     0.0272094 α      in ANC's #2, #1, #6, ...

........................................................................
.............................. CYCLE  101 ..............................
........................................................................

 iter      E             dE          RMSdq      gap      omega  full diag
   1   -400.4522585 -0.400452E+03  0.322E-03    0.09       0.0  T
   2   -400.4522585  0.610709E-08  0.202E-03    0.09       3.2  T
   3   -400.4522584  0.978991E-07  0.171E-03    0.09       3.8  T
   4   -400.4522585 -0.100245E-06  0.950E-04    0.09       6.8  T
   5   -400.4522586 -0.789616E-07  0.395E-04    0.09      16.3  T
     SCC iter.                  ...        0 min,  0.267 sec
     gradient                   ...        0 min,  0.217 sec
 * total energy  :  -395.0485891 Eh     change       -0.2871249E-05 Eh
   gradient norm :     0.0005619 Eh/α   predicted    -0.1276474E-05 ( -55.54%)
   displ. norm   :     0.0431511 α      lambda       -0.2195237E-05
   maximum displ.:     0.0268740 α      in ANC's #2, #1, #5, ...

   *** GEOMETRY OPTIMIZATION CONVERGED AFTER 101 ITERATIONS ***

------------------------------------------------------------------------
 total energy gain   :        -0.9018693 Eh     -565.9315 kcal/mol
 total RMSD          :         1.4328979 a0        0.7583 Å
 total power (kW/mol):       -23.4441339 (step)  -33.8599 (real)
------------------------------------------------------------------------

 ANCopt (total)                0 d,  0 h,  1 min,  9.932 sec
 optimizer setup                ...        0 min,  0.001 sec (  0.001%)
 model hessian                  ...        0 min,  0.400 sec (  0.573%)
 ANC generation                 ...        0 min,  0.159 sec (  0.227%)
 coordinate transformation      ...        0 min,  0.019 sec (  0.027%)
 single point calculation       ...        1 min,  9.235 sec ( 99.004%)
 optimization log               ...        0 min,  0.032 sec (  0.045%)
 hessian update                 ...        0 min,  0.012 sec (  0.017%)
 rational function              ...        0 min,  0.059 sec (  0.084%)

================
 final structure:
================
242
 xtb: 6.7.1 (edcfbbe)
N            0.16199481917949       -1.73623261796340       -1.00316386434529
N           -0.05331928513160       -1.01452944682566        1.74671916065663
C           -0.44769158142659       -1.00666583831973       -3.29719956661172
C           -0.00169507642376       -1.95216492279279       -2.34635167711128
C            0.40933557038702       -3.30334224303956       -2.67890667450401
H            0.37184072597764       -3.73429418386779       -3.68043413501306
C            0.84774534412326       -3.87817541993565       -1.51938014226254
H            1.24492638323389       -4.88296235600923       -1.36925540653567
C            0.65791448593936       -2.89999467732819       -0.46579858613422
C            0.85712231965710       -3.16683435205377        0.90375142542519
C            0.45503522288592       -2.27764833057201        1.92013029123324
C            0.39775809701157       -2.63280974746286        3.32557118661915
H            0.74001331443705       -3.58368514271966        3.73673471529622
C           -0.19353396452734       -1.58838534027846        3.97717114067858
H           -0.43024924495201       -1.49146136155809        5.03761726356144
C           -0.45942275689870       -0.56993852731871        2.97856921586163
C            1.41130766906831       -4.50777941773062        1.30687346812081
C            2.75754774181544       -4.64353337100680        1.72141157527536
C            3.28365174780514       -5.89092955319305        2.10359854460552
C            2.45922079924216       -7.01920954009206        2.06390961398432
H            2.86863654689083       -7.99673936630854        2.35096230008058
C            1.12439986119548       -6.92506705514958        1.66179144031394
C            0.60255061875100       -5.66986353530579        1.29543171235645
N           -0.82193733162276        1.64727659470647        0.97995726397373
N           -0.55996109378572        0.93753281786363       -1.75144775758037
C           -1.02272209069876        0.69113526974418        3.26724763041550
C           -1.12596414335174        1.72940450889445        2.31605286675431
C           -1.50484576720894        3.08889194985760        2.64513175322514
H           -1.81267421535135        3.42166021818598        3.63720210060383
C           -1.37967213031456        3.82469657934240        1.49985385618640
H           -1.57023629532047        4.88763912434917        1.35361526578879
C           -0.98787393456589        2.90622644205964        0.45104525017268
C           -0.88408613455785        3.25171627848309       -0.91026704219189
C           -0.76502341477920        2.28322226547767       -1.92588392826989
C           -0.98550535719299        2.56497663136746       -3.33034426018445
H           -1.17173438453055        3.55819053246599       -3.74039543151406
C           -0.96443482805095        1.36602753170991       -3.98392903104897
H           -1.12601041096622        1.16540731477934       -5.04392688763883
C           -0.66473783628884        0.35224656260425       -2.99014902393239
C           -0.97121932353637        4.69632262874972       -1.32134716043356
C            0.20542792634496        5.38925353006198       -1.69898889934588
C            0.15677237546834        6.72371887510467       -2.13918882785354
C           -1.07600909681150        7.38251059994355       -2.17867217844508
H           -1.11850943415774        8.42699702170226       -2.51449024437897
C           -2.25585190437382        6.73439332568707       -1.80161257212824
C           -2.20239568589002        5.38938578215506       -1.38953950878147
Fe          -0.22232330546479       -0.00661156372070       -0.00372566782753
Cl          -2.44560083859405       -0.65357214014996        0.00367060313199
C           -1.59358116868612        0.92334369171720        4.64490340645134
C           -0.81950205301666        1.48712866515845        5.69397000925022
C           -2.94783287706000        0.56313003618825        4.89261515388521
C           -1.38641124611965        1.69264907893427        6.96777768560785
N            0.52386101666577        1.84110307364904        5.40562159824611
C           -3.51110377173281        0.79359838925568        6.16621090707255
N           -3.68196917968053       -0.04824411118941        3.84854367126809
H           -0.76893514316494        2.11420065049443        7.76553789061525
C           -2.72492133447615        1.34860697007595        7.17940265692143
C            1.50660270576711        2.27230910417519        6.26791498792511
H            0.78601782471452        1.72542145388669        4.42499925755368
H           -4.55899279822997        0.53168013967453        6.33308043587232
C           -5.00959816291012       -0.42876422743890        3.84834354907960
H           -3.15994419704281       -0.23456561071102        2.98701100136941
H           -3.16908727480256        1.51698686613955        8.16897674724353
O            1.37312927758407        2.40119226574949        7.47991020568149
C            2.82532898478555        2.58894318831577        5.59434445294813
O           -5.80100330285200       -0.18282426366104        4.75351085745341
C           -5.43069005142222       -1.20437479989424        2.62312148293417
C            4.09209990462389        2.22466336852425        6.32329885212616
H            2.86809668959767        2.57131327227142        4.50165384504868
C            3.66605290618711        3.67230201414162        6.28175814217102
C           -6.79138864852184       -0.92213904177639        2.03635860157309
H           -4.65328124138326       -1.52479484748336        1.91997950021489
C           -6.59673630454026       -2.17405043326686        2.85837178022612
H            3.98511298840643        1.71850197426824        7.28530868049057
H            4.95010891930038        1.93962645920836        5.71125763148507
H            3.23845170065164        4.08672969290331        7.19831914412557
C            4.42951922633001        4.62920178313405        5.42096642988879
H           -7.38092377080192       -0.13179045344924        2.50959755632411
H           -6.88864725215953       -1.02923796121126        0.95247694284232
H           -7.00664245592183       -2.16375786647456        3.87312752142537
C           -6.57539744853666       -3.50573954482913        2.18626599442295
O            4.52490867507919        5.83406384994499        6.00634972527619
O            4.91929522660208        4.35180037281184        4.34234262418330
O           -7.17386004446211       -4.44078135427399        2.95692399392999
O           -6.10048546036312       -3.73784980347388        1.09274690279819
C            5.25462550764641        6.89242738816163        5.31737095376270
C           -7.26192933819982       -5.79951740570556        2.44325505191028
C            4.26205225029814        7.75185425631156        4.52300838133895
C            6.02098629998297        7.67088727074300        6.38565188846606
H            5.95058153706589        6.39659400695346        4.61739178007651
C           -7.24070452047538       -6.72938651314882        3.65748331078985
C           -8.52497185619465       -5.93592783627530        1.58554250981293
H           -6.36962947448453       -5.96515631173234        1.81000857361061
H            3.74462281119769        7.14148946962112        3.76465591480626
H            3.51389138516996        8.19302630142788        5.19482740917080
H            4.79527501238158        8.56632120480555        4.01389387512496
H            6.70508307906905        7.01068742194036        6.93401039679399
H            6.61591349705117        8.47126459098420        5.92560419908109
H            5.33345308737022        8.12551383853473        7.11025580259343
H           -6.32198038899158       -6.58034204542416        4.23947832818511
H           -8.10514824470332       -6.53812772173315        4.31101066532964
H           -7.28665606903278       -7.77877769330172        3.33537619443494
H           -8.48168271909145       -5.24646110772494        0.73142933127621
H           -8.61703935616237       -6.96145956956586        1.20163339333779
H           -9.42455017456968       -5.71399257259734        2.17969743075386
C           -0.69515943655411       -1.49934754333877       -4.70117089115046
C            0.25599150341781       -1.30277905365362       -5.73892171944977
C           -1.89648521881873       -2.20600311527989       -4.98361678366256
C            0.04203845645001       -1.85906726371102       -7.01572976089868
N            1.39657379320708       -0.51486471767331       -5.44060785980825
C           -2.09873268715974       -2.76652548487292       -6.26270334737131
N           -2.87437142165501       -2.27797074155942       -3.96409818618091
H            0.79060357313843       -1.70140736125532       -7.79747185374853
C           -1.12605717347523       -2.59195148565189       -7.25166049022287
C            2.33056111729594        0.01722600763565       -6.30268544258770
H            1.41982822045094       -0.17036855522337       -4.47931179647885
H           -3.01736524468387       -3.32794148769647       -6.45310206527653
C           -4.10056088464824       -2.91155522037491       -3.99043159421935
H           -2.65720717221587       -1.75075596613501       -3.11404847465925
H           -1.28846456249853       -3.03199867285005       -8.24417599695650
O            2.42964140011691       -0.25883904906452       -7.49247658967946
C            3.23114202409677        1.04753250757430       -5.65491822891256
O           -4.48284858068463       -3.64716224641508       -4.89495965801562
C           -4.97055038151140       -2.60465972037239       -2.79572683229900
C            3.53457610913283        2.28513854033783       -6.46317958894464
H            3.17717667478002        1.17405068453739       -4.56811133148438
C            4.61457588304387        1.24582849340276       -6.27429387862315
C           -5.86171574341408       -3.69438502542101       -2.25764818357003
H           -4.60885068390270       -1.86892170568398       -2.06782879705201
C           -6.47896099093506       -2.59492967310938       -3.08758989435854
H            3.09110642999311        2.34521392554854       -7.46061914962492
H            3.64197398418851        3.22540919615753       -5.91728059416717
H            4.85473113758637        0.61243342903224       -7.13228794723216
C            5.74485991174742        1.57470086731211       -5.34979688339590
H           -5.79476029853618       -4.67083443504164       -2.74459723246746
H           -6.03554320458190       -3.68883878087150       -1.17831544492886
H           -6.75307148699453       -2.84784328441233       -4.11641886874955
C           -7.32259899218626       -1.54968000088011       -2.43634445873115
O            6.91193304750739        1.11492681815087       -5.83094041216732
O            5.62715120569696        2.19468590520639       -4.30938728311786
O           -8.32664776678001       -1.16429732424106       -3.25314816149445
O           -7.15264509586935       -1.10120151115128       -1.32042430003095
C            8.12938178501015        1.36972563568458       -5.06960918467507
C           -9.25309479645921       -0.15112042257935       -2.76879830018979
C            9.04297543479653        0.16154798217142       -5.28284588662026
C            8.73934800788318        2.69573508733703       -5.53315211846044
H            7.83257465815220        1.45223114521991       -4.00653552074880
C           -8.69533406108083        1.24363673320501       -3.08010424655937
C          -10.60006680394461       -0.43669059254465       -3.43187090171484
H           -9.32223803167669       -0.27637570678273       -1.67291688690833
H            8.54298265221051       -0.75816807239046       -4.95191396770354
H            9.30792505152847        0.05587929382927       -6.34591731100435
H            9.97416876521232        0.28514159360574       -4.71343491306276
H            8.04008979794865        3.52279414588053       -5.35581024316276
H            9.66644200718576        2.90396953149388       -4.98160103959818
H            8.98425272160836        2.65752770045049       -6.60581944297911
H           -7.72980248282428        1.39237739798632       -2.56996627960649
H           -8.55137497059206        1.36816882759265       -4.16228342949815
H           -9.39519850791018        2.01661718572809       -2.73340651332298
H          -10.94651712544972       -1.45123468055409       -3.18942692833793
H          -11.35888093689677        0.27698412131509       -3.08392242391341
H          -10.52565049108383       -0.35134487238621       -4.52393704654010
H            4.32894512238352       -5.97228881373703        2.42395049082457
H            0.48641216082038       -7.81573972209545        1.62720814237029
H            1.07366505816741        7.23369473348019       -2.45593227916127
H           -3.21699642485299        7.26131227087914       -1.82902218026119
O            3.50022505776790       -3.48363227874842        1.72864837938958
O           -0.69028866097912       -5.49066007788252        0.86277152485298
O            1.36094198609121        4.63945181887601       -1.67293106920796
O           -3.30911731228521        4.68339123312199       -0.97956473805823
C            4.83901660960900       -3.51256628609803        2.11813869372301
C            5.83668319247117       -3.80218346335538        1.17655535681051
C            5.17557106636125       -3.17214507553148        3.43477440592100
C            7.18203498155836       -3.75725652863343        1.56491627610950
H            5.54903958401945       -4.05452053402485        0.15038797070194
C            6.52457081131744       -3.12916339212938        3.81132461798588
H            4.37375879261845       -2.94074288472979        4.14341733294304
C            7.52940449044240       -3.42303628194756        2.88042721852978
H            7.96550948463099       -3.98223864182285        0.83226082285421
H            6.79334035518483       -2.86317886822576        4.83981849367715
H            8.58556059915292       -3.38955205466488        3.17955118024867
C           -1.65850368524806       -6.47192523065742        1.04990167754116
C           -2.02771978437242       -6.90126927164820        2.33285158458687
C           -2.31846893830188       -6.96455946487285       -0.08432808352935
C           -3.05072614010827       -7.84708888510216        2.47255783474320
H           -1.51482940958907       -6.48872217041412        3.20824550680280
C           -3.34586444499045       -7.90362990264447        0.06984177566673
H           -2.01925707363717       -6.59514900497989       -1.07050764756512
C           -3.71066592701898       -8.35293978235605        1.34525990527354
H           -3.33928893870253       -8.18804329575146        3.47299268318553
H           -3.86393370424937       -8.28885038844039       -0.81508156344719
H           -4.51112087374795       -9.09542946006134        1.46183401416706
C            2.63128242252176        5.19131282587858       -1.58213038364860
C            2.94446958314322        6.26505664501538       -0.73178384646984
C            3.64322070747723        4.55229523183694       -2.31650572028156
C            4.27116447191278        6.70589609085892       -0.64182956660006
H            2.15753645248428        6.74376513280508       -0.14152912278573
C            4.96504297737828        4.99639182897390       -2.21050581254488
H            3.38623660354898        3.70363690391995       -2.95783846706993
C            5.28454283201221        6.07963053605403       -1.37936635015373
H            4.51462261236913        7.54755608576060        0.01901367219238
H            5.73822903852360        4.47785122628216       -2.78798501732124
H            6.32029017850730        6.43472284602636       -1.30161115190065
C           -4.59660494734757        5.07408710038405       -1.32872700336357
C           -4.97499523408769        5.26632629074634       -2.66544214903744
C           -5.54193613276081        5.18490011066444       -0.29879618430037
C           -6.30426893603962        5.59048339588401       -2.96343699623822
H           -4.23002330242292        5.15433802311102       -3.46029742353128
C           -6.86949971757867        5.50207765339948       -0.61153910068879
H           -5.21968681946794        5.01140054603994        0.73275766121663
C           -7.25449320190517        5.71209903700900       -1.94158385086422
H           -6.60281526742837        5.74110887921550       -4.00660132829790
H           -7.60940433364012        5.58740615344049        0.19162048319628
H           -8.29543666645499        5.96505912848349       -2.18277986825261
N            1.34817037452580        0.43775786545474        0.07183420942631
C            2.61237567620416        0.58525049806912        0.32008397422090
C            3.47089933243097       -0.54889010396745        0.18022300959281
C            4.82014274327185       -0.44275753819451        0.38856765793826
C            5.38837602057268        0.77267432355705        0.75855651319240
C            4.57426180635766        1.88491426509998        0.90692808444283
C            3.21148462579297        1.83148955367919        0.69313268849141
C            2.38779270819313        3.07812718294909        0.83355461678625
C            2.15570171185279        3.44485374337967        2.30359658231709
C            1.48202287365945        4.76747235420240        2.57760470219667
C            0.89119664858901        5.52108681112553        1.57794103599417
C            0.29851866128822        6.74488408245369        1.84539490186438
C            0.26901329454697        7.23484957708327        3.13717915598584
C            0.83064844639680        6.48081724997351        4.15410322681639
C            1.42980618634623        5.26581843569454        3.87643194688996
H            3.01288205868505       -1.48583949174792       -0.09253165191335
H            5.44418142556021       -1.31560558440476        0.27109547698461
H            6.45125319982162        0.85180229763472        0.92253988422126
H            5.01217400459713        2.83187976088830        1.18764377744851
H            1.43995915776027        2.93328751915337        0.31719173155059
H            2.93886206012118        3.89404640072472        0.36452383478276
H            1.55309524868264        2.64950184069614        2.75416577502237
H            3.13586786042955        3.47126391086426        2.78865111801596
H            0.87218071901980        5.13025057424634        0.58087519508535
H           -0.15112162185497        7.30714548355608        1.03773734589630
H           -0.19186473582315        8.18725017452044        3.35225698452657
H            0.80502965870703        6.83935857021189        5.17251467154597
H            1.85847249432756        4.70346894395228        4.68877992912259

 Bond Distances (Angstroems)
 ---------------------------
N1-C4=1.3702         N1-C9=1.3744         N1-Fe47=2.0342       N2-C11=1.3726        N2-C16=1.3711        N2-Fe47=2.0269       
C3-C4=1.4132         C3-C39=1.4100        C3-C106=1.5083       C4-N1=1.3702         C4-C3=1.4132         C4-C5=1.4509         
C5-C4=1.4509         C5-H6=1.0910         C5-C7=1.3664         H6-C5=1.0910         C7-C5=1.3664         C7-H8=1.0908         
C7-C9=1.4501         H8-C7=1.0908         C9-N1=1.3744         C9-C7=1.4501         C9-C10=1.4095        C10-C9=1.4095        
C10-C11=1.4090       C10-C17=1.5059       C11-N2=1.3726        C11-C10=1.4090       C11-C12=1.4508       C12-C11=1.4508       
C12-H13=1.0910       C12-C14=1.3657       H13-C12=1.0910       C14-C12=1.3657       C14-H15=1.0909       C14-C16=1.4509       
H15-C14=1.0909       C16-N2=1.3711        C16-C14=1.4509       C16-C26=1.4110       C17-C10=1.5059       C17-C18=1.4151       
C17-C23=1.4159       C18-C17=1.4151       C18-C19=1.4067       C18-O167=1.3773      C19-C18=1.4067       C19-C20=1.3980       
C19-H163=1.0963      C20-C19=1.3980       C20-H21=1.0980       C20-C22=1.3973       H21-C20=1.0980       C22-C20=1.3973       
C22-C23=1.4079       C22-H164=1.0961      C23-C17=1.4159       C23-C22=1.4079       C23-O168=1.3750      N24-C27=1.3727       
N24-C32=1.3756       N24-Fe47=2.0156      N25-C34=1.3724       N25-C39=1.3740       N25-Fe47=2.0149      C26-C16=1.4110       
C26-C27=1.4119       C26-C49=1.5092       C27-N24=1.3727       C27-C26=1.4119       C27-C28=1.4492       C28-C27=1.4492       
C28-H29=1.0907       C28-C30=1.3670       H29-C28=1.0907       C30-C28=1.3670       C30-H31=1.0897       C30-C32=1.4481       
H31-C30=1.0897       C32-N24=1.3756       C32-C30=1.4481       C32-C33=1.4083       C33-C32=1.4083       C33-C34=1.4084       
C33-C40=1.5045       C34-N25=1.3724       C34-C33=1.4084       C34-C35=1.4493       C35-C34=1.4493       C35-H36=1.0905       
C35-C37=1.3657       H36-C35=1.0905       C37-C35=1.3657       C37-H38=1.0908       C37-C39=1.4509       H38-C37=1.0908       
C39-C3=1.4100        C39-N25=1.3740       C39-C37=1.4509       C40-C33=1.5045       C40-C41=1.4168       C40-C46=1.4145       
C41-C40=1.4168       C41-C42=1.4060       C41-O169=1.3777      C42-C41=1.4060       C42-C43=1.3983       C42-H165=1.0959      
C43-C42=1.3983       C43-H44=1.0980       C43-C45=1.3979       H44-C43=1.0980       C45-C43=1.3979       C45-C46=1.4077       
C45-H166=1.0964      C46-C40=1.4145       C46-C45=1.4077       C46-O170=1.3753      Fe47-N1=2.0342       Fe47-N2=2.0269       
Fe47-N24=2.0156      Fe47-N25=2.0149      Fe47-Cl48=2.3155     Fe47-N215=1.6339     Cl48-Fe47=2.3155     C49-C26=1.5092       
C49-C50=1.4204       C49-C51=1.4231       C50-C49=1.4204       C50-C52=1.4093       C50-N53=1.4188       C51-C49=1.4231       
C51-C54=1.4115       C51-N55=1.4152       C52-C50=1.4093       C52-H56=1.0933       C52-C57=1.3981       N53-C50=1.4188       
N53-C58=1.3767       N53-H59=1.0216       C54-C51=1.4115       C54-C57=1.3974       C54-H60=1.0929       N55-C51=1.4152       
N55-C61=1.3811       N55-H62=1.0244       H56-C52=1.0933       C57-C52=1.3981       C57-C54=1.3974       C57-H63=1.0977       
C58-N53=1.3767       C58-O64=1.2261       C58-C65=1.5143       H59-N53=1.0216       H60-C54=1.0929       C61-N55=1.3811       
C61-O66=1.2272       C61-C67=1.5100       H62-N55=1.0244       H63-C57=1.0977       O64-C58=1.2261       C65-C58=1.5143       
C65-C68=1.5062       C65-H69=1.0937       C65-C70=1.5340       O66-C61=1.2272       C67-C61=1.5100       C67-C71=1.5085       
C67-H72=1.0961       C67-C73=1.5347       C68-C65=1.5062       C68-C70=1.5096       C68-H74=1.0923       C68-H75=1.0918       
H69-C65=1.0937       C70-C65=1.5340       C70-C68=1.5096       C70-H76=1.0930       C70-C77=1.4965       C71-C67=1.5085       
C71-C73=1.5103       C71-H78=1.0937       C71-H79=1.0935       H72-C67=1.0961       C73-C67=1.5347       C73-C71=1.5103       
C73-H80=1.0945       C73-C81=1.4918       H74-C68=1.0923       H75-C68=1.0918       H76-C70=1.0930       C77-C70=1.4965       
C77-O82=1.3429       C77-O83=1.2167       H78-C71=1.0937       H79-C71=1.0935       H80-C73=1.0945       C81-C73=1.4918       
C81-O84=1.3514       C81-O85=1.2146       O82-C77=1.3429       O82-C86=1.4585       O83-C77=1.2167       O84-C81=1.3514       
O84-C87=1.4553       O85-C81=1.2146       C86-O82=1.4585       C86-C88=1.5345       C86-C89=1.5279       C86-H90=1.1046       
C87-O84=1.4553       C87-C91=1.5295       C87-C92=1.5328       C87-H93=1.1066       C88-C86=1.5345       C88-H94=1.1024       
C88-H95=1.0981       C88-H96=1.0986       C89-C86=1.5279       C89-H97=1.0975       C89-H98=1.0983       C89-H99=1.0975       
H90-C86=1.1046       C91-C87=1.5295       C91-H100=1.0977      C91-H101=1.1004      C91-H102=1.0987      C92-C87=1.5328       
C92-H103=1.0985      C92-H104=1.0989      C92-H105=1.1007      H93-C87=1.1066       H94-C88=1.1024       H95-C88=1.0981       
H96-C88=1.0986       H97-C89=1.0975       H98-C89=1.0983       H99-C89=1.0975       H100-C91=1.0977      H101-C91=1.1004      
H102-C91=1.0987      H103-C92=1.0985      H104-C92=1.0989      H105-C92=1.1007      C106-C3=1.5083       C106-C107=1.4214     
C106-C108=1.4221     C107-C106=1.4214     C107-C109=1.4091     C107-N110=1.4180     C108-C106=1.4221     C108-C111=1.4111     
C108-N112=1.4145     C109-C107=1.4091     C109-H113=1.0938     C109-C114=1.3990     N110-C107=1.4180     N110-C115=1.3779     
N110-H116=1.0214     C111-C108=1.4111     C111-C114=1.3981     C111-H117=1.0933     N112-C108=1.4145     N112-C118=1.3805     
N112-H119=1.0236     H113-C109=1.0938     C114-C109=1.3990     C114-C111=1.3981     C114-H120=1.0978     C115-N110=1.3779     
C115-O121=1.2254     C115-C122=1.5140     H116-N110=1.0214     H117-C111=1.0933     C118-N112=1.3805     C118-O123=1.2270     
C118-C124=1.5094     H119-N112=1.0236     H120-C114=1.0978     O121-C115=1.2254     C122-C115=1.5140     C122-C125=1.5090     
C122-H126=1.0955     C122-C127=1.5287     O123-C118=1.2270     C124-C118=1.5094     C124-C128=1.5071     C124-H129=1.0963     
C124-C130=1.5364     C125-C122=1.5090     C125-C127=1.5107     C125-H131=1.0932     C125-H132=1.0925     H126-C122=1.0955     
C127-C122=1.5287     C127-C125=1.5107     C127-H133=1.0932     C127-C134=1.4968     C128-C124=1.5071     C128-C130=1.5095     
C128-H135=1.0932     C128-H136=1.0933     H129-C124=1.0963     C130-C124=1.5364     C130-C128=1.5095     C130-H137=1.0943     
C130-C138=1.4928     H131-C125=1.0932     H132-C125=1.0925     H133-C127=1.0932     C134-C127=1.4968     C134-O139=1.3435     
C134-O140=1.2168     H135-C128=1.0932     H136-C128=1.0933     H137-C130=1.0943     C138-C130=1.4928     C138-O141=1.3505     
C138-O142=1.2146     O139-C134=1.3435     O139-C143=1.4583     O140-C134=1.2168     O141-C138=1.3505     O141-C144=1.4558     
O142-C138=1.2146     C143-O139=1.4583     C143-C145=1.5296     C143-C146=1.5314     C143-H147=1.1068     C144-O141=1.4558     
C144-C148=1.5341     C144-C149=1.5283     C144-H150=1.1052     C145-C143=1.5296     C145-H151=1.0979     C145-H152=1.1007     
C145-H153=1.0985     C146-C143=1.5314     C146-H154=1.0975     C146-H155=1.0987     C146-H156=1.1009     H147-C143=1.1068     
C148-C144=1.5341     C148-H157=1.1021     C148-H158=1.0988     C148-H159=1.0989     C149-C144=1.5283     C149-H160=1.0991     
C149-H161=1.0983     C149-H162=1.0979     H150-C144=1.1052     H151-C145=1.0979     H152-C145=1.1007     H153-C145=1.0985     
H154-C146=1.0975     H155-C146=1.0987     H156-C146=1.1009     H157-C148=1.1021     H158-C148=1.0988     H159-C148=1.0989     
H160-C149=1.0991     H161-C149=1.0983     H162-C149=1.0979     H163-C19=1.0963      H164-C22=1.0961      H165-C42=1.0959      
H166-C45=1.0964      O167-C18=1.3773      O167-C171=1.3946     O168-C23=1.3750      O168-C182=1.3912     O169-C41=1.3777      
O169-C193=1.3880     O170-C46=1.3753      O170-C204=1.3900     C171-O167=1.3946     C171-C172=1.4021     C171-C173=1.4010     
C172-C171=1.4021     C172-C174=1.4010     C172-H175=1.0952     C173-C171=1.4010     C173-C176=1.4012     C173-H177=1.0948     
C174-C172=1.4010     C174-C178=1.4010     C174-H179=1.0960     H175-C172=1.0952     C176-C173=1.4012     C176-C178=1.4009     
C176-H180=1.0958     H177-C173=1.0948     C178-C174=1.4010     C178-C176=1.4009     C178-H181=1.0982     H179-C174=1.0960     
H180-C176=1.0958     H181-C178=1.0982     C182-O168=1.3912     C182-C183=1.4024     C182-C184=1.4017     C183-C182=1.4024     
C183-C185=1.4002     C183-H186=1.0952     C184-C182=1.4017     C184-C187=1.4004     C184-H188=1.0948     C185-C183=1.4002     
C185-C189=1.4008     C185-H190=1.0956     H186-C183=1.0952     C187-C184=1.4004     C187-C189=1.4006     C187-H191=1.0954     
H188-C184=1.0948     C189-C185=1.4008     C189-C187=1.4006     C189-H192=1.0980     H190-C185=1.0956     H191-C187=1.0954     
H192-C189=1.0980     C193-O169=1.3880     C193-C194=1.4050     C193-C195=1.4042     C194-C193=1.4050     C194-C196=1.4009     
C194-H197=1.0940     C195-C193=1.4042     C195-C198=1.3985     C195-H199=1.0943     C196-C194=1.4009     C196-C200=1.4011     
C196-H201=1.0974     H197-C194=1.0940     C198-C195=1.3985     C198-C200=1.4022     C198-H202=1.0955     H199-C195=1.0943     
C200-C196=1.4011     C200-C198=1.4022     C200-H203=1.0977     H201-C196=1.0974     H202-C198=1.0955     H203-C200=1.0977     
C204-O170=1.3900     C204-C205=1.4025     C204-C206=1.4024     C205-C204=1.4025     C205-C207=1.4003     C205-H208=1.0951     
C206-C204=1.4024     C206-C209=1.4003     C206-H210=1.0946     C207-C205=1.4003     C207-C211=1.4007     C207-H212=1.0954     
H208-C205=1.0951     C209-C206=1.4003     C209-C211=1.4005     C209-H213=1.0954     H210-C206=1.0946     C211-C207=1.4007     
C211-C209=1.4005     C211-H214=1.0981     H212-C207=1.0954     H213-C209=1.0954     H214-C211=1.0981     N215-Fe47=1.6339     
N215-C216=1.2968     C216-N215=1.2968     C216-C217=1.4293     C216-C221=1.4322     C217-C216=1.4293     C217-C218=1.3694     
C217-H230=1.0780     C218-C217=1.3694     C218-C219=1.3918     C218-H231=1.0794     C219-C218=1.3918     C219-C220=1.3863     
C219-H232=1.0784     C220-C219=1.3863     C220-C221=1.3805     C220-H233=1.0804     C221-C216=1.4322     C221-C220=1.3805     
C221-C222=1.5008     C222-C221=1.5008     C222-C223=1.5328     C222-H234=1.0890     C222-H235=1.0906     C223-C222=1.5328     
C223-C224=1.5094     C223-H236=1.0949     C223-H237=1.0939     C224-C223=1.5094     C224-C225=1.3843     C224-C229=1.3921     
C225-C224=1.3843     C225-C226=1.3858     C225-H238=1.0711     C226-C225=1.3858     C226-C227=1.3819     C226-H239=1.0820     
C227-C226=1.3819     C227-C228=1.3850     C227-H240=1.0797     C228-C227=1.3850     C228-C229=1.3829     C228-H241=1.0800     
C229-C224=1.3921     C229-C228=1.3829     C229-H242=1.0770     H230-C217=1.0780     H231-C218=1.0794     H232-C219=1.0784     
H233-C220=1.0804     H234-C222=1.0890     H235-C222=1.0906     H236-C223=1.0949     H237-C223=1.0939     H238-C225=1.0711     
H239-C226=1.0820     H240-C227=1.0797     H241-C228=1.0800     H242-C229=1.0770     
 C  H  Rav=1.0945 sigma=0.0062  Rmin=1.0711  Rmax=1.1068    97
 C  C  Rav=1.4394 sigma=0.0536  Rmin=1.3657  Rmax=1.5364   115
 N  H  Rav=1.0228 sigma=0.0013  Rmin=1.0214  Rmax=1.0244     4
 N  C  Rav=1.3801 sigma=0.0274  Rmin=1.2968  Rmax=1.4188    17
 O  C  Rav=1.3356 sigma=0.0875  Rmin=1.2146  Rmax=1.4585    24
 Fe N  Rav=1.9451 sigma=0.1558  Rmin=1.6339  Rmax=2.0342     5
 Fe Cl Rav=2.3155 sigma=0.0000  Rmin=2.3155  Rmax=2.3155     1

 selected bond angles (degree)
 --------------------
C9-N1-C4=107.03                Fe47-N1-C4=126.37              Fe47-N1-C9=126.58              C16-N2-C11=107.13              
Fe47-N2-C11=126.70             Fe47-N2-C16=126.15             C39-C3-C4=123.15               C106-C3-C4=117.36              
C106-C3-C39=119.49             C3-C4-N1=126.29                C5-C4-N1=109.73                C5-C4-C3=123.94                
H6-C5-C4=124.65                C7-C5-C4=106.75                C7-C5-H6=128.60                H8-C7-C5=128.40                
C9-C7-C5=106.90                C9-C7-H8=124.68                C7-C9-N1=109.53                C10-C9-N1=126.24               
C10-C9-C7=124.04               C11-C10-C9=122.76              C17-C10-C9=118.73              C17-C10-C11=118.28             

 selected dihedral angles (degree)
 ---------------------------------
C3-C4-N1-C9=182.25            C3-C4-N1-Fe47=  1.14          C5-C4-N1-C9=359.81            C5-C4-N1-Fe47=178.70          
N1-C4-C3-C39=  6.40           N1-C4-C3-C106=186.34          C5-C4-C3-C39=189.17           C5-C4-C3-C106=  9.11          
H6-C5-C4-N1=179.44            H6-C5-C4-C3=357.07            C7-C5-C4-N1=358.69            C7-C5-C4-C3=176.32            
H8-C7-C5-C4=180.68            H8-C7-C5-H6=359.89            C9-C7-C5-C4=  2.18            C9-C7-C5-H6=181.38            
C7-C9-N1-C4=  1.55            C7-C9-N1-Fe47=182.67          C10-C9-N1-C4=186.38           C10-C9-N1-Fe47=  7.49         
N1-C9-C7-C5=357.60            N1-C9-C7-H8=179.03            C10-C9-C7-C5=172.91           C10-C9-C7-H8=354.33           
C11-C10-C9-N1=  5.44          C11-C10-C9-C7=190.93          C17-C10-C9-N1=179.90          C17-C10-C9-C7=  5.39          
           -------------------------------------------------
          |                Final Singlepoint                |
           -------------------------------------------------

          ...................................................
          :                      SETUP                      :
          :.................................................:
          :  # basis functions                 677          :
          :  # atomic orbitals                 675          :
          :  # shells                          385          :
          :  # electrons                       713          :
          :  max. iterations                   250          :
          :  Hamiltonian                  GFN2-xTB          :
          :  restarted?                      false          :
          :  GBSA solvation                   true          :
          :  PC potential                    false          :
          :  electronic temp.          300.0000000     K    :
          :  accuracy                    1.0000000          :
          :  -> integral cutoff          0.2500000E+02      :
          :  -> integral neglect         0.1000000E-07      :
          :  -> SCF convergence          0.1000000E-05 Eh   :
          :  -> wf. convergence          0.1000000E-03 e    :
          :  Broyden damping             0.4000000          :
          :  net charge                          0          :
          :  unpaired electrons                  0          :
          ...................................................

 iter      E             dE          RMSdq      gap      omega  full diag
   1   -400.4522586 -0.400452E+03  0.798E-05    0.09       0.0  T
   2   -400.4522586  0.611976E-09  0.103E-04    0.09      62.2  T
   3   -400.4522586 -0.992770E-09  0.333E-05    0.09     192.9  T

   *** convergence criteria satisfied after 3 iterations ***

         #    Occupation            Energy/Eh            Energy/eV
      -------------------------------------------------------------
         1        2.0000           -1.0136302             -27.5823
       ...           ...                  ...                  ...
       351        2.0000           -0.3792280             -10.3193
       352        2.0000           -0.3784134             -10.2972
       353        2.0000           -0.3783889             -10.2965
       354        2.0000           -0.3741594             -10.1814
       355        2.0000           -0.3735490             -10.1648
       356        2.0000           -0.3608034              -9.8180
       357        0.8486           -0.3299541              -8.9785 (HOMO)
       358        0.1514           -0.3266783              -8.8894 (LUMO)
       359                         -0.3048501              -8.2954
       360                         -0.3024384              -8.2298
       361                         -0.2667023              -7.2573
       362                         -0.2618664              -7.1257
       ...                                ...                  ...
       675                          1.5146428              41.2155
      -------------------------------------------------------------
                  HL-Gap            0.0032758 Eh            0.0891 eV
             Fermi-level           -0.3368549 Eh           -9.1663 eV

 SCC (total)                   0 d,  0 h,  0 min,  0.429 sec
 SCC setup                      ...        0 min,  0.003 sec (  0.815%)
 Dispersion                     ...        0 min,  0.003 sec (  0.718%)
 classical contributions        ...        0 min,  0.001 sec (  0.151%)
 integral evaluation            ...        0 min,  0.020 sec (  4.552%)
 iterations                     ...        0 min,  0.162 sec ( 37.801%)
 molecular gradient             ...        0 min,  0.224 sec ( 52.222%)
 printout                       ...        0 min,  0.016 sec (  3.736%)

         :::::::::::::::::::::::::::::::::::::::::::::::::::::
         ::                     SUMMARY                     ::
         :::::::::::::::::::::::::::::::::::::::::::::::::::::
         :: total energy            -395.048589080391 Eh    ::
         :: total w/o Gsasa/hb      -394.935766843463 Eh    ::
         :: gradient norm              0.000581207564 Eh/a0 ::
         :: HOMO-LUMO gap              0.089138485654 eV    ::
         ::.................................................::
         :: SCC energy              -400.427755032047 Eh    ::
         :: -> isotropic ES            0.495090693880 Eh    ::
         :: -> anisotropic ES          0.003184259551 Eh    ::
         :: -> anisotropic XC          0.164660623725 Eh    ::
         :: -> dispersion             -0.356046800345 Eh    ::
         :: -> Gsolv                  -0.158583182803 Eh    ::
         ::    -> Gelec               -0.045760945874 Eh    ::
         ::    -> Gsasa               -0.111450761225 Eh    ::
         ::    -> Ghb                 -0.006324913281 Eh    ::
         ::    -> Gshift               0.004953437577 Eh    ::
         :: repulsion energy           5.368472302604 Eh    ::
         :: add. restraining           0.010693649052 Eh    ::
         :: total charge              -0.000000000021 e     ::
         :::::::::::::::::::::::::::::::::::::::::::::::::::::

           -------------------------------------------------
          |                Property Printout                |
           -------------------------------------------------

    * Orbital Energies and Occupations

         #    Occupation            Energy/Eh            Energy/eV
      -------------------------------------------------------------
         1        2.0000           -1.0136302             -27.5823
       ...           ...                  ...                  ...
       345        2.0000           -0.3882798             -10.5656
       346        2.0000           -0.3872645             -10.5380
       347        2.0000           -0.3862822             -10.5113
       348        2.0000           -0.3827086             -10.4140
       349        2.0000           -0.3821470             -10.3987
       350        2.0000           -0.3808870             -10.3645
       351        2.0000           -0.3792280             -10.3193
       352        2.0000           -0.3784134             -10.2972
       353        2.0000           -0.3783889             -10.2965
       354        2.0000           -0.3741594             -10.1814
       355        2.0000           -0.3735490             -10.1648
       356        2.0000           -0.3608034              -9.8180
       357        0.8486           -0.3299541              -8.9785 (HOMO)
       358        0.1514           -0.3266783              -8.8894 (LUMO)
       359                         -0.3048501              -8.2954
       360                         -0.3024384              -8.2298
       361                         -0.2667023              -7.2573
       362                         -0.2618664              -7.1257
       363                         -0.2589426              -7.0462
       364                         -0.2584584              -7.0330
       365                         -0.2528898              -6.8815
       366                         -0.2515872              -6.8460
       367                         -0.2423394              -6.5944
       368                         -0.2409029              -6.5553
       ...                                ...                  ...
       675                          1.5146428              41.2155
      -------------------------------------------------------------
                  HL-Gap            0.0032758 Eh            0.0891 eV
             Fermi-level           -0.3368549 Eh           -9.1663 eV

     #   Z          covCN         q      C6AA      α(0)
     1   7 N        2.610    -0.204    25.452     7.493
     2   7 N        2.615    -0.209    25.571     7.510
     3   6 C        2.949    -0.018    28.461     8.750
     4   6 C        3.094     0.073    26.256     8.398
     5   6 C        2.989    -0.049    29.218     8.867
     6   1 H        0.924     0.044     2.398     2.422
     7   6 C        2.990    -0.042    29.021     8.837
     8   1 H        0.924     0.039     2.458     2.452
     9   6 C        3.093     0.078    26.147     8.381
    10   6 C        2.949     0.010    27.783     8.645
    11   6 C        3.092     0.079    26.131     8.379
    12   6 C        2.992    -0.042    29.044     8.840
    13   1 H        0.924     0.035     2.513     2.479
    14   6 C        2.988    -0.051    29.260     8.873
    15   1 H        0.924     0.042     2.422     2.434
    16   6 C        3.094     0.072    26.291     8.404
    17   6 C        2.960    -0.032    28.785     8.800
    18   6 C        2.855     0.142    24.906     8.180
    19   6 C        2.902    -0.074    29.836     8.956
    20   6 C        2.909    -0.035    28.869     8.810
    21   1 H        0.923     0.055     2.262     2.352
    22   6 C        2.902    -0.072    29.806     8.952
    23   6 C        2.853     0.142    24.895     8.178
    24   7 N        2.621    -0.203    25.430     7.489
    25   7 N        2.621    -0.209    25.570     7.510
    26   6 C        2.949    -0.019    28.478     8.753
    27   6 C        3.090     0.074    26.253     8.398
    28   6 C        2.991    -0.049    29.212     8.866
    29   1 H        0.924     0.040     2.447     2.446
    30   6 C        2.989    -0.038    28.930     8.823
    31   1 H        0.925     0.044     2.402     2.423
    32   6 C        3.091     0.082    26.079     8.370
    33   6 C        2.950     0.008    27.835     8.653
    34   6 C        3.095     0.079    26.131     8.378
    35   6 C        2.991    -0.043    29.055     8.842
    36   1 H        0.924     0.036     2.500     2.472
    37   6 C        2.990    -0.053    29.295     8.879
    38   1 H        0.924     0.042     2.417     2.431
    39   6 C        3.093     0.070    26.332     8.411
    40   6 C        2.961    -0.028    28.696     8.787
    41   6 C        2.850     0.142    24.904     8.179
    42   6 C        2.902    -0.070    29.735     8.941
    43   6 C        2.909    -0.035    28.865     8.810
    44   1 H        0.923     0.056     2.248     2.345
    45   6 C        2.902    -0.070    29.735     8.941
    46   6 C        2.851     0.143    24.891     8.177
    47  26 Fe       4.577     0.842     4.988     7.205
    48  17 Cl       0.749    -0.563   117.808    16.603
    49   6 C        2.966    -0.027    28.684     8.785
    50   6 C        2.893     0.072    26.398     8.424
    51   6 C        2.894     0.075    26.315     8.411
    52   6 C        2.903    -0.055    29.365     8.885
    53   7 N        2.688    -0.160    24.456     7.345
    54   6 C        2.904    -0.054    29.343     8.882
    55   7 N        2.688    -0.161    24.474     7.348
    56   1 H        0.924     0.076     2.016     2.221
    57   6 C        2.908    -0.032    28.786     8.798
    58   6 C        2.746     0.276    22.327     7.737
    59   1 H        0.860     0.192     1.148     1.678
    60   1 H        0.924     0.078     1.997     2.210
    61   6 C        2.747     0.278    22.295     7.732
    62   1 H        0.859     0.198     1.116     1.655
    63   1 H        0.924     0.053     2.281     2.362
    64   8 O        0.857    -0.461    22.930     6.420
    65   6 C        3.856    -0.045    21.345     6.571
    66   8 O        0.857    -0.461    22.931     6.420
    67   6 C        3.856    -0.038    21.214     6.551
    68   6 C        3.803    -0.053    21.524     6.605
    69   1 H        0.924     0.067     2.114     2.274
    70   6 C        3.855    -0.040    21.249     6.556
    71   6 C        3.802    -0.049    21.448     6.593
    72   1 H        0.924     0.067     2.121     2.278
    73   6 C        3.855    -0.041    21.276     6.560
    74   1 H        0.924     0.077     2.009     2.217
    75   1 H        0.924     0.072     2.063     2.246
    76   1 H        0.924     0.080     1.980     2.200
    77   6 C        2.702     0.359    20.901     7.483
    78   1 H        0.924     0.073     2.050     2.239
    79   1 H        0.924     0.087     1.909     2.161
    80   1 H        0.924     0.081     1.973     2.197
    81   6 C        2.703     0.358    20.917     7.486
    82   8 O        1.700    -0.288    18.786     5.852
    83   8 O        0.856    -0.460    22.913     6.418
    84   8 O        1.700    -0.295    18.903     5.870
    85   8 O        0.856    -0.454    22.784     6.400
    86   6 C        3.730     0.119    18.734     6.179
    87   6 C        3.730     0.122    18.687     6.171
    88   6 C        3.746    -0.116    22.787     6.809
    89   6 C        3.747    -0.124    22.953     6.833
    90   1 H        0.923     0.052     2.292     2.367
    91   6 C        3.747    -0.122    22.908     6.827
    92   6 C        3.746    -0.119    22.844     6.818
    93   1 H        0.922     0.045     2.386     2.416
    94   1 H        0.923     0.046     2.366     2.405
    95   1 H        0.923     0.058     2.224     2.332
    96   1 H        0.923     0.061     2.190     2.314
    97   1 H        0.924     0.057     2.240     2.341
    98   1 H        0.923     0.063     2.168     2.303
    99   1 H        0.924     0.064     2.149     2.292
   100   1 H        0.924     0.055     2.255     2.348
   101   1 H        0.923     0.065     2.146     2.291
   102   1 H        0.923     0.061     2.182     2.310
   103   1 H        0.923     0.049     2.329     2.387
   104   1 H        0.923     0.060     2.197     2.318
   105   1 H        0.923     0.058     2.220     2.330
   106   6 C        2.967    -0.028    28.691     8.786
   107   6 C        2.893     0.072    26.387     8.422
   108   6 C        2.894     0.075    26.313     8.410
   109   6 C        2.903    -0.055    29.360     8.885
   110   7 N        2.689    -0.162    24.513     7.353
   111   6 C        2.903    -0.054    29.341     8.882
   112   7 N        2.689    -0.161    24.477     7.348
   113   1 H        0.924     0.076     2.016     2.221
   114   6 C        2.908    -0.031    28.781     8.797
   115   6 C        2.746     0.276    22.325     7.737
   116   1 H        0.860     0.198     1.118     1.656
   117   1 H        0.924     0.077     2.006     2.215
   118   6 C        2.746     0.278    22.300     7.732
   119   1 H        0.859     0.197     1.120     1.658
   120   1 H        0.924     0.054     2.274     2.358
   121   8 O        0.857    -0.457    22.859     6.410
   122   6 C        3.857    -0.040    21.252     6.556
   123   8 O        0.857    -0.460    22.916     6.418
   124   6 C        3.856    -0.038    21.211     6.550
   125   6 C        3.803    -0.051    21.479     6.598
   126   1 H        0.924     0.058     2.225     2.333
   127   6 C        3.855    -0.042    21.285     6.562
   128   6 C        3.803    -0.049    21.454     6.594
   129   1 H        0.924     0.064     2.149     2.292
   130   6 C        3.855    -0.041    21.268     6.559
   131   1 H        0.924     0.078     1.996     2.209
   132   1 H        0.924     0.070     2.081     2.256
   133   1 H        0.924     0.083     1.951     2.184
   134   6 C        2.703     0.358    20.924     7.487
   135   1 H        0.924     0.075     2.033     2.230
   136   1 H        0.924     0.086     1.917     2.165
   137   1 H        0.924     0.080     1.980     2.201
   138   6 C        2.703     0.358    20.919     7.486
   139   8 O        1.700    -0.289    18.796     5.853
   140   8 O        0.856    -0.457    22.849     6.409
   141   8 O        1.700    -0.294    18.892     5.868
   142   8 O        0.856    -0.454    22.781     6.399
   143   6 C        3.730     0.119    18.728     6.178
   144   6 C        3.731     0.120    18.706     6.174
   145   6 C        3.747    -0.125    22.962     6.835
   146   6 C        3.746    -0.119    22.860     6.820
   147   1 H        0.922     0.051     2.310     2.377
   148   6 C        3.745    -0.117    22.817     6.814
   149   6 C        3.747    -0.124    22.949     6.833
   150   1 H        0.922     0.048     2.341     2.393
   151   1 H        0.924     0.057     2.230     2.335
   152   1 H        0.923     0.064     2.151     2.294
   153   1 H        0.923     0.063     2.159     2.298
   154   1 H        0.924     0.050     2.314     2.379
   155   1 H        0.923     0.061     2.187     2.313
   156   1 H        0.923     0.059     2.210     2.325
   157   1 H        0.923     0.048     2.348     2.396
   158   1 H        0.923     0.058     2.225     2.333
   159   1 H        0.923     0.059     2.208     2.324
   160   1 H        0.923     0.057     2.231     2.336
   161   1 H        0.923     0.062     2.170     2.304
   162   1 H        0.923     0.064     2.151     2.294
   163   1 H        0.924     0.047     2.363     2.404
   164   1 H        0.924     0.047     2.353     2.399
   165   1 H        0.924     0.053     2.278     2.360
   166   1 H        0.924     0.049     2.334     2.389
   167   8 O        1.706    -0.294    18.880     5.867
   168   8 O        1.706    -0.290    18.817     5.857
   169   8 O        1.706    -0.283    18.699     5.838
   170   8 O        1.706    -0.287    18.771     5.850
   171   6 C        2.853     0.138    24.983     8.192
   172   6 C        2.906    -0.048    29.181     8.858
   173   6 C        2.906    -0.047    29.170     8.856
   174   6 C        2.909    -0.032    28.791     8.798
   175   1 H        0.924     0.049     2.334     2.389
   176   6 C        2.909    -0.031    28.761     8.794
   177   1 H        0.924     0.050     2.318     2.381
   178   6 C        2.905    -0.035    28.868     8.810
   179   1 H        0.924     0.051     2.308     2.376
   180   1 H        0.924     0.052     2.301     2.372
   181   1 H        0.923     0.051     2.311     2.377
   182   6 C        2.851     0.139    24.974     8.191
   183   6 C        2.905    -0.050    29.238     8.866
   184   6 C        2.906    -0.047    29.163     8.855
   185   6 C        2.909    -0.032    28.793     8.799
   186   1 H        0.924     0.043     2.414     2.430
   187   6 C        2.909    -0.030    28.748     8.792
   188   1 H        0.924     0.051     2.304     2.374
   189   6 C        2.905    -0.036    28.906     8.816
   190   1 H        0.924     0.048     2.344     2.394
   191   1 H        0.924     0.051     2.304     2.374
   192   1 H        0.923     0.048     2.340     2.392
   193   6 C        2.846     0.139    24.969     8.189
   194   6 C        2.905    -0.058    29.442     8.897
   195   6 C        2.906    -0.047    29.175     8.857
   196   6 C        2.909    -0.032    28.800     8.800
   197   1 H        0.924     0.051     2.307     2.375
   198   6 C        2.908    -0.028    28.690     8.783
   199   1 H        0.924     0.047     2.362     2.403
   200   6 C        2.905    -0.038    28.946     8.822
   201   1 H        0.924     0.044     2.394     2.420
   202   1 H        0.924     0.052     2.291     2.367
   203   1 H        0.924     0.045     2.386     2.415
   204   6 C        2.851     0.138    24.983     8.192
   205   6 C        2.905    -0.051    29.266     8.870
   206   6 C        2.906    -0.049    29.209     8.862
   207   6 C        2.910    -0.032    28.804     8.800
   208   1 H        0.924     0.042     2.426     2.436
   209   6 C        2.909    -0.030    28.758     8.793
   210   1 H        0.924     0.052     2.298     2.371
   211   6 C        2.905    -0.037    28.925     8.819
   212   1 H        0.924     0.049     2.334     2.389
   213   1 H        0.924     0.050     2.317     2.380
   214   1 H        0.923     0.048     2.342     2.393
   215   7 N        1.743    -0.297    28.469     7.896
   216   6 C        2.901     0.112    25.538     8.286
   217   6 C        2.925    -0.035    28.868     8.811
   218   6 C        2.914    -0.029    28.729     8.789
   219   6 C        2.915    -0.034    28.856     8.809
   220   6 C        2.920    -0.036    28.892     8.815
   221   6 C        2.966     0.007    27.860     8.658
   222   6 C        3.807    -0.058    21.620     6.619
   223   6 C        3.807    -0.053    21.518     6.603
   224   6 C        2.964     0.010    27.784     8.646
   225   6 C        2.929    -0.042    29.042     8.838
   226   6 C        2.920    -0.032    28.800     8.800
   227   6 C        2.919    -0.037    28.922     8.819
   228   6 C        2.920    -0.032    28.800     8.800
   229   6 C        2.929    -0.043    29.069     8.842
   230   1 H        0.926     0.045     2.381     2.413
   231   1 H        0.926     0.048     2.346     2.395
   232   1 H        0.926     0.050     2.321     2.382
   233   1 H        0.926     0.055     2.263     2.353
   234   1 H        0.925     0.047     2.356     2.400
   235   1 H        0.924     0.054     2.273     2.358
   236   1 H        0.924     0.028     2.622     2.532
   237   1 H        0.924     0.058     2.223     2.332
   238   1 H        0.926     0.044     2.399     2.422
   239   1 H        0.925     0.024     2.667     2.554
   240   1 H        0.926     0.035     2.520     2.482
   241   1 H        0.926     0.033     2.540     2.492
   242   1 H        0.926     0.024     2.679     2.559

 Mol. C6AA /au·bohr⁶  :     740126.828302
 Mol. C8AA /au·bohr⁸  :   18188569.056198
 Mol. α(0) /au        :       1351.202273


Wiberg/Mayer (AO) data.
largest (>0.10) Wiberg bond orders for each atom

 ---------------------------------------------------------------------------
     #   Z sym  total        # sym  WBO       # sym  WBO       # sym  WBO
 ---------------------------------------------------------------------------
     1   7 N    3.446 --     4 C    1.252     9 C    1.243    47 Fe   0.589
     2   7 N    3.437 --    16 C    1.251    11 C    1.249    47 Fe   0.572
     3   6 C    3.929 --    39 C    1.313     4 C    1.298   106 C    1.001
     4   6 C    3.927 --     3 C    1.298     1 N    1.252     5 C    1.169
     5   6 C    3.954 --     7 C    1.649     4 C    1.169     6 H    0.969
     6   1 H    0.997 --     5 C    0.969
     7   6 C    3.954 --     5 C    1.649     9 C    1.169     8 H    0.970
     8   1 H    0.998 --     7 C    0.970
     9   6 C    3.927 --    10 C    1.311     1 N    1.243     7 C    1.169
    10   6 C    3.931 --    11 C    1.313     9 C    1.311    17 C    1.004
    11   6 C    3.926 --    10 C    1.313     2 N    1.249    12 C    1.164
    12   6 C    3.954 --    14 C    1.658    11 C    1.164    13 H    0.970
    13   1 H    0.998 --    12 C    0.970
    14   6 C    3.953 --    12 C    1.658    16 C    1.163    15 H    0.970
    15   1 H    0.997 --    14 C    0.970
    16   6 C    3.926 --    26 C    1.307     2 N    1.251    14 C    1.163
    17   6 C    3.973 --    18 C    1.339    23 C    1.338    10 C    1.004
                            20 C    0.101
    18   6 C    3.921 --    19 C    1.365    17 C    1.339   167 O    1.035
    19   6 C    3.977 --    20 C    1.438    18 C    1.365   163 H    0.964
    20   6 C    3.986 --    22 C    1.442    19 C    1.438    21 H    0.968
                            17 C    0.101
    21   1 H    0.996 --    20 C    0.968
    22   6 C    3.979 --    20 C    1.442    23 C    1.362   164 H    0.964
    23   6 C    3.919 --    22 C    1.362    17 C    1.338   168 O    1.036
    24   7 N    3.450 --    27 C    1.243    32 C    1.238    47 Fe   0.601
    25   7 N    3.438 --    34 C    1.250    39 C    1.242    47 Fe   0.587
    26   6 C    3.927 --    16 C    1.307    27 C    1.304    49 C    0.997
    27   6 C    3.926 --    26 C    1.304    24 N    1.243    28 C    1.170
    28   6 C    3.955 --    30 C    1.643    27 C    1.170    29 H    0.970
    29   1 H    0.997 --    28 C    0.970
    30   6 C    3.954 --    28 C    1.643    32 C    1.168    31 H    0.966
    31   1 H    0.997 --    30 C    0.966
    32   6 C    3.926 --    33 C    1.309    24 N    1.238    30 C    1.168
    33   6 C    3.933 --    34 C    1.310    32 C    1.309    40 C    1.005
    34   6 C    3.926 --    33 C    1.310    25 N    1.250    35 C    1.165
    35   6 C    3.952 --    37 C    1.655    34 C    1.165    36 H    0.970
    36   1 H    0.998 --    35 C    0.970
    37   6 C    3.952 --    35 C    1.655    39 C    1.164    38 H    0.969
    38   1 H    0.997 --    37 C    0.969
    39   6 C    3.927 --     3 C    1.313    25 N    1.242    37 C    1.164
    40   6 C    3.972 --    46 C    1.339    41 C    1.336    33 C    1.005
    41   6 C    3.922 --    42 C    1.367    40 C    1.336   169 O    1.030
    42   6 C    3.978 --    43 C    1.437    41 C    1.367   165 H    0.964
    43   6 C    3.985 --    45 C    1.442    42 C    1.437    44 H    0.968
    44   1 H    0.996 --    43 C    0.968
    45   6 C    3.976 --    43 C    1.442    46 C    1.363   166 H    0.965
    46   6 C    3.920 --    45 C    1.363    40 C    1.339   170 O    1.035
    47  26 Fe   5.197 --   215 N    1.574    24 N    0.601    48 Cl   0.592
                             1 N    0.589    25 N    0.587     2 N    0.572
                           217 C    0.108   221 C    0.102
    48  17 Cl   0.748 --    47 Fe   0.592
    49   6 C    3.971 --    50 C    1.348    51 C    1.339    26 C    0.997
    50   6 C    3.950 --    52 C    1.370    49 C    1.348    53 N    1.064
    51   6 C    3.950 --    54 C    1.365    49 C    1.339    55 N    1.076
    52   6 C    3.978 --    57 C    1.439    50 C    1.370    56 H    0.958
    53   7 N    3.498 --    58 C    1.215    50 C    1.064    59 H    0.915
                            64 O    0.166
    54   6 C    3.969 --    57 C    1.444    51 C    1.365    60 H    0.956
    55   7 N    3.500 --    61 C    1.205    51 C    1.076    62 H    0.919
                            66 O    0.160
    56   1 H    0.992 --    52 C    0.958
    57   6 C    3.987 --    54 C    1.444    52 C    1.439    63 H    0.968
    58   6 C    3.949 --    64 O    1.659    53 N    1.215    65 C    0.990
    59   1 H    0.963 --    53 N    0.915
    60   1 H    0.992 --    54 C    0.956
    61   6 C    3.948 --    66 O    1.657    55 N    1.205    67 C    0.999
    62   1 H    0.960 --    55 N    0.919
    63   1 H    0.996 --    57 C    0.968
    64   8 O    1.981 --    58 C    1.659    53 N    0.166
    65   6 C    3.938 --    58 C    0.990    68 C    0.958    69 H    0.950
                            70 C    0.890
    66   8 O    1.987 --    61 C    1.657    55 N    0.160
    67   6 C    3.939 --    61 C    0.999    72 H    0.964    71 C    0.956
                            73 C    0.887
    68   6 C    3.938 --    75 H    0.975    74 H    0.973    65 C    0.958
                            70 C    0.945
    69   1 H    0.995 --    65 C    0.950
    70   6 C    3.938 --    77 C    1.005    76 H    0.964    68 C    0.945
                            65 C    0.890
    71   6 C    3.936 --    78 H    0.974    79 H    0.968    67 C    0.956
                            73 C    0.943
    72   1 H    0.995 --    67 C    0.964
    73   6 C    3.937 --    81 C    1.013    80 H    0.963    71 C    0.943
                            67 C    0.887
    74   1 H    0.993 --    68 C    0.973
    75   1 H    0.994 --    68 C    0.975
    76   1 H    0.994 --    70 C    0.964
    77   6 C    3.918 --    83 O    1.690    82 O    1.150    70 C    1.005
    78   1 H    0.994 --    71 C    0.974
    79   1 H    0.992 --    71 C    0.968
    80   1 H    0.993 --    73 C    0.963
    81   6 C    3.918 --    85 O    1.699    84 O    1.132    73 C    1.013
    82   8 O    2.300 --    77 C    1.150    86 C    0.900    83 O    0.170
    83   8 O    1.994 --    77 C    1.690    82 O    0.170
    84   8 O    2.285 --    81 C    1.132    87 C    0.904    85 O    0.167
    85   8 O    2.004 --    81 C    1.699    84 O    0.167
    86   6 C    3.910 --    89 C    1.007    88 C    1.002    90 H    0.961
                            82 O    0.900
    87   6 C    3.913 --    91 C    1.007    92 C    1.003    93 H    0.962
                            84 O    0.904
    88   6 C    3.990 --    86 C    1.002    95 H    0.984    94 H    0.984
                            96 H    0.982
    89   6 C    3.989 --    86 C    1.007    97 H    0.984    99 H    0.983
                            98 H    0.981
    90   1 H    0.997 --    86 C    0.961
    91   6 C    3.989 --    87 C    1.007   100 H    0.985   101 H    0.983
                           102 H    0.982
    92   6 C    3.990 --    87 C    1.003   103 H    0.985   105 H    0.985
                           104 H    0.982
    93   1 H    0.998 --    87 C    0.962
    94   1 H    0.998 --    88 C    0.984
    95   1 H    0.997 --    88 C    0.984
    96   1 H    0.996 --    88 C    0.982
    97   1 H    0.997 --    89 C    0.984
    98   1 H    0.995 --    89 C    0.981
    99   1 H    0.996 --    89 C    0.983
   100   1 H    0.997 --    91 C    0.985
   101   1 H    0.996 --    91 C    0.983
   102   1 H    0.995 --    91 C    0.982
   103   1 H    0.998 --    92 C    0.985
   104   1 H    0.996 --    92 C    0.982
   105   1 H    0.997 --    92 C    0.985
   106   6 C    3.971 --   107 C    1.343   108 C    1.339     3 C    1.001
   107   6 C    3.950 --   109 C    1.371   106 C    1.343   110 N    1.065
   108   6 C    3.950 --   111 C    1.365   106 C    1.339   112 N    1.075
   109   6 C    3.970 --   114 C    1.437   107 C    1.371   113 H    0.958
   110   7 N    3.496 --   115 C    1.212   107 C    1.065   116 H    0.919
                           121 O    0.166
   111   6 C    3.969 --   114 C    1.444   108 C    1.365   117 H    0.957
   112   7 N    3.499 --   118 C    1.205   108 C    1.075   119 H    0.919
                           123 O    0.161
   113   1 H    0.992 --   109 C    0.958
   114   6 C    3.986 --   111 C    1.444   109 C    1.437   120 H    0.968
   115   6 C    3.950 --   121 O    1.663   110 N    1.212   122 C    0.990
   116   1 H    0.960 --   110 N    0.919
   117   1 H    0.992 --   111 C    0.957
   118   6 C    3.949 --   123 O    1.658   112 N    1.205   124 C    0.999
   119   1 H    0.960 --   112 N    0.919
   120   1 H    0.996 --   114 C    0.968
   121   8 O    1.984 --   115 C    1.663   110 N    0.166
   122   6 C    3.940 --   115 C    0.990   126 H    0.965   125 C    0.955
                           127 C    0.899
   123   8 O    1.978 --   118 C    1.658   112 N    0.161
   124   6 C    3.939 --   118 C    0.999   129 H    0.965   128 C    0.958
                           130 C    0.882
   125   6 C    3.938 --   132 H    0.975   131 H    0.973   122 C    0.955
                           127 C    0.943
   126   1 H    0.997 --   122 C    0.965
   127   6 C    3.938 --   134 C    1.005   133 H    0.964   125 C    0.943
                           122 C    0.899
   128   6 C    3.936 --   135 H    0.973   136 H    0.967   124 C    0.958
                           130 C    0.945
   129   1 H    0.996 --   124 C    0.965
   130   6 C    3.937 --   138 C    1.012   137 H    0.964   128 C    0.945
                           124 C    0.882
   131   1 H    0.994 --   125 C    0.973
   132   1 H    0.995 --   125 C    0.975
   133   1 H    0.993 --   127 C    0.964
   134   6 C    3.919 --   140 O    1.694   139 O    1.149   127 C    1.005
   135   1 H    0.994 --   128 C    0.973
   136   1 H    0.992 --   128 C    0.967
   137   1 H    0.993 --   130 C    0.964
   138   6 C    3.918 --   142 O    1.699   141 O    1.134   130 C    1.012
   139   8 O    2.298 --   134 C    1.149   143 C    0.899   140 O    0.170
   140   8 O    1.996 --   134 C    1.694   139 O    0.170
   141   8 O    2.286 --   138 C    1.134   144 C    0.903   142 O    0.167
   142   8 O    2.005 --   138 C    1.699   141 O    0.167
   143   6 C    3.910 --   145 C    1.007   146 C    1.004   147 H    0.961
                           139 O    0.899
   144   6 C    3.912 --   149 C    1.007   148 C    1.002   150 H    0.961
                           141 O    0.903
   145   6 C    3.989 --   143 C    1.007   151 H    0.984   152 H    0.983
                           153 H    0.981
   146   6 C    3.990 --   143 C    1.004   154 H    0.985   156 H    0.984
                           155 H    0.981
   147   1 H    0.997 --   143 C    0.961
   148   6 C    3.991 --   144 C    1.002   157 H    0.985   158 H    0.985
                           159 H    0.982
   149   6 C    3.989 --   144 C    1.007   160 H    0.984   162 H    0.983
                           161 H    0.982
   150   1 H    0.998 --   144 C    0.961
   151   1 H    0.997 --   145 C    0.984
   152   1 H    0.996 --   145 C    0.983
   153   1 H    0.995 --   145 C    0.981
   154   1 H    0.997 --   146 C    0.985
   155   1 H    0.996 --   146 C    0.981
   156   1 H    0.996 --   146 C    0.984
   157   1 H    0.998 --   148 C    0.985
   158   1 H    0.997 --   148 C    0.985
   159   1 H    0.996 --   148 C    0.982
   160   1 H    0.997 --   149 C    0.984
   161   1 H    0.995 --   149 C    0.982
   162   1 H    0.996 --   149 C    0.983
   163   1 H    0.997 --    19 C    0.964
   164   1 H    0.996 --    22 C    0.964
   165   1 H    0.996 --    42 C    0.964
   166   1 H    0.996 --    45 C    0.965
   167   8 O    2.246 --    18 C    1.035   171 C    0.973
   168   8 O    2.264 --    23 C    1.036   182 C    0.985
   169   8 O    2.279 --    41 C    1.030   193 C    0.996
   170   8 O    2.269 --    46 C    1.035   204 C    0.989
   171   6 C    3.924 --   173 C    1.397   172 C    1.393   167 O    0.973
                           178 C    0.104
   172   6 C    3.987 --   174 C    1.441   171 C    1.393   175 H    0.968
                           176 C    0.112
   173   6 C    3.987 --   176 C    1.440   171 C    1.397   177 H    0.968
                           174 C    0.111
   174   6 C    3.988 --   172 C    1.441   178 C    1.438   179 H    0.969
                           173 C    0.111
   175   1 H    0.998 --   172 C    0.968
   176   6 C    3.988 --   173 C    1.440   178 C    1.439   180 H    0.969
                           172 C    0.112
   177   1 H    0.997 --   173 C    0.968
   178   6 C    3.989 --   176 C    1.439   174 C    1.438   181 H    0.969
                           171 C    0.104
   179   1 H    0.997 --   174 C    0.969
   180   1 H    0.997 --   176 C    0.969
   181   1 H    0.997 --   178 C    0.969
   182   6 C    3.922 --   184 C    1.390   183 C    1.388   168 O    0.985
                           189 C    0.102
   183   6 C    3.986 --   185 C    1.443   182 C    1.388   186 H    0.968
                           187 C    0.111
   184   6 C    3.985 --   187 C    1.442   182 C    1.390   188 H    0.968
                           185 C    0.111
   185   6 C    3.989 --   183 C    1.443   189 C    1.436   190 H    0.969
                           184 C    0.111
   186   1 H    0.998 --   183 C    0.968
   187   6 C    3.988 --   184 C    1.442   189 C    1.438   191 H    0.969
                           183 C    0.111
   188   1 H    0.997 --   184 C    0.968
   189   6 C    3.987 --   187 C    1.438   185 C    1.436   192 H    0.969
                           182 C    0.102
   190   1 H    0.997 --   185 C    0.969
   191   1 H    0.997 --   187 C    0.969
   192   1 H    0.998 --   189 C    0.969
   193   6 C    3.920 --   194 C    1.377   195 C    1.376   169 O    0.996
   194   6 C    3.984 --   196 C    1.441   193 C    1.377   197 H    0.959
                           198 C    0.109
   195   6 C    3.984 --   198 C    1.449   193 C    1.376   199 H    0.968
                           196 C    0.109
   196   6 C    3.989 --   194 C    1.441   200 C    1.438   201 H    0.970
                           195 C    0.109
   197   1 H    0.997 --   194 C    0.959
   198   6 C    3.987 --   195 C    1.449   200 C    1.433   202 H    0.968
                           194 C    0.109
   199   1 H    0.998 --   195 C    0.968
   200   6 C    3.986 --   196 C    1.438   198 C    1.433   203 H    0.970
   201   1 H    0.998 --   196 C    0.970
   202   1 H    0.997 --   198 C    0.968
   203   1 H    0.998 --   200 C    0.970
   204   6 C    3.921 --   205 C    1.387   206 C    1.386   170 O    0.989
                           211 C    0.102
   205   6 C    3.986 --   207 C    1.443   204 C    1.387   208 H    0.968
                           209 C    0.110
   206   6 C    3.985 --   209 C    1.444   204 C    1.386   210 H    0.968
                           207 C    0.111
   207   6 C    3.988 --   205 C    1.443   211 C    1.436   212 H    0.969
                           206 C    0.111
   208   1 H    0.998 --   205 C    0.968
   209   6 C    3.988 --   206 C    1.444   211 C    1.437   213 H    0.969
                           205 C    0.110
   210   1 H    0.997 --   206 C    0.968
   211   6 C    3.987 --   209 C    1.437   207 C    1.436   214 H    0.969
                           204 C    0.102
   212   1 H    0.997 --   207 C    0.969
   213   1 H    0.997 --   209 C    0.969
   214   1 H    0.998 --   211 C    0.969
   215   7 N    3.290 --    47 Fe   1.574   216 C    1.409
   216   6 C    3.969 --   215 N    1.409   221 C    1.171   217 C    1.167
   217   6 C    3.931 --   218 C    1.521   216 C    1.167   230 H    0.965
                            47 Fe   0.108
   218   6 C    3.988 --   217 C    1.521   219 C    1.375   231 H    0.959
   219   6 C    3.884 --   220 C    1.412   218 C    1.375   232 H    0.970
   220   6 C    3.989 --   221 C    1.463   219 C    1.412   233 H    0.961
   221   6 C    3.929 --   220 C    1.463   216 C    1.171   222 C    1.015
                            47 Fe   0.102
   222   6 C    3.990 --   221 C    1.015   223 C    0.984   234 H    0.959
                           235 H    0.953
   223   6 C    3.992 --   224 C    1.007   222 C    0.984   237 H    0.953
                           236 H    0.950
   224   6 C    3.986 --   225 C    1.416   229 C    1.403   223 C    1.007
                           227 C    0.109
   225   6 C    3.990 --   226 C    1.428   224 C    1.416   238 H    0.955
                           228 C    0.108
   226   6 C    3.992 --   227 C    1.447   225 C    1.428   239 H    0.970
                           229 C    0.112
   227   6 C    3.991 --   226 C    1.447   228 C    1.429   240 H    0.971
                           224 C    0.109
   228   6 C    3.990 --   229 C    1.452   227 C    1.429   241 H    0.971
                           225 C    0.108
   229   6 C    3.991 --   228 C    1.452   224 C    1.403   242 H    0.963
                           226 C    0.112
   230   1 H    0.997 --   217 C    0.965
   231   1 H    0.990 --   218 C    0.959
   232   1 H    0.997 --   219 C    0.970
   233   1 H    0.991 --   220 C    0.961
   234   1 H    0.997 --   222 C    0.959
   235   1 H    0.995 --   222 C    0.953
   236   1 H    0.999 --   223 C    0.950
   237   1 H    0.996 --   223 C    0.953
   238   1 H    0.998 --   225 C    0.955
   239   1 H    0.999 --   226 C    0.970
   240   1 H    0.998 --   227 C    0.971
   241   1 H    0.998 --   228 C    0.971
   242   1 H    0.999 --   229 C    0.963
 ---------------------------------------------------------------------------

Topologies differ in total number of bonds
Writing topology from bond orders to xtbtopo.mol

molecular dipole:
                 x           y           z       tot (Debye)
 q only:        3.955       1.579       0.116
   full:        4.164       1.599       0.150      11.345
molecular quadrupole (traceless):
                xx          xy          yy          xz          yz          zz
 q only:       49.612       1.319      58.274      22.847     -41.128    -107.886
  q+dip:       41.603      -7.634      64.059      24.256     -43.648    -105.662
   full:       45.412      -7.099      69.489      26.337     -50.576    -114.901

           -------------------------------------------------
          |                Geometry Summary                 |
           -------------------------------------------------

      molecular mass/u    :     1944.3747980
   center of mass at/Å    :       -0.2631081       0.3466680       0.1520933
  moments of inertia/u·Å² :        0.4931026E+05   0.6480405E+05   0.6597393E+05
rotational constants/cm⁻¹ :        0.3418687E-03   0.2601324E-03   0.2555196E-03

 * 235 selected distances

     #   Z          #   Z                                           value/Å
     1   7 N        4   6 C                                       1.3702463
     3   6 C        4   6 C                                       1.4131502
     5   6 C        6   1 H                                       1.0909550
     5   6 C        7   6 C                                       1.3664327
     7   6 C        8   1 H                                       1.0908195
     1   7 N        9   6 C                                       1.3744236
     9   6 C       10   6 C                                       1.4094519
     2   7 N       11   6 C                                       1.3725762
    10   6 C       11   6 C                                       1.4090253
    12   6 C       13   1 H                                       1.0910354
    12   6 C       14   6 C                                       1.3656616
    14   6 C       15   1 H                                       1.0908596
     2   7 N       16   6 C                                       1.3711441
    17   6 C       18   6 C                                       1.4151444
    18   6 C       19   6 C                                       1.4067160
    19   6 C       20   6 C                                       1.3979548
    20   6 C       21   1 H                                       1.0979915
    20   6 C       22   6 C                                       1.3972506
    17   6 C       23   6 C                                       1.4158597
    22   6 C       23   6 C                                       1.4078645
    16   6 C       26   6 C                                       1.4110099
    24   7 N       27   6 C                                       1.3727087
    26   6 C       27   6 C                                       1.4118901
    27   6 C       28   6 C                                       1.4491552
    28   6 C       29   1 H                                       1.0907323
    28   6 C       30   6 C                                       1.3670182
    30   6 C       31   1 H                                       1.0897465
    24   7 N       32   6 C                                       1.3755864
    30   6 C       32   6 C                                       1.4481344
    32   6 C       33   6 C                                       1.4082992
    25   7 N       34   6 C                                       1.3723553
    33   6 C       34   6 C                                       1.4084156
    34   6 C       35   6 C                                       1.4493126
    35   6 C       36   1 H                                       1.0905491
    35   6 C       37   6 C                                       1.3656853
    37   6 C       38   1 H                                       1.0908487
     3   6 C       39   6 C                                       1.4099760
    25   7 N       39   6 C                                       1.3740158
    40   6 C       41   6 C                                       1.4167800
    41   6 C       42   6 C                                       1.4060375
    42   6 C       43   6 C                                       1.3983261
    43   6 C       44   1 H                                       1.0979673
    43   6 C       45   6 C                                       1.3979483
    40   6 C       46   6 C                                       1.4144901
    45   6 C       46   6 C                                       1.4077313
    49   6 C       50   6 C                                       1.4204200
    49   6 C       51   6 C                                       1.4230647
    50   6 C       52   6 C                                       1.4093300
    50   6 C       53   7 N                                       1.4188261
    51   6 C       54   6 C                                       1.4115368
    51   6 C       55   7 N                                       1.4152103
    52   6 C       56   1 H                                       1.0933453
    52   6 C       57   6 C                                       1.3981272
    54   6 C       57   6 C                                       1.3973816
    53   7 N       58   6 C                                       1.3766881
    53   7 N       59   1 H                                       1.0216305
    54   6 C       60   1 H                                       1.0929402
    55   7 N       61   6 C                                       1.3810846
    55   7 N       62   1 H                                       1.0244338
    57   6 C       63   1 H                                       1.0976759
    58   6 C       64   8 O                                       1.2261153
    61   6 C       66   8 O                                       1.2272476
    65   6 C       68   6 C                                       1.5062481
    65   6 C       69   1 H                                       1.0936695
    65   6 C       70   6 C                                       1.5339560
    68   6 C       70   6 C                                       1.5096025
    67   6 C       71   6 C                                       1.5084591
    67   6 C       72   1 H                                       1.0961033
    67   6 C       73   6 C                                       1.5346914
    71   6 C       73   6 C                                       1.5102575
    68   6 C       74   1 H                                       1.0922951
    68   6 C       75   1 H                                       1.0917968
    70   6 C       76   1 H                                       1.0930130
    71   6 C       78   1 H                                       1.0936900
    71   6 C       79   1 H                                       1.0934940
    73   6 C       80   1 H                                       1.0944672
    77   6 C       82   8 O                                       1.3429317
    77   6 C       83   8 O                                       1.2166600
    81   6 C       84   8 O                                       1.3514343
    81   6 C       85   8 O                                       1.2145785
    86   6 C       88   6 C                                       1.5345451
    86   6 C       89   6 C                                       1.5279179
    86   6 C       90   1 H                                       1.1046160
    87   6 C       91   6 C                                       1.5295286
    87   6 C       92   6 C                                       1.5328260
    87   6 C       93   1 H                                       1.1066330
    88   6 C       94   1 H                                       1.1024414
    88   6 C       95   1 H                                       1.0980521
    88   6 C       96   1 H                                       1.0985812
    89   6 C       97   1 H                                       1.0975197
    89   6 C       98   1 H                                       1.0982651
    89   6 C       99   1 H                                       1.0974690
    91   6 C      100   1 H                                       1.0977189
    91   6 C      101   1 H                                       1.1004277
    91   6 C      102   1 H                                       1.0986749
    92   6 C      103   1 H                                       1.0985208
    92   6 C      104   1 H                                       1.0988986
    92   6 C      105   1 H                                       1.1006892
   106   6 C      107   6 C                                       1.4213565
   106   6 C      108   6 C                                       1.4220836
   107   6 C      109   6 C                                       1.4090676
   107   6 C      110   7 N                                       1.4180016
   108   6 C      111   6 C                                       1.4110819
   108   6 C      112   7 N                                       1.4145173
   109   6 C      113   1 H                                       1.0937675
   109   6 C      114   6 C                                       1.3990105
   111   6 C      114   6 C                                       1.3980738
   110   7 N      115   6 C                                       1.3779082
   110   7 N      116   1 H                                       1.0214248 (min)
   111   6 C      117   1 H                                       1.0933095
   112   7 N      118   6 C                                       1.3804578
   112   7 N      119   1 H                                       1.0235724
   114   6 C      120   1 H                                       1.0977727
   115   6 C      121   8 O                                       1.2254110
   118   6 C      123   8 O                                       1.2269608
   122   6 C      125   6 C                                       1.5089824
   122   6 C      126   1 H                                       1.0954764
   122   6 C      127   6 C                                       1.5286717
   125   6 C      127   6 C                                       1.5107095
   124   6 C      128   6 C                                       1.5070521
   124   6 C      129   1 H                                       1.0963452
   124   6 C      130   6 C                                       1.5364185
   128   6 C      130   6 C                                       1.5095024
   125   6 C      131   1 H                                       1.0932339
   125   6 C      132   1 H                                       1.0925425
   127   6 C      133   1 H                                       1.0931687
   128   6 C      135   1 H                                       1.0931862
   128   6 C      136   1 H                                       1.0932548
   130   6 C      137   1 H                                       1.0943451
   134   6 C      139   8 O                                       1.3434848
   134   6 C      140   8 O                                       1.2168357
   138   6 C      141   8 O                                       1.3504823
   138   6 C      142   8 O                                       1.2146174
   143   6 C      145   6 C                                       1.5296460
   143   6 C      146   6 C                                       1.5314151
   143   6 C      147   1 H                                       1.1068096
   144   6 C      148   6 C                                       1.5340653
   144   6 C      149   6 C                                       1.5282505
   144   6 C      150   1 H                                       1.1051814
   145   6 C      151   1 H                                       1.0979010
   145   6 C      152   1 H                                       1.1006749
   145   6 C      153   1 H                                       1.0984651
   146   6 C      154   1 H                                       1.0974694
   146   6 C      155   1 H                                       1.0986691
   146   6 C      156   1 H                                       1.1009330
   148   6 C      157   1 H                                       1.1020962
   148   6 C      158   1 H                                       1.0987923
   148   6 C      159   1 H                                       1.0988669
   149   6 C      160   1 H                                       1.0991391
   149   6 C      161   1 H                                       1.0982708
   149   6 C      162   1 H                                       1.0979209
    19   6 C      163   1 H                                       1.0963043
    22   6 C      164   1 H                                       1.0961397
    42   6 C      165   1 H                                       1.0959444
    45   6 C      166   1 H                                       1.0964460
    18   6 C      167   8 O                                       1.3773136
    23   6 C      168   8 O                                       1.3750427
    41   6 C      169   8 O                                       1.3777136
    46   6 C      170   8 O                                       1.3752602
   167   8 O      171   6 C                                       1.3945978
   171   6 C      172   6 C                                       1.4020686
   171   6 C      173   6 C                                       1.4009588
   172   6 C      174   6 C                                       1.4010048
   172   6 C      175   1 H                                       1.0951861
   173   6 C      176   6 C                                       1.4012274
   173   6 C      177   1 H                                       1.0948173
   174   6 C      178   6 C                                       1.4010489
   176   6 C      178   6 C                                       1.4009362
   174   6 C      179   1 H                                       1.0960080
   176   6 C      180   1 H                                       1.0958032
   178   6 C      181   1 H                                       1.0982087
   168   8 O      182   6 C                                       1.3911649
   182   6 C      183   6 C                                       1.4023615
   182   6 C      184   6 C                                       1.4016848
   183   6 C      185   6 C                                       1.4002267
   183   6 C      186   1 H                                       1.0952472
   184   6 C      187   6 C                                       1.4004155
   184   6 C      188   1 H                                       1.0947795
   185   6 C      189   6 C                                       1.4007879
   187   6 C      189   6 C                                       1.4005896
   185   6 C      190   1 H                                       1.0956224
   187   6 C      191   1 H                                       1.0953904
   189   6 C      192   1 H                                       1.0980022
   169   8 O      193   6 C                                       1.3880060
   193   6 C      194   6 C                                       1.4050273
   193   6 C      195   6 C                                       1.4041617
   194   6 C      196   6 C                                       1.4009107
   194   6 C      197   1 H                                       1.0939956
   195   6 C      198   6 C                                       1.3984535
   195   6 C      199   1 H                                       1.0943353
   196   6 C      200   6 C                                       1.4011085
   198   6 C      200   6 C                                       1.4022409
   196   6 C      201   1 H                                       1.0974413
   198   6 C      202   1 H                                       1.0955289
   200   6 C      203   1 H                                       1.0976836
   170   8 O      204   6 C                                       1.3900296
   204   6 C      205   6 C                                       1.4024774
   204   6 C      206   6 C                                       1.4023867
   205   6 C      207   6 C                                       1.4003027
   205   6 C      208   1 H                                       1.0951345
   206   6 C      209   6 C                                       1.4002982
   206   6 C      210   1 H                                       1.0945548
   207   6 C      211   6 C                                       1.4006787
   209   6 C      211   6 C                                       1.4004815
   207   6 C      212   1 H                                       1.0954497
   209   6 C      213   1 H                                       1.0953563
   211   6 C      214   1 H                                       1.0980564
    47  26 Fe     215   7 N                                       1.6338985 (max)
   215   7 N      216   6 C                                       1.2967642
   216   6 C      217   6 C                                       1.4293003
   217   6 C      218   6 C                                       1.3693538
   218   6 C      219   6 C                                       1.3917815
   219   6 C      220   6 C                                       1.3863167
   216   6 C      221   6 C                                       1.4322043
   220   6 C      221   6 C                                       1.3804799
   222   6 C      223   6 C                                       1.5327682
   224   6 C      225   6 C                                       1.3843187
   225   6 C      226   6 C                                       1.3858134
   226   6 C      227   6 C                                       1.3818986
   227   6 C      228   6 C                                       1.3849670
   224   6 C      229   6 C                                       1.3921307
   228   6 C      229   6 C                                       1.3828644
   217   6 C      230   1 H                                       1.0779839
   218   6 C      231   1 H                                       1.0793924
   219   6 C      232   1 H                                       1.0783598
   220   6 C      233   1 H                                       1.0804223
   222   6 C      234   1 H                                       1.0890353
   222   6 C      235   1 H                                       1.0905924
   223   6 C      236   1 H                                       1.0948662
   223   6 C      237   1 H                                       1.0939384
   225   6 C      238   1 H                                       1.0710999
   226   6 C      239   1 H                                       1.0819543
   227   6 C      240   1 H                                       1.0796917
   228   6 C      241   1 H                                       1.0799862
   229   6 C      242   1 H                                       1.0769871

 * 6 distinct bonds (by element types)

   Z      Z             #   av. dist./Å        max./Å        min./Å
   1 H    6 C          97     1.0944932     1.1068096     1.0710999
   6 C    6 C          96     1.4293129     1.5364185     1.3656616
   1 H    7 N           4     1.0227654     1.0244338     1.0214248
   6 C    7 N          17     1.3801479     1.4188261     1.2967642
   6 C    8 O          20     1.3112944     1.3945978     1.2145785
   7 N   26 Fe          1     1.6338985     1.6338985     1.6338985


optimized geometry written to: xtbopt.xyz


           -------------------------------------------------
          | TOTAL ENERGY             -395.048589080391 Eh   |
          | GRADIENT NORM               0.000581207564 Eh/α |
          | HOMO-LUMO GAP               0.089138485654 eV   |
           -------------------------------------------------

------------------------------------------------------------------------
 * finished run on 2026/07/31 at 15:15:27.334     
------------------------------------------------------------------------
 total:
 * wall-time:     0 d,  0 h,  1 min, 11.641 sec
 *  cpu-time:     0 d,  0 h,  2 min, 40.922 sec
 * ratio c/w:     2.246 speedup
 SCF:
 * wall-time:     0 d,  0 h,  0 min,  1.232 sec
 *  cpu-time:     0 d,  0 h,  0 min,  2.741 sec
 * ratio c/w:     2.224 speedup
 ANC optimizer:
 * wall-time:     0 d,  0 h,  1 min, 10.365 sec
 *  cpu-time:     0 d,  0 h,  2 min, 38.109 sec
 * ratio c/w:     2.247 speedup

