28

N     -3.073577   -1.357073    2.409266
S     -1.717139   -1.326960    1.338092
O     -1.685650   -2.633206    0.597086
O     -0.467351   -1.176042    2.157247
C     -1.856527    0.032273    0.205854
C     -2.827320    1.014356    0.468262
C     -2.974510    2.118239   -0.371233
C     -2.150066    2.264740   -1.484562
Cl    -2.332467    3.658953   -2.533621
C     -1.174923    1.305271   -1.760675
C     -1.011823    0.179804   -0.929799
C      0.083595   -0.808245   -1.279158
C      1.283379   -0.675645   -0.374254
C      1.914577    0.569282   -0.198385
C      3.044023    0.678972    0.618370
C      3.562886   -0.452724    1.252285
C      2.957532   -1.697764    1.064630
C      1.827984   -1.812521    0.248569
H     -3.474635    0.935884    1.331025
H     -3.728715    2.863113   -0.150988
H     -0.536904    1.442981   -2.625333
H      0.429769   -0.653066   -2.324166
H     -0.323009   -1.838620   -1.266078
H      1.533590    1.454103   -0.692096
H      3.519858    1.641277    0.756249
H      4.437799   -0.366050    1.883505
H      3.365194   -2.575258    1.549660
H      1.374432   -2.786075    0.110248
