28

N     -1.100173   -1.904199    2.598376
S     -2.342294   -1.868298    1.398661
O     -2.277840   -3.114645    0.561387
O     -3.674753   -1.829225    2.093346
C     -2.144985   -0.443161    0.362144
C     -3.169865    0.519029    0.354111
C     -3.094439    1.637799   -0.475322
C     -1.998299    1.810785   -1.317814
Cl    -1.913385    3.211118   -2.371034
C     -0.967978    0.869441   -1.322805
C     -1.010543   -0.255150   -0.475520
C      0.154197   -1.224678   -0.527345
C      1.452812   -0.535902   -0.187921
C      1.696483   -0.091700    1.122821
C      2.893333    0.559818    1.435837
C      3.853941    0.774889    0.444126
C      3.618473    0.340209   -0.862878
C      2.422891   -0.311835   -1.180417
H     -4.040093    0.404873    0.986707
H     -3.895391    2.366204   -0.468064
H     -0.125157    1.018055   -1.986981
H      0.199118   -1.662721   -1.548177
H      0.035817   -2.079750    0.162953
H      0.958280   -0.243765    1.898874
H      3.075030    0.900146    2.447085
H      4.779533    1.280176    0.687856
H      4.361966    0.510078   -1.630888
H      2.253321   -0.637589   -2.199118
