28

N     -1.021963   -1.735494    2.744390
S     -2.297782   -1.776134    1.580731
O     -2.254660   -3.073139    0.822785
O     -3.610015   -1.693284    2.309251
C     -2.132914   -0.419680    0.450614
C     -3.159533    0.539861    0.410757
C     -3.109989    1.603698   -0.489849
C     -2.038625    1.723024   -1.372562
Cl    -1.986533    3.053640   -2.514560
C     -1.006981    0.783461   -1.347174
C     -1.023156   -0.285044   -0.429326
C      0.141580   -1.255677   -0.452698
C      1.447946   -0.546473   -0.194898
C      2.388929   -0.385729   -1.226894
C      3.591753    0.285407   -0.985649
C      3.863456    0.802292    0.283861
C      2.931901    0.650475    1.314233
C      1.727936   -0.019846    1.077503
H     -4.011171    0.465954    1.073899
H     -3.911870    2.330937   -0.506003
H     -0.183709    0.889742   -2.043228
H      0.044619   -2.065186    0.293603
H      0.158301   -1.757685   -1.444518
H      2.191086   -0.775581   -2.217598
H      4.312740    0.406283   -1.783798
H      4.794596    1.322223    0.468502
H      3.141627    1.054397    2.296232
H      1.012430   -0.122441    1.882395
