28

N     -0.999851    2.953240    1.343160
S     -2.287445    2.356972    0.358257
O     -2.256126    3.031615   -0.984292
O     -3.592003    2.688019    1.027658
C     -2.129607    0.603366    0.147863
C     -3.153489   -0.220144    0.647615
C     -3.109599   -1.603015    0.471445
C     -2.046796   -2.186933   -0.214654
Cl    -2.001930   -3.925030   -0.447934
C     -1.017970   -1.388074   -0.715706
C     -1.028335    0.008012   -0.527962
C      0.132983    0.805994   -1.088188
C      1.444150    0.348060   -0.498985
C      1.738627    0.598805    0.851994
C      2.947060    0.162278    1.403390
C      3.868675   -0.528942    0.612599
C      3.582545   -0.786305   -0.730734
C      2.375204   -0.351557   -1.286372
H     -3.998638    0.205460    1.172105
H     -3.909261   -2.219433    0.862238
H     -0.201407   -1.858677   -1.249862
H      0.138107    0.686623   -2.193504
H      0.040936    1.891663   -0.902386
H      1.030937    1.125310    1.478325
H      3.167959    0.357919    2.444729
H      4.803289   -0.866968    1.041171
H      4.295842   -1.324484   -1.341509
H      2.166145   -0.563774   -2.327467
