28

N     -2.690021    1.967641    2.544815
S     -1.510253    1.649765    1.321972
O     -1.605052    2.741690    0.294806
O     -0.149721    1.665738    1.957941
C     -1.803834    0.064728    0.580099
C     -2.713221   -0.802037    1.210588
C     -2.973192   -2.069447    0.689954
C     -2.324396   -2.496812   -0.466375
Cl    -2.647593   -4.094984   -1.113687
C     -1.412525   -1.655372   -1.105273
C     -1.138360   -0.369451   -0.600424
C     -0.118947    0.479309   -1.334342
C      1.204876    0.534690   -0.612993
C      1.868918   -0.648619   -0.241493
C      3.109675   -0.590111    0.400275
C      3.705757    0.646086    0.661627
C      3.065484    1.826051    0.274941
C      1.824674    1.772632   -0.367355
H     -3.223943   -0.504684    2.116281
H     -3.677422   -2.721366    1.191182
H     -0.910634   -2.010464   -1.997283
H      0.067471    0.071887   -2.351797
H     -0.530158    1.493373   -1.506823
H      1.427561   -1.615318   -0.447666
H      3.611328   -1.504020    0.691095
H      4.666693    0.689404    1.157762
H      3.531977    2.782897    0.470562
H      1.344858    2.696793   -0.664594
