28

N     -1.412443   -0.462795    3.062486
S     -2.559679   -0.948297    1.865989
O     -3.932788   -0.556501    2.335699
O     -2.521035   -2.441407    1.699577
C     -2.190849   -0.166346    0.317819
C     -3.143905    0.712510   -0.225826
C     -2.932305    1.321349   -1.462692
C     -1.769148    1.056298   -2.182453
Cl    -1.512659    1.811710   -3.744817
C     -0.808308    0.189794   -1.659318
C     -0.988894   -0.416915   -0.400865
C      0.107130   -1.333753    0.106511
C      1.422266   -0.602798    0.216717
C      1.601044    0.387833    1.197239
C      2.814255    1.076432    1.291355
C      3.856178    0.783843    0.407443
C      3.685947   -0.196848   -0.573331
C      2.474290   -0.888034   -0.671085
H     -4.063136    0.926813    0.302941
H     -3.679719    1.993509   -1.864837
H      0.088294   -0.007697   -2.234355
H      0.195087   -2.193569   -0.592760
H     -0.119076   -1.771433    1.095923
H      0.800258    0.630827    1.882818
H      2.945754    1.838779    2.048318
H      4.794401    1.318408    0.481042
H      4.492643   -0.420488   -1.259408
H      2.356397   -1.641222   -1.440130
