28

N     -3.187066   -2.633423   -0.027524
S     -1.763130   -1.773144   -0.497170
O     -1.643116   -1.861210   -1.991893
O     -0.576313   -2.429213    0.148429
C     -1.866301   -0.080110    0.024269
C     -2.881244    0.271712    0.930854
C     -3.004318    1.580903    1.395446
C     -2.111573    2.561226    0.968076
Cl    -2.264280    4.205180    1.561136
C     -1.092039    2.232995    0.073349
C     -0.951876    0.918684   -0.413039
C      0.193385    0.631545   -1.363912
C      1.325120   -0.104392   -0.690494
C      1.860075   -1.265746   -1.275358
C      2.928270   -1.933970   -0.669187
C      3.482435   -1.440554    0.514551
C      2.974050   -0.273744    1.090658
C      1.905854    0.397805    0.488374
H     -3.582506   -0.468622    1.290955
H     -3.793389    1.830667    2.093411
H     -0.401677    3.007429   -0.238612
H     -0.182434    0.078098   -2.246876
H      0.604315    1.578594   -1.776456
H      1.445932   -1.659432   -2.195220
H      3.328230   -2.833457   -1.119068
H      4.309951   -1.958604    0.981740
H      3.410782    0.113310    2.002204
H      1.532863    1.307473    0.941356
