28

N     -2.230460   -2.578992    2.307289
S     -1.117047   -1.975602    1.130651
O     -0.912016   -3.046879    0.097844
O      0.184322   -1.674782    1.817459
C     -1.752698   -0.497489    0.382292
C     -2.864443    0.120791    0.980236
C     -3.399793    1.295884    0.453424
C     -2.830178    1.878559   -0.676487
Cl    -3.501080    3.361322   -1.331414
C     -1.721755    1.285558   -1.282680
C     -1.167652    0.096045   -0.771155
C      0.050322   -0.477390   -1.468253
C      1.322367   -0.224543   -0.697613
C      1.671674    1.078415   -0.298281
C      2.866718    1.309382    0.389681
C      3.730235    0.247554    0.670149
C      3.403746   -1.046330    0.256553
C      2.209883   -1.282243   -0.431952
H     -3.321971   -0.299890    1.865240
H     -4.256596    1.755786    0.929396
H     -1.287038    1.760060   -2.154194
H     -0.101083   -1.558117   -1.658714
H      0.170895   -0.025685   -2.476906
H      1.020522    1.914674   -0.518467
H      3.125482    2.312991    0.701567
H      4.655326    0.428381    1.202064
H      4.077330   -1.866918    0.467168
H      1.974989   -2.290541   -0.749460
