36

C     -3.267922   -0.873852    2.387732
N     -3.204780    0.283833    1.486954
C     -4.195156    1.356777    1.640226
C     -2.178978    0.367071    0.462995
C     -1.513361   -0.790815    0.009133
C     -0.523665   -0.708432   -0.973485
C     -0.176560    0.530255   -1.529619
C      0.931888    0.625838   -2.547185
C      2.263351    1.036273   -1.901807
C      2.753160    0.002134   -0.913946
C      2.484413    0.170627    0.456219
C      2.886917   -0.796374    1.380793
C      3.558077   -1.941651    0.948449
C      3.825810   -2.124493   -0.410281
C      3.424360   -1.162139   -1.344599
N      3.698691   -1.378290   -2.727103
C     -0.825635    1.687943   -1.081659
C     -1.817653    1.608724   -0.100707
H     -2.261480   -1.078625    2.810748
H     -3.956908   -0.692399    3.239597
H     -3.629637   -1.764513    1.832721
H     -4.633732    1.610117    0.651699
H     -5.029438    1.051312    2.306540
H     -3.712925    2.255690    2.077907
H     -1.755977   -1.766900    0.405210
H     -0.019906   -1.612206   -1.293956
H      0.658753    1.381085   -3.315942
H      1.053762   -0.342015   -3.081055
H      2.146159    2.023908   -1.403471
H      3.023315    1.179025   -2.699932
H      1.952774    1.046560    0.807339
H      2.674305   -0.659455    2.433169
H      3.867995   -2.690057    1.666292
H      4.342590   -3.017967   -0.737707
H     -0.556354    2.655685   -1.486767
H     -2.286252    2.527325    0.223496
