36

C     -3.453965    2.291773   -0.021396
N     -3.433804    0.858084   -0.337221
C     -4.621339    0.249884   -0.949922
C     -2.258482    0.055642   -0.050176
C     -2.035585   -1.166790   -0.718005
C     -0.900589   -1.934905   -0.445198
C      0.034432   -1.506487    0.505804
C      1.285518   -2.309551    0.757008
C      2.356591   -2.043787   -0.310669
C      2.826512   -0.607105   -0.292052
C      2.260843    0.318732   -1.186933
C      2.646758    1.661107   -1.154743
C      3.597464    2.094064   -0.228600
C      4.162606    1.186195    0.670093
C      3.780551   -0.160556    0.647047
N      4.363179   -1.064751    1.583144
C     -0.173852   -0.291308    1.172191
C     -1.306346    0.480195    0.900048
H     -4.321737    2.801938   -0.490443
H     -2.532814    2.776845   -0.408677
H     -3.519640    2.435224    1.077358
H     -4.417905    0.015456   -2.015668
H     -5.498310    0.929771   -0.905368
H     -4.892571   -0.680033   -0.406411
H     -2.726622   -1.529110   -1.466145
H     -0.745591   -2.861970   -0.983413
H      1.033082   -3.392235    0.749246
H      1.694969   -2.085438    1.766331
H      1.954998   -2.307639   -1.313965
H      3.219770   -2.720868   -0.133441
H      1.512009    0.002615   -1.902826
H      2.204897    2.367162   -1.845896
H      3.894149    3.134671   -0.204649
H      4.895758    1.531263    1.388413
H      0.547379    0.065316    1.897400
H     -1.432315    1.406598    1.442627
