36

C     -3.554124   -2.130293    0.143031
N     -3.469141   -0.708707   -0.214029
C     -4.628006   -0.065367   -0.845448
C     -2.258686    0.047711    0.051153
C     -1.980781    1.239013   -0.651404
C     -0.812167    1.962569   -0.399508
C      0.102610    1.519948    0.564587
C      1.388771    2.272530    0.794023
C      2.446625    1.927859   -0.264235
C      2.851073    0.472535   -0.203575
C      2.244018   -0.452247   -1.072039
C      2.568813   -1.809210   -1.000636
C      3.499045   -2.257772   -0.061223
C      4.104761   -1.350798    0.811569
C      3.784020    0.010623    0.749185
N      4.407041    0.914219    1.659493
C     -0.160369    0.335185    1.265510
C     -1.326635   -0.391849    1.014378
H     -2.655904   -2.667522   -0.228972
H     -3.626114   -2.238817    1.245388
H     -4.444137   -2.614023   -0.312141
H     -4.856830    0.891173   -0.329321
H     -5.534835   -0.703324   -0.782349
H     -4.414288    0.128745   -1.917269
H     -2.654795    1.610458   -1.410518
H     -0.615441    2.865745   -0.964063
H      1.787756    2.059385    1.809892
H      1.185577    3.364846    0.754702
H      2.057285    2.180498   -1.275217
H      3.339567    2.570050   -0.105583
H      1.510186   -0.123410   -1.797670
H      2.095401   -2.514238   -1.671653
H      3.748353   -3.309604   -0.006877
H      4.821618   -1.707766    1.540443
H      0.544064   -0.032598    2.001576
H     -1.494331   -1.295549    1.583311
