36

C     -5.396945   -0.336493   -0.957675
N     -4.494021    0.525426   -0.184567
C     -5.043929    1.714548    0.478343
C     -3.081420    0.206705   -0.076985
C     -2.295179    0.741714    0.965206
C     -0.935883    0.433627    1.067211
C     -0.330667   -0.422718    0.138135
C      1.141110   -0.724638    0.228442
C      1.951643    0.305653   -0.563721
C      3.427095    0.001450   -0.477349
C      4.195302    0.585250    0.545209
C      5.557050    0.293684    0.661829
C      6.163033   -0.590086   -0.233246
C      5.407823   -1.188634   -1.244544
C      4.042800   -0.902915   -1.369262
N      3.290779   -1.539236   -2.400372
C     -1.097574   -0.948539   -0.909802
C     -2.457192   -0.642889   -1.014532
H     -6.462489   -0.085684   -0.770627
H     -5.248281   -1.397758   -0.665567
H     -5.197549   -0.214764   -2.042846
H     -6.076356    1.934966    0.133690
H     -4.417843    2.601416    0.243416
H     -5.071738    1.555341    1.576557
H     -2.725237    1.394566    1.711760
H     -0.354148    0.863836    1.873298
H      1.462979   -0.715409    1.293404
H      1.339816   -1.745179   -0.167117
H      1.752002    1.323741   -0.161579
H      1.624011    0.309887   -1.626262
H      3.738741    1.265645    1.253554
H      6.142235    0.750927    1.449234
H      7.217583   -0.815440   -0.140243
H      5.883849   -1.878821   -1.929858
H     -0.640981   -1.594021   -1.650205
H     -3.010420   -1.065159   -1.841671
