36

C     -5.322883   -0.995230    0.964236
N     -4.524540   -0.009640    0.224551
C     -5.208082    1.125639   -0.407722
C     -3.083617   -0.155732    0.119685
C     -2.367854   -0.953533    1.037106
C     -0.981103   -1.093000    0.935024
C     -0.276645   -0.448756   -0.090400
C      1.220961   -0.571695   -0.176997
C      1.899820    0.522753    0.652050
C      3.401327    0.397864    0.569351
C      4.100084    1.099055   -0.428976
C      5.487342    0.974183   -0.542506
C      6.189248    0.141581    0.331294
C      5.505198   -0.572372    1.318042
C      4.115339   -0.453938    1.439465
N      3.438829   -1.205612    2.444926
C     -0.974372    0.357738   -0.998993
C     -2.361079    0.499743   -0.899560
H     -5.048120   -2.022163    0.642325
H     -5.144733   -0.883622    2.054182
H     -6.409682   -0.866623    0.775549
H     -5.211370    0.997555   -1.510344
H     -4.692600    2.072785   -0.141453
H     -6.261049    1.211935   -0.065541
H     -2.871302   -1.463060    1.846708
H     -0.454980   -1.702069    1.659973
H      1.537148   -1.573084    0.190017
H      1.544780   -0.492266   -1.238441
H      1.583027    1.521796    0.278375
H      1.568696    0.456079    1.711421
H      3.569699    1.741817   -1.120850
H      6.018181    1.521008   -1.311084
H      7.263514    0.045394    0.240697
H      6.056183   -1.221862    1.986768
H     -0.443666    0.877881   -1.787073
H     -2.861696    1.119453   -1.630211
