36

C      5.153756   -1.447586   -0.377414
N      4.514376   -0.257285    0.197245
C      5.339677    0.699387    0.945261
C      3.090232   -0.029585    0.028241
C      2.371652   -0.668887   -1.003992
C      1.001115   -0.448310   -1.165184
C      0.316683    0.422232   -0.306986
C     -1.166125    0.630653   -0.459551
C     -1.942374   -0.399021    0.367006
C     -3.429114   -0.188316    0.218128
C     -4.127570   -0.874074   -0.791072
C     -5.499113   -0.670945   -0.965937
C     -6.184731    0.224958   -0.143312
C     -5.499710    0.924002    0.853387
C     -4.125508    0.727358    1.036086
N     -3.446506    1.464996    2.050224
C      1.016308    1.051560    0.730934
C      2.386933    0.833585    0.894712
H      5.209428   -1.349947   -1.481749
H      6.184916   -1.586344    0.010825
H      4.572084   -2.355172   -0.109736
H      6.423575    0.501983    0.805723
H      5.140201    1.731569    0.586758
H      5.111117    0.628143    2.029170
H      2.863463   -1.336607   -1.697375
H      0.472596   -0.957566   -1.961800
H     -1.436384    1.658515   -0.131050
H     -1.450819    0.541579   -1.531393
H     -1.651072   -0.323164    1.437399
H     -1.671104   -1.424758    0.031815
H     -3.609028   -1.565498   -1.443902
H     -6.030158   -1.206292   -1.742412
H     -7.246749    0.381674   -0.281388
H     -6.037457    1.622723    1.482062
H      0.498652    1.710006    1.417813
H      2.886756    1.334436    1.711938
