36

C      3.604354   -1.734521   -1.126810
N      3.486041   -0.652265   -0.141750
C      4.630969   -0.356871    0.728554
C      2.256731    0.111771   -0.028897
C      1.952254    0.823555    1.150371
C      0.765610    1.553312    1.259788
C     -0.141261    1.597426    0.193088
C     -1.446051    2.339462    0.334995
C     -2.491790    1.511870    1.096104
C     -2.860982    0.248723    0.352206
C     -2.228848   -0.962316    0.686508
C     -2.520838   -2.131884   -0.019744
C     -3.442944   -2.105026   -1.067616
C     -4.073319   -0.907606   -1.414128
C     -3.785520    0.270056   -0.713757
N     -4.433235    1.481812   -1.095085
C      0.148140    0.890293   -0.981784
C      1.332521    0.157779   -1.093536
H      4.507324   -2.355278   -0.946239
H      3.675377   -1.308091   -2.149192
H      2.720655   -2.404176   -1.060185
H      5.552812   -0.868492    0.379613
H      4.834845    0.734985    0.727078
H      4.416044   -0.696730    1.763184
H      2.619497    0.807965    2.000703
H      0.548837    2.078197    2.182097
H     -1.269311    3.288166    0.887001
H     -1.843035    2.622055   -0.664583
H     -3.400569    2.132224    1.251688
H     -2.105423    1.266166    2.109931
H     -1.500869   -0.998263    1.487719
H     -2.028281   -3.059117    0.243078
H     -3.666821   -3.012018   -1.614154
H     -4.783655   -0.894529   -2.231330
H     -0.549529    0.897530   -1.810329
H      1.520271   -0.366166   -2.020203
