36

C     -3.462707    2.193801   -0.582464
N     -3.450879    0.753292   -0.298893
C     -4.672529   -0.026171   -0.534603
C     -2.250606    0.110059    0.204381
C     -2.063294   -1.281454    0.067908
C     -0.904575   -1.898145    0.547186
C      0.090671   -1.143354    1.181209
C      1.364010   -1.802941    1.646812
C      2.354915   -2.006776    0.491683
C      2.811063   -0.691757   -0.098128
C      2.175073   -0.190137   -1.247851
C      2.549294    1.045497   -1.781804
C      3.558406    1.794204   -1.173390
C      4.193963    1.310585   -0.027336
C      3.824276    0.074523    0.516461
N      4.479863   -0.391113    1.694038
C     -0.082095    0.240654    1.318270
C     -1.238303    0.860667    0.838072
H     -3.452499    2.765737    0.368818
H     -2.575744    2.465812   -1.193288
H     -4.366154    2.490524   -1.156084
H     -5.550751    0.631563   -0.706129
H     -4.895959   -0.655897    0.352663
H     -4.542097   -0.670938   -1.428706
H     -2.801575   -1.899270   -0.423786
H     -0.778756   -2.965858    0.415629
H      1.122139   -2.793391    2.090092
H      1.841078   -1.201962    2.451697
H      3.234910   -2.573024    0.865712
H      1.886491   -2.641912   -0.292331
H      1.380950   -0.751606   -1.724616
H      2.053222    1.424759   -2.665840
H      3.845963    2.751711   -1.588058
H      4.972335    1.899857    0.441132
H      0.684753    0.843502    1.789227
H     -1.334852    1.928960    0.971903
