36

C     -4.650445    0.332878   -0.649983
N     -3.415218    0.949891   -0.150924
C     -3.376592    2.404911    0.041547
C     -2.250768    0.135107    0.145503
C     -1.238402    0.605552    1.007787
C     -0.116563   -0.178223    1.288845
C      0.020831   -1.451448    0.719517
C      1.259031   -2.272427    0.976594
C      2.280526   -2.133710   -0.161418
C      2.792994   -0.717270   -0.289088
C      2.209139    0.148710   -1.230980
C      2.635672    1.475215   -1.332926
C      3.645621    1.952042   -0.495265
C      4.229677    1.104295    0.448908
C      3.807343   -0.225929    0.560137
N      4.410906   -1.067466    1.540356
C     -0.974605   -1.926387   -0.144052
C     -2.099078   -1.145957   -0.425357
H     -5.503455    1.043387   -0.620647
H     -4.920388   -0.538357   -0.016109
H     -4.509712    0.002960   -1.700461
H     -4.252128    2.902918   -0.426135
H     -2.462896    2.824269   -0.430787
H     -3.380799    2.642340    1.125873
H     -1.308591    1.578000    1.474584
H      0.651608    0.213474    1.944413
H      0.974679   -3.342772    1.074035
H      1.726841   -1.978271    1.941600
H      3.131382   -2.822321    0.030374
H      1.819698   -2.467193   -1.117411
H      1.415084   -0.200922   -1.879376
H      2.179509    2.135245   -2.059371
H      3.973746    2.980346   -0.575169
H      5.009057    1.483495    1.098016
H     -0.875234   -2.900111   -0.607881
H     -2.838469   -1.546276   -1.104745
