31

N     -2.951216    2.496498    0.290933
C     -3.554105    1.207203    0.202378
C     -4.921000    1.072820    0.474461
C     -5.531946   -0.181703    0.409471
C     -4.779083   -1.309496    0.076769
C     -3.414250   -1.185337   -0.196691
C     -2.790185    0.073614   -0.149634
C     -1.308807    0.178615   -0.416729
C     -0.517054    0.064835    0.888411
C      0.951278    0.173806    0.622054
C      1.788721   -0.884857    0.269425
C      3.097181   -0.462403    0.013803
C      4.169636   -1.277796   -0.357382
C      5.423779   -0.684862   -0.582962
C      5.592077    0.706409   -0.438632
C      4.507951    1.517220   -0.067748
C      3.275518    0.906792    0.152298
S      1.822252    1.624814    0.590162
H     -5.510494    1.941276    0.740725
H     -6.588611   -0.280415    0.622126
H     -5.252672   -2.281814    0.033964
H     -2.842847   -2.071612   -0.443982
H     -0.992944   -0.628765   -1.114315
H     -1.078048    1.144438   -0.917166
H     -0.820438    0.874057    1.587360
H     -0.731078   -0.911367    1.376022
H      1.459817   -1.913671    0.194665
H      4.041442   -2.346979   -0.470419
H      6.265616   -1.301246   -0.870427
H      6.561907    1.152798   -0.615814
H      4.627605    2.587130    0.042939
