31

N     -3.489609   -2.429647   -0.315534
C     -3.086892   -1.072537   -0.486922
C     -3.533119   -0.364465   -1.609320
C     -3.143028    0.962353   -1.805916
C     -2.304472    1.588693   -0.882055
C     -1.856177    0.891158    0.242373
C     -2.245697   -0.443374    0.455418
C     -1.706440   -1.195176    1.651203
C     -0.492447   -2.059164    1.284021
C      0.661652   -1.222341    0.820832
C      0.952601   -0.916363   -0.509221
C      2.028730   -0.031720   -0.626165
C      2.557881    0.469899   -1.818106
C      3.640817    1.363392   -1.754078
C      4.177999    1.746045   -0.509156
C      3.636651    1.239424    0.682736
C      2.565459    0.353748    0.593904
S      1.719226   -0.384013    1.842357
H     -4.180029   -0.844219   -2.333137
H     -3.488310    1.504261   -2.676877
H     -1.997757    2.614674   -1.039317
H     -1.195103    1.388084    0.941807
H     -1.425946   -0.486193    2.461350
H     -2.501569   -1.848502    2.070503
H     -0.177845   -2.637440    2.178810
H     -0.769239   -2.790984    0.494518
H      0.394017   -1.303496   -1.352126
H      2.143924    0.179065   -2.775406
H      4.063832    1.761261   -2.667313
H      5.010917    2.435986   -0.471197
H      4.039973    1.531593    1.643581
