31

N     -2.603435    3.192692   -1.036041
C     -2.423033    1.796907   -1.265266
C     -2.475581    1.307867   -2.576123
C     -2.290171   -0.053568   -2.827884
C     -2.050806   -0.933694   -1.770963
C     -1.999215   -0.455508   -0.459268
C     -2.189652    0.911938   -0.191104
C     -2.077480    1.415238    1.230167
C     -0.686011    1.991388    1.525022
C      0.380232    0.943375    1.417530
C      1.143654    0.684340    0.278490
C      1.985746   -0.419091    0.444754
C      2.866373   -0.935338   -0.509359
C      3.636493   -2.063452   -0.178514
C      3.517605   -2.661551    1.091512
C      2.627093   -2.137548    2.041639
C      1.876426   -1.017819    1.691676
S      0.733853   -0.201952    2.612503
H     -2.656186    1.984405   -3.402103
H     -2.328682   -0.425986   -3.843403
H     -1.900721   -1.987232   -1.968375
H     -1.798889   -1.150090    0.347322
H     -2.300721    0.597296    1.950451
H     -2.840254    2.203575    1.407876
H     -0.463999    2.828893    0.828757
H     -0.678122    2.404413    2.556221
H      1.074676    1.259683   -0.636169
H      2.956376   -0.478522   -1.486902
H      4.324338   -2.476288   -0.904927
H      4.114187   -3.530955    1.335311
H      2.525904   -2.593413    3.017961
