31

N     -2.540472   -0.809508    2.899004
C     -3.292990   -0.135126    1.892755
C     -4.691327   -0.146722    1.963512
C     -5.451435    0.493482    0.981839
C     -4.818201    1.144797   -0.078450
C     -3.423061    1.161992   -0.157523
C     -2.645926    0.534533    0.831916
C     -1.142088    0.538019    0.708212
C     -0.660771   -0.706287   -0.042289
C      0.830866   -0.703313   -0.159903
C      1.560077   -0.072755   -1.168402
C      2.940316   -0.183196   -0.971888
C      3.936120    0.335990   -1.803529
C      5.282379    0.137583   -1.452013
C      5.617656   -0.570251   -0.280968
C      4.609952   -1.085784    0.549123
C      3.283302   -0.878289    0.179146
S      1.891099   -1.368522    0.979585
H     -5.190454   -0.656090    2.778394
H     -6.532134    0.480334    1.040365
H     -5.408952    1.634145   -0.842042
H     -2.947932    1.663653   -0.991618
H     -0.675574    0.576487    1.716866
H     -0.810200    1.450823    0.165163
H     -1.109974   -0.731219   -1.059212
H     -0.980578   -1.622712    0.499285
H      1.107703    0.448926   -2.002334
H      3.680003    0.881736   -2.702937
H      6.066685    0.532152   -2.084817
H      6.657519   -0.716332   -0.019108
H      4.858393   -1.628544    1.451877
