31

N     -2.861281   -2.457335   -0.906648
C     -3.498856   -1.202288   -0.678702
C     -4.891792   -1.159040   -0.543243
C     -5.538697    0.055750   -0.304267
C     -4.796514    1.233279   -0.194726
C     -3.405858    1.200194   -0.328695
C     -2.743740   -0.013414   -0.584396
C     -1.238802   -0.029849   -0.692760
C     -0.603862   -0.310728    0.671487
C      0.888190   -0.331176    0.561116
C      1.719219    0.786568    0.641501
C      3.063222    0.463445    0.429073
C      4.138923    1.355260    0.447415
C      5.432084    0.860352    0.206298
C      5.635740   -0.509741   -0.050915
C      4.548309   -1.397117   -0.069581
C      3.276665   -0.883814    0.174091
S      1.811649   -1.703674    0.202640
H     -5.474127   -2.068836   -0.619232
H     -6.615558    0.083545   -0.198880
H     -5.298824    2.172535   -0.002362
H     -2.844300    2.121260   -0.231597
H     -0.877286    0.950332   -1.075920
H     -0.916724   -0.800598   -1.426729
H     -0.908307    0.473787    1.398389
H     -0.953045   -1.293060    1.056851
H      1.362011    1.789641    0.837682
H      3.983788    2.408811    0.643207
H      6.276930    1.536643    0.217353
H      6.635587   -0.880057   -0.236384
H      4.695256   -2.450675   -0.268822
