31

N     -2.749611   -2.687459    0.430821
C     -3.446050   -1.445723    0.349132
C     -4.835677   -1.452600    0.177729
C     -5.539070   -0.249720    0.079585
C     -4.856843    0.966568    0.147534
C     -3.469987    0.983593    0.318719
C     -2.751870   -0.219585    0.434067
C     -1.251174   -0.177150    0.585577
C     -0.569745   -0.244333   -0.783494
C      0.918249   -0.206773   -0.630892
C      1.691563    0.950786   -0.538875
C      3.045068    0.668027   -0.329234
C      4.072927    1.605585   -0.197726
C      5.383932    1.146499    0.016380
C      5.652484   -0.234054    0.098493
C      4.612676   -1.167831   -0.032487
C      3.322256   -0.689150   -0.246064
S      1.903099   -1.568159   -0.426622
H     -5.371466   -2.391634    0.116396
H     -6.613064   -0.260532   -0.054312
H     -5.402643    1.897512    0.064071
H     -2.955020    1.935561    0.359975
H     -0.950598    0.760245    1.104427
H     -0.907134   -1.021506    1.222130
H     -0.857855   -1.182960   -1.304440
H     -0.897049    0.613590   -1.410693
H      1.287371    1.952459   -0.613152
H      3.867833    2.666988   -0.258824
H      6.192379    1.858514    0.119844
H      6.665510   -0.576668    0.264698
H      4.809508   -2.230092    0.031812
