31

N     -3.119426   -2.247702   -0.561531
C     -3.618306   -1.007655   -0.064532
C     -4.941995   -0.936000    0.386248
C     -5.449817    0.263108    0.891784
C     -4.636023    1.395932    0.953880
C     -3.313643    1.334265    0.506136
C     -2.794644    0.137776   -0.018921
C     -1.354388    0.086054   -0.465951
C     -0.450422   -0.370070    0.682093
C      0.976620   -0.425113    0.235618
C      1.866974    0.648963    0.242893
C      3.110110    0.309869   -0.300708
C      4.212112    1.158995   -0.432560
C      5.389647    0.654264   -1.010482
C      5.453187   -0.682905   -1.449496
C      4.339945   -1.527211   -1.314843
C      3.184966   -1.005191   -0.737387
S      1.718400   -1.775895   -0.464508
H     -5.577513   -1.811968    0.348654
H     -6.473318    0.312821    1.240326
H     -5.029063    2.322258    1.352575
H     -2.693040    2.219648    0.570059
H     -1.031473    1.091833   -0.815800
H     -1.246982   -0.604917   -1.330542
H     -0.541438    0.334834    1.537292
H     -0.760971   -1.378628    1.031068
H      1.619587    1.633641    0.618988
H      4.164238    2.187411   -0.097240
H      6.253036    1.297584   -1.119815
H      6.364556   -1.061020   -1.894089
H      4.379084   -2.554977   -1.651655
