31

N     -3.611291   -1.555945    1.629341
C     -3.075752   -0.348077    1.093100
C     -3.271834    0.852568    1.786110
C     -2.747048    2.047292    1.287608
C     -2.023045    2.048581    0.093950
C     -1.824392    0.855934   -0.606045
C     -2.351954   -0.353156   -0.118324
C     -2.080085   -1.639611   -0.864665
C     -0.897449   -2.410966   -0.263456
C      0.381883   -1.638343   -0.378018
C      0.911513   -0.805648    0.608608
C      2.061257   -0.137705    0.177024
C      2.818429    0.767720    0.924849
C      3.945857    1.359688    0.330152
C      4.300854    1.045675   -0.996572
C      3.531297    0.137700   -1.740679
C      2.420125   -0.437827   -1.129260
S      1.322572   -1.528645   -1.780817
H     -3.828270    0.859667    2.715033
H     -2.898849    2.972211    1.828849
H     -1.611408    2.974054   -0.287483
H     -1.248610    0.872913   -1.523295
H     -2.984262   -2.285035   -0.836918
H     -1.879164   -1.430355   -1.938684
H     -0.782712   -3.374074   -0.805016
H     -1.099996   -2.650227    0.802950
H      0.469076   -0.676130    1.588329
H      2.544864    1.012311    1.943531
H      4.544385    2.062647    0.894822
H      5.170063    1.508537   -1.445403
H      3.793946   -0.105753   -2.761956
