31

N      3.209454   -1.680933   -2.194230
C      2.848156   -1.365042   -0.851480
C      3.026450   -2.328835    0.148310
C      2.669236   -2.047830    1.469184
C      2.131466   -0.802177    1.798049
C      1.952254    0.166902    0.807781
C      2.312766   -0.100816   -0.525053
C      2.061419    0.943475   -1.589098
C      0.750089    0.687184   -2.343946
C     -0.438759    0.788564   -1.436686
C     -1.046416   -0.283433   -0.781785
C     -2.068227    0.131077    0.077523
C     -2.859762   -0.697367    0.877209
C     -3.840986   -0.111102    1.694934
C     -4.017989    1.286515    1.707522
C     -3.214964    2.110356    0.903302
C     -2.251059    1.506330    0.099679
S     -1.151457    2.239726   -0.935716
H      3.438639   -3.299142   -0.099023
H      2.806251   -2.797506    2.237734
H      1.849004   -0.588408    2.820772
H      1.521021    1.123020    1.078044
H      2.037087    1.959896   -1.137471
H      2.902291    0.945483   -2.315604
H      0.646960    1.441038   -3.153325
H      0.774985   -0.315343   -2.823328
H     -0.745313   -1.315656   -0.909182
H     -2.722610   -1.771390    0.870845
H     -4.463695   -0.737537    2.320278
H     -4.775434    1.727720    2.342212
H     -3.340857    3.185232    0.910224
