31

N     -3.360806   -2.241491    1.331916
C     -2.964371   -0.894615    1.082783
C     -3.222039    0.083202    2.051156
C     -2.832934    1.407403    1.835852
C     -2.183783    1.761571    0.651721
C     -1.924662    0.793390   -0.321596
C     -2.315932   -0.542425   -0.120110
C     -1.978630   -1.583171   -1.163652
C     -0.700211   -2.354871   -0.809826
C      0.498518   -1.455401   -0.782181
C      1.011741   -0.831443    0.355623
C      2.071853    0.028984    0.055374
C      2.790929    0.801965    0.970675
C      3.825745    1.625278    0.494757
C      4.127294    1.669844   -0.880709
C      3.396344    0.892305   -1.792560
C      2.377265    0.082531   -1.297066
S      1.341410   -0.925800   -2.151061
H     -3.720958   -0.183902    2.974358
H     -3.031750    2.158850    2.589014
H     -1.876991    2.786730    0.489334
H     -1.407888    1.082912   -1.228395
H     -2.820408   -2.302371   -1.258723
H     -1.860564   -1.107509   -2.162391
H     -0.534978   -3.146795   -1.571127
H     -0.817753   -2.857903    0.174366
H      0.618602   -0.980987    1.353349
H      2.558105    0.771022    2.027656
H      4.393686    2.230228    1.189539
H      4.925113    2.308572   -1.236695
H      3.618054    0.923897   -2.851381
