31

N      2.945229    1.210339   -2.242393
C      3.526127    0.318508   -1.293287
C      4.919411    0.274893   -1.161583
C      5.512157   -0.579085   -0.228477
C      4.715401   -1.390724    0.581354
C      3.323930   -1.354358    0.457056
C      2.715244   -0.510546   -0.488521
C      1.209952   -0.464054   -0.582229
C      0.647820    0.634221    0.323870
C     -0.844511    0.681630    0.226287
C     -1.727840   -0.095373    0.976234
C     -3.061146    0.118476    0.612309
C     -4.179578   -0.502150    1.175105
C     -5.454522   -0.173765    0.683153
C     -5.598020    0.762590   -0.359647
C     -4.468123    1.378727   -0.920009
C     -3.215489    1.038829   -0.414726
S     -1.710334    1.605618   -0.896930
H      5.544251    0.906691   -1.780468
H      6.589606   -0.607955   -0.129596
H      5.176148   -2.046504    1.308807
H      2.720119   -1.983497    1.099496
H      0.782682   -1.447062   -0.283238
H      0.897719   -0.284327   -1.634231
H      1.062881    1.621101    0.025206
H      0.941568    0.440578    1.378743
H     -1.414804   -0.789852    1.745614
H     -4.070780   -1.223305    1.975399
H     -6.331827   -0.644220    1.107729
H     -6.584377    1.007364   -0.731685
H     -4.568894    2.097213   -1.723062
