31

N     -2.832457    1.408153   -2.380467
C     -3.492084    0.819211   -1.261696
C     -4.877609    0.623485   -1.311703
C     -5.544946    0.034714   -0.234985
C     -4.830472   -0.365933    0.895684
C     -3.447425   -0.174530    0.954956
C     -2.765730    0.430579   -0.115448
C     -1.267798    0.597180   -0.042721
C     -0.561031   -0.611667   -0.661095
C      0.924049   -0.442503   -0.592218
C      1.727456   -0.794998    0.492543
C      3.068008   -0.450257    0.292656
C      4.118850   -0.671563    1.186840
C      5.411904   -0.253972    0.827724
C      5.639991    0.377670   -0.410744
C      4.577296    0.597634   -1.301018
C      3.305353    0.173351   -0.924083
S      1.866071    0.314850   -1.777137
H     -5.438107    0.924380   -2.188012
H     -6.615893   -0.115685   -0.279249
H     -5.348212   -0.828540    1.726022
H     -2.906964   -0.499620    1.835497
H     -0.960435    1.526678   -0.570030
H     -0.951640    0.709580    1.018256
H     -0.851460   -1.537480   -0.117906
H     -0.864744   -0.725134   -1.724252
H      1.353051   -1.273014    1.388956
H      3.944826   -1.155270    2.139793
H      6.237717   -0.417933    1.507729
H      6.639466    0.696238   -0.676805
H      4.742972    1.084396   -2.253326
