31

N     -3.496208    0.375669   -2.393462
C     -3.016744    0.689968   -1.087846
C     -3.216096    1.979105   -0.579271
C     -2.745438    2.315164    0.692268
C     -2.072568    1.364799    1.462367
C     -1.871157    0.075058    0.964505
C     -2.344666   -0.278307   -0.311821
C     -2.069539   -1.663581   -0.851474
C     -0.842114   -1.685582   -1.772351
C      0.409767   -1.320062   -1.033468
C      0.957566   -0.038678   -0.960728
C      2.069536    0.014917   -0.115168
C      2.832556    1.149531    0.172581
C      3.917453    1.028267    1.057723
C      4.224769   -0.215272    1.644232
C      3.449599   -1.348327    1.351612
C      2.381187   -1.204026    0.469885
S      1.287297   -2.371675   -0.039070
H     -3.732958    2.723577   -1.171878
H     -2.899457    3.314065    1.079476
H     -1.702654    1.628757    2.444676
H     -1.335128   -0.645694    1.569779
H     -1.919745   -2.382975   -0.016186
H     -2.953857   -2.025075   -1.419087
H     -0.724098   -2.707694   -2.191133
H     -0.993043   -0.990669   -2.626638
H      0.553372    0.819413   -1.482929
H      2.595506    2.106508   -0.275053
H      4.519835    1.896453    1.291444
H      5.061421   -0.297169    2.325792
H      3.675605   -2.306464    1.801222
