31

C     -2.493897    2.832471    0.058475
C     -2.218452    1.357641    0.063036
C     -3.111270    0.472256   -0.547357
C     -2.843893   -0.896210   -0.564860
C     -1.667944   -1.409390    0.007203
S     -1.431646   -3.166887    0.001223
N     -0.043712   -3.574532   -0.942663
O     -2.630014   -3.853620   -0.591977
O     -1.251044   -3.657013    1.410387
C     -0.730052   -0.511587    0.586625
C      0.580946   -0.962364    1.201323
C      1.756162   -0.297843    0.527935
C      2.512723    0.673215    1.206895
C      3.591913    1.296308    0.572466
C      3.922573    0.957670   -0.742307
C      3.173457   -0.003661   -1.425802
C      2.093580   -0.629201   -0.795362
C     -1.031050    0.864131    0.616817
H     -2.040943    3.289501   -0.845972
H     -3.587361    3.028537    0.054633
H     -2.062955    3.313609    0.962284
H     -4.022685    0.840006   -1.002708
H     -3.566644   -1.555694   -1.026670
H      0.732973   -2.055546    1.142551
H      0.561225   -0.716683    2.285419
H      2.266050    0.950833    2.224097
H      4.171013    2.043280    1.099866
H      4.757660    1.441636   -1.232048
H      3.428045   -0.262628   -2.445399
H      1.517287   -1.365318   -1.339712
H     -0.332044    1.557083    1.070634
