31

C     -2.897597    2.400063    0.641522
C     -2.393988    0.987746    0.589086
C     -3.188620   -0.023782    0.042298
C     -2.711729   -1.332207   -0.029075
C     -1.421903   -1.656167    0.423540
S     -0.913206   -3.353693    0.357934
N      0.428519   -3.528701   -0.715657
O     -2.037962   -4.217776   -0.139925
O     -0.528378   -3.819177    1.734091
C     -0.587771   -0.624992    0.935715
C      0.828932   -0.866199    1.420009
C      1.817555   -0.018474    0.658327
C      2.471034    1.055484    1.287536
C      3.375362    1.846768    0.572373
C      3.632507    1.574593   -0.773894
C      2.984400    0.511452   -1.408073
C      2.079413   -0.282328   -0.696875
C     -1.097684    0.685161    1.022894
H     -2.607733    2.929842   -0.289809
H     -4.003925    2.419912    0.740344
H     -2.466302    2.936962    1.513186
H     -4.184677    0.197782   -0.321079
H     -3.361031   -2.094769   -0.438296
H      1.145226   -1.920874    1.323933
H      0.870861   -0.634703    2.506594
H      2.278621    1.282940    2.328620
H      3.875686    2.672401    1.061739
H      4.332108    2.188675   -1.326072
H      3.181438    0.303682   -2.451849
H      1.578575   -1.096677   -1.203131
H     -0.477731    1.477055    1.427006
