31

C     -3.734165   -1.285496    1.605411
C     -2.801185   -0.356446    0.886007
C     -2.850890    1.018779    1.129487
C     -1.956101    1.878935    0.494190
C     -0.986571    1.385569   -0.394398
S      0.128327    2.546881   -1.141134
N     -0.427802    4.163189   -0.883180
O      1.490563    2.408232   -0.524024
O      0.215387    2.320519   -2.623545
C     -0.914560   -0.014730   -0.632091
C      0.123013   -0.646134   -1.539606
C      1.490133   -0.688035   -0.903006
C      2.611933   -0.214619   -1.606166
C      3.884730   -0.278767   -1.030952
C      4.051615   -0.830693    0.241569
C      2.946814   -1.326178    0.938488
C      1.672077   -1.264020    0.367576
C     -1.823988   -0.867297    0.023271
H     -3.263376   -1.620080    2.553301
H     -4.694259   -0.777041    1.837419
H     -3.960343   -2.174773    0.979244
H     -3.581857    1.427629    1.816378
H     -2.020391    2.936615    0.710486
H      0.143912   -0.115289   -2.511615
H     -0.163858   -1.689855   -1.793142
H      2.501528    0.211886   -2.595388
H      4.742479    0.097335   -1.573402
H      5.037789   -0.880447    0.684751
H      3.078678   -1.762892    1.919995
H      0.829182   -1.664381    0.916233
H     -1.768814   -1.938397   -0.133434
