31

C      2.615247    2.682153    0.457187
C      2.261359    1.284248    0.042898
C      2.985211    0.644104   -0.966984
C      2.641528   -0.645990   -1.369519
C      1.553235   -1.317739   -0.788282
S      1.220000   -2.979760   -1.309157
N     -0.329511   -3.063118   -2.067787
O      1.254982   -3.898289   -0.120182
O      2.258619   -3.436998   -2.294944
C      0.780469   -0.655918    0.204818
C     -0.429845   -1.282524    0.869852
C     -1.663093   -0.437920    0.665118
C     -2.239621   -0.325356   -0.611481
C     -3.373972    0.468622   -0.805742
C     -3.939686    1.157247    0.270482
C     -3.370847    1.054313    1.542671
C     -2.236352    0.261363    1.741547
C      1.159801    0.636994    0.615422
H      2.372789    2.845676    1.528891
H      2.041351    3.405782   -0.158499
H      3.701373    2.870387    0.319278
H      3.824941    1.140216   -1.438140
H      3.236263   -1.120424   -2.138780
H     -0.651475   -2.298579    0.495519
H     -0.211501   -1.399464    1.953671
H     -1.807388   -0.845888   -1.455590
H     -3.813091    0.551896   -1.791489
H     -4.817261    1.772170    0.118269
H     -3.808117    1.590578    2.374950
H     -1.804373    0.196503    2.732408
H      0.588964    1.145713    1.383595
