31

C     -3.143905   -2.888313   -0.493610
C     -2.547874   -1.551615   -0.163286
C     -3.017229   -0.823161    0.933098
C     -2.435690    0.399282    1.267110
C     -1.367735    0.920211    0.518050
S     -0.670429    2.470823    1.026605
N     -1.695773    3.237373    2.188216
O     -0.528495    3.398597   -0.146195
O      0.672624    2.238398    1.657417
C     -0.869384    0.175887   -0.586552
C      0.305716    0.633663   -1.428214
C      1.623745    0.452694   -0.716821
C      2.539931    1.516845   -0.644873
C      3.774649    1.344139   -0.011908
C      4.112678    0.105430    0.538654
C      3.219420   -0.965172    0.450967
C      1.983501   -0.797288   -0.180758
C     -1.467048   -1.059075   -0.904512
H     -4.212190   -2.928246   -0.191441
H     -3.089772   -3.081365   -1.586247
H     -2.585908   -3.683817    0.042948
H     -3.833647   -1.203522    1.534827
H     -2.821255    0.933045    2.125038
H      0.154973    1.685147   -1.742364
H      0.352685    0.058284   -2.378300
H      2.296328    2.482354   -1.070439
H      4.470797    2.170617    0.049359
H      5.069346   -0.026634    1.027293
H      3.486529   -1.927218    0.868796
H      1.309006   -1.641033   -0.251010
H     -1.085594   -1.646328   -1.731847
