31

C     -3.358924    2.535916    0.944600
C     -2.663504    1.263133    0.560491
C     -3.190501    0.449106   -0.445805
C     -2.522984   -0.711938   -0.833772
C     -1.310393   -1.084281   -0.230472
S     -0.514913   -2.564461   -0.801027
N     -1.593489   -3.480479   -1.793929
O      0.694248   -2.206180   -1.616687
O     -0.109175   -3.429135    0.358318
C     -0.755576   -0.250980    0.779631
C      0.567762   -0.545439    1.458516
C      1.747271   -0.243833    0.567549
C      1.884645    1.018952   -0.037219
C      2.995681    1.301203   -0.837651
C      3.985926    0.334267   -1.028013
C      3.870606   -0.914396   -0.412121
C      2.761476   -1.201259    0.389464
C     -1.442579    0.920143    1.153701
H     -3.179261    2.771989    2.015135
H     -2.974412    3.369295    0.320330
H     -4.455810    2.446041    0.793279
H     -4.119384    0.714983   -0.935473
H     -2.957531   -1.314943   -1.619366
H      0.676841    0.064415    2.381613
H      0.583092   -1.595552    1.810736
H      1.133401    1.784321    0.109845
H      3.091079    2.271835   -1.306947
H      4.845732    0.554854   -1.647285
H      4.642396   -1.659888   -0.553624
H      2.690662   -2.172439    0.863226
H     -1.022383    1.574749    1.908539
