31

C     -2.785685    2.324237    1.138219
C     -2.342240    0.961476    0.694092
C     -3.195363    0.155599   -0.065086
C     -2.774998   -1.101203   -0.498951
C     -1.485087   -1.572725   -0.203547
S     -1.048660   -3.207045   -0.735713
N      0.248190   -3.132526   -1.874167
O     -0.637426   -4.031803    0.451402
O     -2.223783   -3.873662   -1.394713
C     -0.592875   -0.739959    0.525754
C      0.828172   -1.143989    0.868028
C      1.824619   -0.155513    0.314694
C      2.030038   -0.059024   -1.072120
C      2.942462    0.866640   -1.587406
C      3.654337    1.703569   -0.724109
C      3.453663    1.617324    0.656082
C      2.542129    0.692997    1.175817
C     -1.045626    0.515325    0.976742
H     -2.505821    3.072528    0.367631
H     -3.886342    2.350994    1.286408
H     -2.303830    2.597832    2.101047
H     -4.193112    0.495823   -0.314099
H     -3.468231   -1.707991   -1.066222
H      1.097718   -2.144760    0.484078
H      0.915796   -1.209816    1.974374
H      1.479679   -0.694540   -1.752946
H      3.095852    0.936715   -2.656527
H      4.359627    2.420218   -1.124632
H      4.003409    2.268200    1.323626
H      2.394074    0.642468    2.247331
H     -0.380689    1.152613    1.548106
