31

C     -2.853217    2.467264   -0.113786
C     -2.381261    1.044093   -0.167222
C     -3.149898    0.070622   -0.811551
C     -2.700410   -1.247472   -0.882864
C     -1.462735   -1.618958   -0.331846
S     -0.991474   -3.326866   -0.406918
N      0.433388   -3.506335   -1.366609
O     -0.738386   -3.842486    0.981845
O     -2.089560   -4.145589   -1.026170
C     -0.651292   -0.625903    0.282014
C      0.712012   -0.919025    0.878042
C      1.782969   -0.076221    0.230812
C      2.154473   -0.307296   -1.104609
C      3.136471    0.482366   -1.710416
C      3.752907    1.508760   -0.989986
C      3.387068    1.748287    0.337201
C      2.405443    0.960984    0.947091
C     -1.134998    0.694337    0.366302
H     -2.485984    2.966737    0.808028
H     -3.963140    2.513854   -0.109476
H     -2.471250    3.016049   -0.999789
H     -4.105174    0.329317   -1.251762
H     -3.330176   -1.980086   -1.369927
H      0.665475   -0.720557    1.970953
H      1.009824   -1.978543    0.776346
H      1.679683   -1.092781   -1.677224
H      3.417868    0.299972   -2.739496
H      4.512259    2.119728   -1.460668
H      3.863078    2.545554    0.893306
H      2.129362    1.163004    1.974508
H     -0.533323    1.457190    0.846701
