31

C      4.514595    1.022583    1.173296
C      3.574508    0.346136    0.213877
C      4.063044   -0.613691   -0.686454
C      3.196645   -1.257432   -1.570374
C      1.835987   -0.949547   -1.568721
C      1.325537    0.015917   -0.686216
C     -0.156254    0.304041   -0.682778
C     -0.875164   -0.578826    0.341822
C     -2.351477   -0.286751    0.348554
C     -2.870481    0.721294    1.178349
C     -4.237773    1.014101    1.159464
C     -5.093149    0.310858    0.306691
C     -4.581994   -0.683657   -0.531830
C     -3.215331   -0.979649   -0.516140
C      2.199076    0.656440    0.219635
N      1.691487    1.615924    1.147955
H      5.566270    0.704158    1.010114
H      4.461113    2.123435    1.038088
H      4.229713    0.768803    2.216008
H      5.115352   -0.869187   -0.702570
H      3.580670   -2.000859   -2.257020
H      1.177749   -1.466958   -2.255910
H     -0.579926    0.117944   -1.694713
H     -0.336971    1.376693   -0.452461
H     -0.704388   -1.650683    0.097414
H     -0.453006   -0.400397    1.355388
H     -2.216672    1.279899    1.836777
H     -4.633665    1.788696    1.803470
H     -6.150936    0.539624    0.292340
H     -5.244294   -1.222933   -1.196670
H     -2.830263   -1.745978   -1.177531
