31

C     -4.433658    1.765850   -0.207917
C     -3.543190    0.556018   -0.280027
C     -4.096734   -0.729114   -0.167995
C     -3.277405   -1.857152   -0.218952
C     -1.899406   -1.716830   -0.385137
C     -1.323679   -0.442495   -0.512038
C      0.173892   -0.319232   -0.656324
C      0.836175   -0.153536    0.714811
C      2.328530   -0.024718    0.569439
C      3.142256   -1.170097    0.567406
C      4.525393   -1.050692    0.399188
C      5.103474    0.209462    0.222304
C      4.298853    1.352201    0.209129
C      2.915306    1.237321    0.376997
C     -2.150277    0.700352   -0.444638
N     -1.577658    2.005564   -0.537177
H     -4.308150    2.379604   -1.124744
H     -4.162879    2.375894    0.679404
H     -5.504538    1.482437   -0.124611
H     -5.163645   -0.860200   -0.036061
H     -3.711733   -2.844196   -0.125442
H     -1.278842   -2.604164   -0.412695
H      0.425688    0.546934   -1.306433
H      0.581222   -1.225177   -1.157807
H      0.594465   -1.030384    1.355508
H      0.429715    0.748461    1.223302
H      2.705557   -2.153055    0.694143
H      5.148726   -1.935518    0.402460
H      6.173984    0.299999    0.090919
H      4.746851    2.326922    0.065297
H      2.301706    2.129543    0.355353
