31

C     -2.206465    2.630005   -0.659470
C     -2.167257    1.147874   -0.407820
C     -3.113578    0.556607    0.443502
C     -3.075237   -0.814516    0.696831
C     -2.092837   -1.609813    0.107057
C     -1.137911   -1.043383   -0.752343
C     -0.053658   -1.926749   -1.328906
C      1.077710   -2.173167   -0.320372
C      1.813239   -0.902034    0.019141
C      2.814977   -0.414351   -0.836532
C      3.462860    0.790572   -0.547195
C      3.110863    1.519381    0.592221
C      2.109792    1.044914    1.444141
C      1.460995   -0.160431    1.159919
C     -1.174371    0.346142   -1.006886
N     -0.200725    0.947014   -1.861771
H     -3.069459    3.109808   -0.150520
H     -1.272852    3.096877   -0.280724
H     -2.295293    2.823658   -1.749229
H     -3.881082    1.156944    0.916139
H     -3.806142   -1.261749    1.358158
H     -2.070845   -2.670315    0.326292
H      0.362212   -1.496702   -2.265285
H     -0.495913   -2.907264   -1.610515
H      0.665476   -2.640468    0.601013
H      1.792448   -2.905061   -0.755749
H      3.087475   -0.963384   -1.729361
H      4.234253    1.162029   -1.209293
H      3.611007    2.453500    0.812820
H      1.833123    1.613560    2.322476
H      0.677198   -0.509497    1.820836
