31

C     -4.453931    1.679585   -0.402316
C     -3.559637    0.520656   -0.057425
C     -4.091872   -0.775898    0.021341
C     -3.267784   -1.859569    0.326141
C     -1.906416   -1.662526    0.558606
C     -1.353007   -0.373517    0.497844
C      0.129330   -0.194493    0.720010
C      0.885689   -0.256861   -0.610449
C      2.362674   -0.072137   -0.388537
C      3.185079   -1.181552   -0.129908
C      4.551587   -1.004467    0.108681
C      5.103616    0.279533    0.100563
C      4.289236    1.389202   -0.142050
C      2.922257    1.216621   -0.381131
C     -2.183317    0.721693    0.173796
N     -1.630855    2.035005    0.073635
H     -5.513572    1.362925   -0.506881
H     -4.399262    2.447230    0.398154
H     -4.126731    2.130193   -1.362893
H     -5.145466   -0.951122   -0.157902
H     -3.685199   -2.856888    0.378695
H     -1.281163   -2.517673    0.784442
H      0.508513   -0.989701    1.399721
H      0.326211    0.777292    1.223161
H      0.507883    0.533212   -1.296320
H      0.698337   -1.237318   -1.101755
H      2.767863   -2.180838   -0.111557
H      5.181983   -1.862471    0.303363
H      6.161186    0.414950    0.286735
H      4.716580    2.383611   -0.141387
H      2.300187    2.085320   -0.558403
