31

C     -4.497334    1.603293   -0.211754
C     -3.567760    0.421666   -0.250174
C     -4.072194   -0.873401   -0.053005
C     -3.215879   -1.974637   -0.072199
C     -1.849521   -1.797545   -0.291041
C     -1.323015   -0.513306   -0.503222
C      0.164062   -0.348090   -0.703307
C      0.862776   -0.087388    0.634573
C      2.344444    0.082904    0.433295
C      3.197206   -1.033276    0.464655
C      4.569385   -0.877234    0.244659
C      5.097288    0.390080   -0.017425
C      4.253237    1.503112   -0.064124
C      2.880481    1.351552    0.155306
C     -2.186595    0.603342   -0.468154
N     -1.663199    1.920120   -0.647557
H     -4.422128    2.171256   -1.162952
H     -5.554508    1.289207   -0.078420
H     -4.220447    2.268343    0.633145
H     -5.129205   -1.032742    0.120863
H     -3.612248   -2.969219    0.086982
H     -1.199448   -2.663928   -0.292848
H      0.364857    0.490016   -1.405837
H      0.586970   -1.265455   -1.169925
H      0.441231    0.826549    1.108272
H      0.671975   -0.936229    1.328001
H      2.799275   -2.021952    0.657393
H      5.223031   -1.739421    0.273893
H      6.159345    0.508910   -0.188791
H      4.662200    2.483024   -0.273868
H      2.235718    2.220450    0.107023
