31

C      4.391193   -0.872056    1.785635
C      3.529040   -0.119747    0.809648
C      4.112432    0.505074   -0.303807
C      3.319516    1.192935   -1.222771
C      1.938471    1.268131   -1.040432
C      1.333139    0.661956    0.072053
C     -0.167025    0.730174    0.225621
C     -0.831716   -0.487735   -0.423204
C     -2.326812   -0.421675   -0.264533
C     -3.113550    0.235011   -1.225706
C     -4.499256    0.323919   -1.059763
C     -5.106792   -0.232298    0.069387
C     -4.329108   -0.874819    1.036764
C     -2.943100   -0.965997    0.874758
C      2.132994   -0.047918    0.994126
N      1.530084   -0.699900    2.112810
H      4.107114   -1.945420    1.783929
H      5.468451   -0.794393    1.525772
H      4.250603   -0.459039    2.806744
H      5.182227    0.456807   -0.465358
H      3.776776    1.666554   -2.081979
H      1.338694    1.798578   -1.769891
H     -0.553660    1.659851   -0.248041
H     -0.439476    0.782392    1.302344
H     -0.568950   -0.526148   -1.503600
H     -0.446000   -1.420959    0.043366
H     -2.653878    0.678346   -2.100424
H     -5.101737    0.827155   -1.804910
H     -6.179247   -0.161437    0.196943
H     -4.799894   -1.299247    1.914086
H     -2.350534   -1.458093    1.636165
