31

C     -2.473533    2.419450    0.257266
C     -2.276460    0.931229    0.168182
C     -3.080676    0.071144    0.931964
C     -2.894372   -1.309796    0.869361
C     -1.903917   -1.847650    0.047684
C     -1.089679   -1.008996   -0.730114
C      0.010992   -1.624033   -1.565946
C      1.250141   -1.956183   -0.722119
C      1.896048   -0.715060   -0.161344
C      2.764184    0.051475   -0.956488
C      3.324470    1.229542   -0.452953
C      3.016882    1.653706    0.842736
C      2.147855    0.900875    1.637133
C      1.587186   -0.278800    1.138543
C     -1.275904    0.390270   -0.664721
N     -0.445809    1.263426   -1.431794
H     -2.681970    2.831762   -0.752446
H     -3.324622    2.681513    0.921324
H     -1.554578    2.893209    0.662386
H     -3.851446    0.468421    1.580760
H     -3.516018   -1.965746    1.465076
H     -1.765218   -2.921586    0.022463
H      0.295916   -0.960109   -2.410172
H     -0.365065   -2.563494   -2.026705
H      0.970786   -2.652641    0.098957
H      1.984053   -2.494914   -1.360252
H      2.999911   -0.259854   -1.966609
H      3.993053    1.816534   -1.069262
H      3.448784    2.567569    1.229649
H      1.904844    1.233899    2.637842
H      0.904162   -0.845163    1.759598
