31

C     -2.294595    2.149295    1.535176
C     -2.205424    0.922966    0.669299
C     -3.092741    0.758375   -0.405621
C     -3.007147   -0.367194   -1.225005
C     -2.035691   -1.338521   -0.983680
C     -1.139559   -1.199803    0.088233
C     -0.063520   -2.244644    0.285244
C      1.122739   -2.028068   -0.665411
C      1.841965   -0.734655   -0.379318
C      1.528588    0.427931   -1.104309
C      2.160116    1.637991   -0.801814
C      3.105013    1.697139    0.226145
C      3.417889    0.546671    0.955437
C      2.787005   -0.665226    0.657778
C     -1.223802   -0.058179    0.916784
N     -0.309626    0.113550    2.000598
H     -1.355315    2.735252    1.448819
H     -2.442640    1.851098    2.594482
H     -3.142922    2.801403    1.236685
H     -3.850567    1.503465   -0.613929
H     -3.692528   -0.484165   -2.054560
H     -1.975973   -2.199003   -1.638827
H      0.293997   -2.262788    1.337169
H     -0.494382   -3.250760    0.089310
H      1.833076   -2.875592   -0.550544
H      0.769043   -2.049991   -1.719772
H      0.787901    0.399179   -1.893964
H      1.913438    2.530998   -1.361337
H      3.591795    2.635053    0.460124
H      4.145567    0.595073    1.755150
H      3.028297   -1.546850    1.238601
