31

C     -4.476173    0.327838    1.636639
C     -3.561231   -0.064732    0.509432
C     -4.034848   -0.890367   -0.522334
C     -3.189811   -1.272086   -1.564720
C     -1.865949   -0.832942   -1.591707
C     -1.372519    0.003659   -0.577743
C      0.073487    0.435463   -0.614396
C      0.948256   -0.540552    0.178233
C      2.388745   -0.106043    0.145891
C      3.237143   -0.539598   -0.886725
C      4.566606   -0.108344   -0.933337
C      5.054610    0.764714    0.042920
C      4.212748    1.211412    1.065257
C      2.882640    0.782630    1.115638
C     -2.222579    0.377535    0.485985
N     -1.727741    1.199707    1.543910
H     -5.505488   -0.060949    1.483671
H     -4.086281   -0.080201    2.592830
H     -4.531005    1.434622    1.707622
H     -5.058374   -1.244311   -0.519274
H     -3.561373   -1.914081   -2.353026
H     -1.222717   -1.147834   -2.404304
H      0.428265    0.479609   -1.668116
H      0.177120    1.461439   -0.198557
H      0.853271   -1.562191   -0.251893
H      0.595795   -0.592334    1.232017
H      2.868610   -1.208682   -1.654505
H      5.217611   -0.448271   -1.728393
H      6.083455    1.098576    0.004620
H      4.589886    1.892827    1.816863
H      2.237842    1.143487    1.907503
