31

C     -4.600104    1.174242   -0.501892
C     -3.573073    0.081732   -0.385899
C     -3.976537   -1.231507   -0.097540
C     -3.030306   -2.249154    0.026579
C     -1.673470   -1.969884   -0.138324
C     -1.246261   -0.666706   -0.439516
C      0.230571   -0.386790   -0.578595
C      0.825708    0.049667    0.763570
C      2.296798    0.334036    0.622572
C      2.738633    1.616933    0.257829
C      4.104031    1.871395    0.094991
C      5.035233    0.846620    0.285100
C      4.602301   -0.435595    0.634313
C      3.237824   -0.694404    0.798151
C     -2.201947    0.366951   -0.549613
N     -1.782495    1.704961   -0.821317
H     -5.632813    0.779371   -0.394027
H     -4.430177    1.931685    0.291969
H     -4.518121    1.662647   -1.495751
H     -5.024553   -1.469325    0.036607
H     -3.349536   -3.257828    0.255297
H     -0.953305   -2.771477   -0.028643
H      0.756117   -1.299338   -0.938037
H      0.400115    0.402324   -1.343344
H      0.667546   -0.749986    1.520747
H      0.301395    0.959545    1.130434
H      2.026447    2.417182    0.098368
H      4.439969    2.862287   -0.182047
H      6.091557    1.044912    0.157383
H      5.323861   -1.230030    0.774667
H      2.914591   -1.694468    1.059625
