31

C      4.468852    0.753718   -1.415117
C      3.558876    0.319426   -0.304333
C      4.084156   -0.306984    0.834326
C      3.240817   -0.687180    1.880401
C      1.867492   -0.430770    1.810247
N      1.027582   -0.844221    2.886036
C      1.330308    0.229953    0.686003
C     -0.149891    0.500405    0.569738
C     -0.871079   -0.702966   -0.044762
C     -2.347371   -0.433641   -0.158273
C     -2.869727    0.179799   -1.309312
C     -4.237014    0.459199   -1.399209
C     -5.088986    0.137844   -0.338866
C     -4.574432   -0.459728    0.815078
C     -3.207793   -0.740866    0.909135
C      2.184651    0.594935   -0.368914
H      3.938242    0.722221   -2.390576
H      4.815001    1.790923   -1.224299
H      5.352329    0.083776   -1.483957
H      5.145971   -0.506739    0.909995
H      3.656971   -1.183511    2.748249
H     -0.321000    1.398982   -0.063782
H     -0.577155    0.727620    1.570814
H     -0.449110   -0.918182   -1.051460
H     -0.701482   -1.604964    0.583775
H     -2.218654    0.442333   -2.134031
H     -4.635538    0.928098   -2.289594
H     -6.146755    0.355979   -0.409524
H     -5.234062   -0.701958    1.638294
H     -2.819941   -1.195420    1.812449
H      1.778741    1.091916   -1.242416
