31

C     -4.440031    1.117157    1.244887
C     -3.550227    0.434886    0.248261
C     -4.097496   -0.424381   -0.714551
C     -3.272913   -1.038685   -1.659398
C     -1.896600   -0.788858   -1.665633
N     -1.076163   -1.442181   -2.631948
C     -1.337353    0.100488   -0.724700
C      0.146617    0.373091   -0.690480
C      0.866686   -0.670445    0.168796
C      2.346700   -0.399516    0.200627
C      3.188653   -0.947668   -0.781572
C      4.558842   -0.668317   -0.769974
C      5.095379    0.166382    0.214326
C      4.261888    0.726627    1.186372
C      2.891128    0.449909    1.178447
C     -2.172936    0.702069    0.232308
H     -4.780298    2.089229    0.830982
H     -5.327951    0.489768    1.473086
H     -3.895343    1.298719    2.195892
H     -5.161950   -0.623804   -0.730276
H     -3.705983   -1.711830   -2.388791
H      0.560941    0.365604   -1.722281
H      0.334591    1.388624   -0.276446
H      0.457844   -0.650065    1.203325
H      0.680266   -1.688215   -0.239633
H      2.783703   -1.588356   -1.555238
H      5.204184   -1.096177   -1.526241
H      6.155868    0.382641    0.221097
H      4.677439    1.378277    1.944093
H      2.254533    0.897794    1.931525
H     -1.750019    1.377231    0.967194
