31

C     -4.412453    0.245408    1.788993
C     -3.543927    0.139597    0.570397
C     -4.108760   -0.172297   -0.674006
C     -3.304716   -0.244460   -1.813457
C     -1.932135    0.011145   -1.727569
N     -1.132402   -0.085256   -2.904365
C     -1.356309    0.360177   -0.488356
C      0.124779    0.619188   -0.358198
C      0.881339   -0.689671   -0.112577
C      2.358422   -0.431090    0.014778
C      2.920946   -0.135045    1.267767
C      4.288070    0.137377    1.379014
C      5.099620    0.125909    0.241162
C      4.544625   -0.153910   -1.010688
C      3.177997   -0.426891   -1.126428
C     -2.170850    0.415111    0.655963
H     -5.286114   -0.436092    1.709198
H     -3.842710   -0.033393    2.700981
H     -4.775730    1.289006    1.893657
H     -5.170849   -0.365689   -0.761453
H     -3.750827   -0.500704   -2.766353
H      0.509246    1.112362   -1.277599
H      0.312853    1.320554    0.484880
H      0.695012   -1.395625   -0.951821
H      0.502274   -1.172667    0.815237
H      2.301184   -0.113756    2.155699
H      4.717721    0.360860    2.346964
H      6.157289    0.338288    0.328823
H      5.172804   -0.155833   -1.892086
H      2.758350   -0.632883   -2.103409
H     -1.734753    0.670279    1.614853
