31

C     -2.526696    1.838128    1.262281
C     -2.290451    0.626561    0.410200
C     -3.086281   -0.516156    0.569718
C     -2.831672   -1.662178   -0.186548
C     -1.772531   -1.685770   -1.099918
N     -1.523918   -2.875648   -1.845414
C     -0.958584   -0.546344   -1.264919
C      0.234274   -0.562604   -2.193507
C      1.462356   -1.206427   -1.533751
C      1.933484   -0.416768   -0.338827
C      1.539044   -0.787630    0.958254
C      1.931972   -0.021581    2.059777
C      2.717220    1.119573    1.875033
C      3.108364    1.498372    0.587854
C      2.715674    0.736401   -0.516898
C     -1.220952    0.601566   -0.496591
H     -2.257574    2.762826    0.708637
H     -1.904245    1.770802    2.178942
H     -3.595908    1.911964    1.554450
H     -3.901439   -0.521922    1.282806
H     -3.454212   -2.538299   -0.054273
H      0.485806    0.470778   -2.519616
H     -0.017900   -1.126782   -3.117076
H      1.227159   -2.252749   -1.239506
H      2.282811   -1.262434   -2.281850
H      0.917903   -1.661027    1.114286
H      1.623437   -0.309920    3.056295
H      3.019172    1.712443    2.728686
H      3.711595    2.385660    0.445572
H      3.014159    1.047385   -1.510398
H     -0.582067    1.471780   -0.593699
