31

C     -4.272136    2.091813    0.373474
C     -3.485226    0.814694    0.357716
C     -4.142118   -0.417661    0.236706
C     -3.412368   -1.608189    0.249036
C     -2.021954   -1.583651    0.400151
N     -1.300436   -2.813723    0.393273
C     -1.351661   -0.352842    0.557834
C      0.149578   -0.291175    0.699722
C      0.819860   -0.249797   -0.676807
C      2.316916   -0.190679   -0.534741
C      3.067703   -1.375079   -0.447624
C      4.455194   -1.318531   -0.282523
C      5.100330   -0.081873   -0.193519
C      4.358503    1.100497   -0.265254
C      2.970818    1.048499   -0.430313
C     -2.092860    0.841196    0.528555
H     -3.673212    2.925712   -0.050746
H     -4.550455    2.340808    1.418730
H     -5.197037    1.990964   -0.233554
H     -5.218885   -0.456938    0.126657
H     -3.930204   -2.552992    0.140032
H      0.437217    0.613553    1.280065
H      0.516142   -1.170255    1.273465
H      0.533846   -1.151380   -1.262269
H      0.459903    0.638444   -1.241853
H      2.578568   -2.339650   -0.505721
H      5.029884   -2.233572   -0.220049
H      6.174118   -0.039876   -0.064417
H      4.858380    2.057496   -0.189430
H      2.406320    1.971715   -0.474979
H     -1.584728    1.792472    0.636438
