31

C     -4.588586    0.771904   -1.039045
C     -3.538259    0.620143    0.021281
C     -3.823663    0.959133    1.351124
C     -2.854990    0.792703    2.343100
C     -1.597717    0.269789    2.022922
N     -0.622276    0.125497    3.053169
C     -1.308728   -0.108051    0.695229
C      0.045644   -0.653460    0.313314
C      1.013483    0.487576   -0.014018
C      2.364519   -0.056782   -0.392478
C      3.332350   -0.301057    0.596313
C      4.575568   -0.837807    0.247177
C      4.857087   -1.143006   -1.087381
C      3.894223   -0.915876   -2.074679
C      2.649708   -0.379283   -1.729907
C     -2.284655    0.077658   -0.299275
H     -5.275536    1.610003   -0.794539
H     -5.175528   -0.167190   -1.114038
H     -4.122080    0.987554   -2.023893
H     -4.794184    1.358109    1.619427
H     -3.082981    1.072057    3.364213
H      0.455904   -1.272822    1.140605
H     -0.052124   -1.322397   -0.570446
H      0.604984    1.096438   -0.850817
H      1.113299    1.160895    0.865811
H      3.123051   -0.077707    1.635222
H      5.319511   -1.020433    1.011813
H      5.819312   -1.559612   -1.355735
H      4.110904   -1.158908   -3.106889
H      1.908792   -0.216842   -2.502978
H     -2.067035   -0.198225   -1.324600
