31

C     -2.227965    1.357614    2.132925
C     -2.085565    0.199319    1.190681
C     -2.562978   -1.068241    1.551182
C     -2.382574   -2.157491    0.696127
C     -1.712301   -1.997485   -0.521130
N     -1.525976   -3.130801   -1.366269
C     -1.219453   -0.729893   -0.893069
C     -0.432245   -0.538252   -2.169403
C      1.040741   -0.936295   -1.996637
C      1.743167   -0.057944   -0.992415
C      1.887395   -0.478237    0.341037
C      2.489960    0.361297    1.282670
C      2.949277    1.625044    0.901949
C      2.803977    2.052659   -0.420679
C      2.199807    1.217134   -1.365222
C     -1.403236    0.359940   -0.023959
H     -3.128381    1.237072    2.772259
H     -1.328703    1.417970    2.780947
H     -2.332530    2.308791    1.568709
H     -3.071150   -1.214768    2.496328
H     -2.756630   -3.131479    0.986075
H     -0.494706    0.519457   -2.508287
H     -0.879995   -1.151154   -2.981031
H      1.109706   -2.004127   -1.693874
H      1.552812   -0.849957   -2.979623
H      1.522251   -1.448981    0.652984
H      2.596299    0.034028    2.308813
H      3.414029    2.274406    1.632515
H      3.154812    3.033935   -0.712950
H      2.081201    1.564848   -2.383983
H     -1.001047    1.331590   -0.286672
