31

C     -2.563434    1.395087   -1.684904
C     -2.302534    0.436795   -0.560913
C     -3.086619    0.478443    0.600152
C     -2.809299   -0.378107    1.667647
C     -1.738983   -1.275683    1.594408
N     -1.467270   -2.125687    2.706635
C     -0.936681   -1.322862    0.435912
C      0.267419   -2.233159    0.352515
C      1.494996   -1.620322    1.042051
C      1.942271   -0.350828    0.362569
C      2.712831   -0.410204   -0.810478
C      3.083074    0.765905   -1.470003
C      2.680915    2.006861   -0.968398
C      1.907080    2.073961    0.193348
C      1.536610    0.900684    0.857238
C     -1.221924   -0.454224   -0.632251
H     -3.636890    1.678836   -1.719627
H     -2.298692    0.933755   -2.660147
H     -1.951312    2.309540   -1.538856
H     -3.910220    1.177090    0.681282
H     -3.422953   -0.336411    2.558901
H      0.510590   -2.458023   -0.709462
H      0.033135   -3.208604    0.830517
H      1.268687   -1.428139    2.113748
H      2.325025   -2.359551    1.019114
H      3.019594   -1.366335   -1.216135
H      3.677416    0.714991   -2.373097
H      2.965468    2.916013   -1.482077
H      1.589959    3.035078    0.576844
H      0.924027    0.966347    1.747975
H     -0.592284   -0.461249   -1.514510
