31

C     -2.633384    0.838155    1.861953
C     -2.276199   -0.068433    0.721662
C     -2.765407   -1.381336    0.682182
C     -2.389617   -2.241518   -0.351742
C     -1.511399   -1.806296   -1.349688
N     -1.130017   -2.711688   -2.383224
C     -1.004911   -0.490809   -1.318197
C     -0.002060   -0.011931   -2.343096
C      1.426856   -0.451047   -1.991887
C      1.898001    0.162175   -0.697535
C      2.368820    1.485430   -0.671988
C      2.756129    2.071770    0.536929
C      2.669011    1.345243    1.727677
C      2.193680    0.031172    1.711799
C      1.807553   -0.559760    0.505033
C     -1.386651    0.366678   -0.271367
H     -2.666169    1.895801    1.523840
H     -3.631804    0.578469    2.273959
H     -1.872880    0.737921    2.664345
H     -3.434442   -1.741033    1.454205
H     -2.775007   -3.253319   -0.371092
H     -0.268606   -0.414200   -3.344096
H     -0.039286    1.096183   -2.433585
H      2.108957   -0.141042   -2.813208
H      1.477544   -1.560597   -1.936977
H      2.428684    2.062925   -1.586188
H      3.118882    3.091384    0.551359
H      2.965962    1.801804    2.662966
H      2.119653   -0.528078    2.635456
H      1.426711   -1.573628    0.509115
H     -0.978603    1.369604   -0.221247
