31

C     -4.429479    1.313809    1.176527
C     -3.547865    0.345719    0.444361
C     -4.079815   -0.846542   -0.065927
C     -3.265527   -1.735386   -0.770863
C     -1.916672   -1.436637   -0.990016
N     -1.104624   -2.369928   -1.699425
C     -1.376526   -0.224548   -0.512387
C      0.079995    0.116410   -0.712256
C      0.931486   -0.473909    0.415712
C      2.384064   -0.135624    0.214621
C      3.208086   -0.977160   -0.551458
C      4.549513   -0.644645   -0.764980
C      5.074038    0.532781   -0.224622
C      4.256861    1.381950    0.526766
C      2.914868    1.053252    0.742708
C     -2.200013    0.656727    0.209544
H     -4.870975    2.030591    0.453114
H     -3.846051    1.877546    1.935388
H     -5.248808    0.778814    1.702429
H     -5.123745   -1.091269    0.087039
H     -3.685107   -2.659985   -1.147369
H      0.431927   -0.268818   -1.694130
H      0.209427    1.221289   -0.735840
H      0.804107   -1.578594    0.445176
H      0.584129   -0.075470    1.394694
H      2.811249   -1.887590   -0.983505
H      5.181532   -1.298094   -1.352372
H      6.112134    0.789330   -0.391932
H      4.662418    2.296841    0.939042
H      2.289747    1.724351    1.318757
H     -1.790374    1.584787    0.591202
