31

C     -4.361970    1.745844   -0.802090
C     -3.513204    0.744817   -0.075423
C     -4.110747   -0.321052    0.611396
C     -3.322677   -1.237798    1.310371
C     -1.932020   -1.091415    1.346947
N     -1.150659   -2.051395    2.055204
C     -1.320157   -0.004048    0.689449
C      0.179092    0.168872    0.690695
C      0.813859   -0.621941   -0.457133
C      2.309061   -0.451007   -0.454000
C      3.119619   -1.316707    0.299413
C      4.506090   -1.136475    0.327719
C      5.090896   -0.087004   -0.386463
C      4.289747    0.786701   -1.126903
C      2.902857    0.610093   -1.157938
C     -2.120232    0.904840   -0.024528
H     -4.627181    2.574339   -0.112683
H     -5.295007    1.272499   -1.175557
H     -3.815524    2.161629   -1.675345
H     -5.186529   -0.446203    0.600946
H     -3.795372   -2.065223    1.824778
H      0.602291   -0.167664    1.662282
H      0.435038    1.246562    0.585138
H      0.559278   -1.700230   -0.357610
H      0.396994   -0.272695   -1.427735
H      2.677786   -2.128011    0.864740
H      5.126852   -1.808378    0.906228
H      6.164014    0.051892   -0.362427
H      4.743099    1.603101   -1.674111
H      2.292285    1.299592   -1.727827
H     -1.657576    1.736464   -0.543290
