31

C     -4.470901    1.375191    0.654563
C     -3.562128    0.405174   -0.040926
C     -4.081966   -0.766090   -0.609048
C     -3.240677   -1.656141   -1.279931
C     -1.875466   -1.379152   -1.407080
N     -1.036928   -2.313499   -2.083514
C     -1.345019   -0.187570   -0.870606
C      0.127157    0.129145   -0.970819
C      0.894518   -0.500074    0.195829
C      2.362790   -0.185933    0.094090
C      3.218525   -1.027659   -0.636176
C      4.576574   -0.716890   -0.757458
C      5.086829    0.439086   -0.160128
C      4.238994    1.288606    0.556074
C      2.880296    0.981613    0.679818
C     -2.196703    0.694751   -0.183505
H     -3.926796    1.912209    1.460553
H     -5.331461    0.845648    1.116205
H     -4.852601    2.114752   -0.079862
H     -5.137741   -0.993634   -0.527539
H     -3.652069   -2.564707   -1.701773
H      0.277694    1.231569   -0.962653
H      0.533754   -0.242983   -1.936496
H      0.492910   -0.114765    1.159190
H      0.745657   -1.602461    0.193667
H      2.833606   -1.921385   -1.111695
H      5.232761   -1.370484   -1.317553
H      6.137905    0.678849   -0.256069
H      4.633949    2.187021    1.012509
H      2.232030    1.652946    1.229405
H     -1.795494    1.606864    0.242925
