31

C      2.104215    2.515182   -0.776245
C      2.126415    1.070618   -0.373146
C      3.072413    0.609298    0.552523
C      3.058709   -0.723995    0.967580
C      2.093350   -1.608131    0.474664
N      2.091400   -2.959495    0.929852
C      1.130460   -1.155961   -0.450761
C      0.033529   -2.068594   -0.950053
C     -1.130778   -2.159966    0.046949
C     -1.812803   -0.828292    0.233638
C     -1.472737   -0.001785    1.318434
C     -2.066544    1.256131    1.458493
C     -2.999858    1.698806    0.517249
C     -3.338700    0.885351   -0.567551
C     -2.745490   -0.372541   -0.712784
C      1.150535    0.188994   -0.860098
H      1.742283    2.623075   -1.820935
H      3.122210    2.956067   -0.718476
H      1.427189    3.076276   -0.098708
H      3.818239    1.282640    0.956706
H      3.795386   -1.068066    1.682817
H      0.443317   -3.087061   -1.122300
H     -0.346145   -1.715887   -1.934400
H     -1.869492   -2.899434   -0.331762
H     -0.762619   -2.547741    1.022027
H     -0.739764   -0.326151    2.046804
H     -1.799343    1.889874    2.294170
H     -3.457403    2.673572    0.626232
H     -4.057278    1.231764   -1.299026
H     -3.006507   -0.988274   -1.564599
H      0.395813    0.553727   -1.547297
