31

C      4.525324   -1.463591   -0.416230
C      3.574514   -0.356261   -0.069404
C      4.052508    0.944612    0.140599
C      3.171414    1.970162    0.489834
C      1.807250    1.705991    0.650954
N      0.927945    2.775547    0.992400
C      1.317800    0.394817    0.476861
C     -0.151543    0.081798    0.620748
C     -0.884627    0.315342   -0.703590
C     -2.350169    0.005330   -0.558894
C     -3.247134    1.001951   -0.139045
C     -4.603349    0.703980    0.026735
C     -5.070913   -0.590695   -0.215428
C     -4.182242   -1.590801   -0.619786
C     -2.825223   -1.297149   -0.786772
C      2.209764   -0.627878    0.110177
H      4.021353   -2.230273   -1.042544
H      5.393649   -1.071406   -0.987453
H      4.891415   -1.941203    0.516448
H      5.106609    1.166627    0.028082
H      3.551055    2.973899    0.634996
H     -0.282969   -0.977131    0.936123
H     -0.600736    0.712312    1.418879
H     -0.440278   -0.327194   -1.495751
H     -0.754657    1.372412   -1.024732
H     -2.895732    2.006711    0.060952
H     -5.291295    1.476014    0.346368
H     -6.120660   -0.819972   -0.085369
H     -4.544316   -2.594653   -0.800495
H     -2.145289   -2.083217   -1.091352
H      1.840531   -1.636082   -0.037991
