28

C      1.939190    1.538801    1.621530
N      1.765614    0.622750    0.489719
C      1.972121   -0.817571    0.675816
C      1.420783    1.170231   -0.802635
O      1.494899    2.415728   -0.990069
C      0.905120    0.313516   -1.932715
C     -0.624796    0.380168   -2.034749
C     -1.296753   -0.281095   -0.853997
C     -1.656321    0.494552    0.262426
C     -2.235568   -0.104426    1.383838
C     -2.459999   -1.482179    1.404097
C     -2.102885   -2.265318    0.303970
C     -1.519416   -1.674639   -0.823354
N     -1.144217   -2.499344   -1.924440
H      2.167063    0.995850    2.562605
H      2.774772    2.239726    1.412615
H      1.005057    2.118971    1.777883
H      2.753109   -1.178929   -0.025739
H      1.024973   -1.364059    0.494774
H      2.308324   -1.055125    1.706638
H      1.236020   -0.740797   -1.841927
H      1.336004    0.694091   -2.884032
H     -0.949234    1.441047   -2.119245
H     -0.946146   -0.116152   -2.975677
H     -1.478614    1.562927    0.268051
H     -2.507101    0.499992    2.239621
H     -2.907511   -1.944299    2.274507
H     -2.274488   -3.334139    0.330489
