28

C     -2.152379   -0.755218   -1.999346
N     -1.773879    0.112977   -0.879858
C     -2.126991   -0.266656    0.492362
C     -1.080898    1.349684   -1.161204
O     -1.013148    1.767933   -2.349633
C     -0.367877    2.139072   -0.090961
C      1.140477    1.855620   -0.095271
C      1.448945    0.444063    0.346682
C      1.578878   -0.571134   -0.617585
C      1.817066   -1.891483   -0.227953
C      1.925915   -2.212916    1.126232
C      1.793775   -1.215162    2.094809
C      1.552340    0.110411    1.714334
N      1.399852    1.106332    2.723388
H     -2.645343   -1.687347   -1.652263
H     -1.245036   -1.040246   -2.573049
H     -2.855765   -0.218029   -2.670028
H     -2.723933   -1.202055    0.519705
H     -2.735487    0.535968    0.959510
H     -1.208044   -0.434512    1.088916
H     -0.521018    3.220990   -0.294682
H     -0.788806    1.950428    0.917277
H      1.646026    2.579103    0.579960
H      1.554100    2.041104   -1.111330
H      1.485660   -0.341208   -1.671853
H      1.913447   -2.666874   -0.976883
H      2.108989   -3.236706    1.425857
H      1.873135   -1.474141    3.143217
