28

C     -2.402967    1.768598    0.402781
N     -1.882138    0.398549    0.447254
C     -2.013808   -0.472712   -0.725507
C     -1.271839   -0.075047    1.668756
O     -1.395372    0.599688    2.727699
C     -0.425839   -1.323519    1.719235
C      1.071338   -0.989486    1.670433
C      1.479432   -0.429772    0.327619
C      1.488268    0.962559    0.131006
C      1.816653    1.499439   -1.116307
C      2.137247    0.653888   -2.179909
C      2.127329   -0.731248   -1.999873
C      1.796991   -1.278828   -0.754390
N      1.773137   -2.696477   -0.602716
H     -1.585727    2.485406    0.630713
H     -2.813530    2.023347   -0.596662
H     -3.213312    1.886820    1.152782
H     -1.011209   -0.739180   -1.115769
H     -2.575396    0.022531   -1.544904
H     -2.565205   -1.395562   -0.447999
H     -0.635911   -1.849174    2.675822
H     -0.684480   -2.036125    0.910156
H      1.321663   -0.269583    2.480952
H      1.654306   -1.910752    1.885749
H      1.230827    1.632526    0.942120
H      1.818703    2.572277   -1.259237
H      2.389898    1.071957   -3.145736
H      2.370942   -1.380120   -2.831827
