28

C      2.200679    1.642541    1.350617
N      1.813479    0.336799    0.807122
C      2.085167    0.019856   -0.599127
C      1.193905   -0.627761    1.687223
O      1.200428   -0.426987    2.932828
C      0.471391   -1.847495    1.170336
C     -1.047018   -1.627062    1.133730
C     -1.442382   -0.606157    0.092380
C     -1.576599    0.744010    0.461640
C     -1.895100    1.711344   -0.494755
C     -2.080765    1.342652   -1.828388
C     -1.945370    0.005774   -2.209885
C     -1.623798   -0.970467   -1.259230
N     -1.470034   -2.324713   -1.678366
H      1.307837    2.149175    1.774647
H      2.632221    2.304286    0.570738
H      2.958753    1.506495    2.150589
H      2.634875    0.839704   -1.106797
H      2.709396   -0.896016   -0.664065
H      1.133027   -0.137067   -1.144397
H      0.836459   -2.156357    0.170016
H      0.685164   -2.696340    1.855366
H     -1.547664   -2.595587    0.918658
H     -1.404587   -1.311533    2.138942
H     -1.424569    1.049050    1.489684
H     -1.994198    2.748595   -0.201995
H     -2.326003    2.093942   -2.567886
H     -2.084693   -0.270682   -3.247522
