28

C     -3.003739    0.918119   -1.179905
N     -3.085231   -0.068299   -0.096649
C     -4.392398   -0.541744    0.370314
C     -1.887283   -0.585165    0.523008
O     -1.987064   -1.432906    1.453735
C     -0.518574   -0.125844    0.073600
C      0.626639   -0.789828    0.851637
C      1.963257   -0.293816    0.355550
C      2.619890   -0.988608   -0.675442
C      3.843364   -0.529783   -1.170966
C      4.418507    0.631132   -0.650595
C      3.769355    1.339257    0.363495
C      2.543104    0.887579    0.866296
N      1.893479    1.637431    1.890630
H     -2.441015    0.492088   -2.036616
H     -2.492311    1.834451   -0.818103
H     -4.009792    1.211782   -1.545771
H     -4.514645   -0.300925    1.447519
H     -4.463697   -1.641234    0.231219
H     -5.227429   -0.067815   -0.186913
H     -0.401514   -0.360212   -1.006380
H     -0.452850    0.975512    0.204836
H      0.521044   -0.576483    1.937668
H      0.567480   -1.894150    0.729620
H      2.183044   -1.885633   -1.096885
H      4.344292   -1.073187   -1.961729
H      5.365538    0.985372   -1.036803
H      4.218550    2.242908    0.756252
