28

C      4.368936    0.722526    0.208083
N      3.057806    0.065731    0.229289
C      2.943117   -1.335124    0.650662
C      1.888939    0.815201   -0.168519
O      2.016874    2.019668   -0.525966
C      0.517387    0.178714   -0.162549
C     -0.594038    1.135267   -0.618041
C     -1.934621    0.441792   -0.593404
C     -2.395702   -0.214101   -1.748418
C     -3.619692   -0.888421   -1.738745
C     -4.390405   -0.923823   -0.575109
C     -3.936965   -0.289073    0.583642
C     -2.711857    0.388881    0.583832
N     -2.264488    1.015242    1.784285
H      5.179786    0.038519    0.535259
H      4.599646    1.064240   -0.823087
H      4.359491    1.598971    0.890037
H      2.522793   -1.944685   -0.176308
H      2.282516   -1.408851    1.539648
H      3.929593   -1.765124    0.923065
H      0.531333   -0.702827   -0.839067
H      0.292646   -0.170791    0.867920
H     -0.376219    1.494198   -1.648399
H     -0.617013    2.030907    0.040314
H     -1.805881   -0.204473   -2.656781
H     -3.969256   -1.386967   -2.633608
H     -5.337471   -1.447792   -0.569538
H     -4.537255   -0.327803    1.484071
