28

C      2.663320   -0.701710   -1.827848
N      3.014961    0.023476   -0.601652
C      4.414570    0.361189   -0.322483
C      1.995028    0.413526    0.343760
O      2.326308    1.036259    1.391297
C      0.539470    0.086862    0.096887
C     -0.388920    0.585086    1.213844
C     -1.824426    0.232214    0.908097
C     -2.626327    1.146152    0.202037
C     -3.948710    0.827492   -0.118450
C     -4.480714   -0.408797    0.252850
C     -3.690253   -1.331933    0.941478
C     -2.364165   -1.021879    1.266857
N     -1.573784   -1.987973    1.956431
H      1.971032   -0.089622   -2.442832
H      3.558641   -0.925951   -2.444575
H      2.177588   -1.665878   -1.569842
H      4.524187    1.463175   -0.239308
H      5.094098    0.005683   -1.125131
H      4.730114   -0.110579    0.632073
H      0.228082    0.552864   -0.862731
H      0.433644   -1.015329    0.004655
H     -0.287545    1.688276    1.316843
H     -0.086281    0.138489    2.186002
H     -2.226437    2.105765   -0.101830
H     -4.560474    1.538678   -0.658340
H     -5.504767   -0.653987    0.002438
H     -4.108241   -2.291549    1.219045
