28

C      4.420424   -0.450271   -0.235419
N      3.082956    0.140913   -0.123286
C      2.932081    1.584420    0.092648
C      1.924305   -0.715108   -0.227984
O      2.083674   -1.954135   -0.413166
C      0.526420   -0.149143   -0.118864
C     -0.569286   -1.215964   -0.256890
C     -1.937883   -0.589406   -0.142686
C     -2.596149   -0.148497   -1.304209
C     -3.850270    0.462097   -1.218723
C     -4.455135    0.647997    0.025818
C     -3.805344    0.228187    1.188896
C     -2.548521   -0.384361    1.113441
N     -1.899594   -0.789503    2.316897
H      4.530559   -0.941666   -1.225221
H      4.563950   -1.205827    0.565732
H      5.220044    0.313561   -0.137664
H      2.395836    1.769174    1.046814
H      2.362145    2.034012   -0.747088
H      3.915031    2.097034    0.149867
H      0.387754    0.612529   -0.916117
H      0.421547    0.350076    0.868208
H     -0.441072   -1.994858    0.526064
H     -0.470596   -1.724777   -1.241412
H     -2.136883   -0.276403   -2.276741
H     -4.352044    0.794563   -2.118285
H     -5.425928    1.122319    0.089757
H     -4.278023    0.383037    2.150778
