28

C     -4.394109    0.650054   -0.160438
N     -3.059094    0.278825    0.319996
C     -2.892439   -0.295074    1.660134
C     -1.918500    0.486042   -0.541580
O     -2.091108    0.982415   -1.689926
C     -0.523839    0.117776   -0.088141
C      0.551653    0.412315   -1.143742
C      1.917483    0.020963   -0.633813
C      2.405862   -1.273020   -0.886678
C      3.654490   -1.666595   -0.397824
C      4.423185   -0.777687    0.355999
C      3.943234    0.505781    0.627243
C      2.693324    0.909214    0.141980
N      2.219655    2.219400    0.446287
H     -4.419520    1.735608   -0.393324
H     -4.635106    0.073546   -1.078517
H     -5.179254    0.440139    0.595783
H     -3.862571   -0.388411    2.191517
H     -2.231670    0.355890    2.269849
H     -2.447328   -1.309049    1.583686
H     -0.502741   -0.967006    0.152261
H     -0.288517    0.688585    0.835619
H      0.539071    1.492468   -1.406884
H      0.322904   -0.152193   -2.074828
H      1.818293   -1.978177   -1.461674
H      4.024846   -2.663151   -0.600886
H      5.389405   -1.085102    0.734714
H      4.542389    1.186446    1.219128
