28

C      2.205789    1.624832   -1.232787
N      1.837254    0.356454   -0.595861
C      2.033288    0.178074    0.846897
C      1.312017   -0.709202   -1.418861
O      1.388037   -0.619696   -2.675083
C      0.607336   -1.909377   -0.835805
C     -0.917909   -1.754805   -0.908140
C     -1.417096   -0.664230    0.010787
C     -1.581131    0.640455   -0.487419
C     -1.996272    1.673628    0.356429
C     -2.249806    1.416834    1.705043
C     -2.085883    0.126511    2.214269
C     -1.667690   -0.914877    1.377118
N     -1.487103   -2.218319    1.926419
H      2.561653    2.371853   -0.492743
H      3.016877    1.452416   -1.971399
H      1.321777    2.051320   -1.752669
H      2.517695    1.063546    1.308793
H      1.056017    0.027677    1.347733
H      2.687833   -0.699534    1.031497
H      0.896508   -2.805245   -1.426822
H      0.921397   -2.111561    0.208130
H     -1.392452   -2.721866   -0.635108
H     -1.224454   -1.546091   -1.957107
H     -1.377623    0.859533   -1.528392
H     -2.117723    2.675311   -0.035104
H     -2.569900    2.219062    2.357274
H     -2.278435   -0.062703    3.262912
