28

C     -2.018481   -0.042655   -0.897089
N     -1.806476    0.682055    0.360548
C     -2.084530    2.120063    0.431908
C     -1.353921    0.000406    1.551922
O     -1.419997    0.587136    2.666941
C     -0.735657   -1.375475    1.511278
C      0.796828   -1.303803    1.554291
C      1.367688   -0.703728    0.290567
C      1.623042    0.677886    0.233527
C      2.106297    1.260739   -0.940617
C      2.337621    0.472678   -2.069525
C      2.083341   -0.900186   -2.028295
C      1.596452   -1.493025   -0.857109
N      1.324525   -2.892765   -0.847851
H     -2.732719   -0.876942   -0.734208
H     -1.055389   -0.442749   -1.272447
H     -2.441749    0.615162   -1.684604
H     -1.171648    2.660112    0.761514
H     -2.903508    2.308622    1.157760
H     -2.389935    2.532186   -0.552585
H     -1.065922   -1.955632    0.626036
H     -1.084460   -1.941431    2.402083
H      1.120061   -0.715181    2.441370
H      1.202523   -2.328109    1.699738
H      1.438143    1.305774    1.096432
H      2.297895    2.325370   -0.976237
H      2.710616    0.926582   -2.978525
H      2.259359   -1.503089   -2.910370
