28

C      2.976084    0.974227    1.234321
N      3.084185   -0.045399    0.184663
C      4.402877   -0.524319   -0.242628
C      1.901403   -0.589902   -0.440436
O      2.024043   -1.465945   -1.341759
C      0.521600   -0.126092   -0.031377
C     -0.604546   -0.822313   -0.809065
C     -1.953375   -0.320126   -0.353932
C     -2.624855   -0.986460    0.686243
C     -3.860317   -0.520675    1.144096
C     -4.432931    0.619159    0.576476
C     -3.769333    1.299302   -0.447370
C     -2.531003    0.840448   -0.912672
N     -1.867007    1.561973   -1.948077
H      2.400075    0.571632    2.093533
H      2.465742    1.875074    0.834135
H      3.973198    1.286303    1.609301
H      4.543830   -0.316887   -1.324485
H      4.478517   -1.618332   -0.067351
H      5.224260   -0.027204    0.314680
H      0.385748   -0.326949    1.053145
H      0.451367    0.970074   -0.198760
H     -0.540684   -1.921780   -0.650921
H     -0.479909   -0.642740   -1.899180
H     -2.190326   -1.866635    1.144041
H     -4.372566   -1.042227    1.942286
H     -5.389286    0.978870    0.933552
H     -4.216790    2.186922   -0.876942
