28

C     -1.942097    1.565468    1.771066
N     -1.741292    0.792494    0.541244
C     -2.075356   -0.635559    0.511833
C     -1.241872    1.470322   -0.633471
O     -1.201591    2.731216   -0.653708
C     -0.696870    0.725176   -1.827070
C      0.836590    0.667681   -1.800715
C      1.347825   -0.198763   -0.673382
C      1.666818    0.389976    0.563124
C      2.096099   -0.398976    1.633238
C      2.209516   -1.782162    1.481862
C      1.890934   -2.380636    0.260612
C      1.457330   -1.598736   -0.816800
N      1.117626   -2.236516   -2.046085
H     -2.698623    2.359365    1.596318
H     -0.982974    2.034676    2.076962
H     -2.293957    0.927328    2.608513
H     -1.161525   -1.236239    0.331243
H     -2.518888   -0.974109    1.471375
H     -2.817119   -0.831486   -0.290726
H     -1.115862   -0.298209   -1.907327
H     -1.010927    1.263104   -2.747669
H      1.249123    1.697309   -1.713846
H      1.200077    0.271179   -2.773139
H      1.573340    1.460119    0.701295
H      2.337329    0.062412    2.582103
H      2.540868   -2.391582    2.312675
H      1.975479   -3.454853    0.153653
