28

C     -2.034901   -1.827279    1.138946
N     -1.777987   -0.803494    0.121039
C     -2.061190    0.605884    0.413015
C     -1.274695   -1.215665   -1.169556
O     -1.277984   -2.439526   -1.476217
C     -0.675739   -0.240760   -2.153305
C      0.857730   -0.251256   -2.091168
C      1.371907    0.315384   -0.788283
C      1.640605   -0.551138    0.286082
C      2.071560   -0.043661    1.514339
C      2.236772    1.332148    1.684153
C      1.968462    2.204657    0.626868
C      1.533613    1.705871   -0.606954
N      1.245761    2.619286   -1.663418
H     -2.814299   -2.530207    0.776221
H     -1.100301   -2.391173    1.344356
H     -2.384129   -1.382869    2.094396
H     -2.515353    0.734647    1.417612
H     -2.776336    1.008216   -0.334913
H     -1.122902    1.195384    0.388126
H     -1.056718    0.789774   -2.004417
H     -0.986369   -0.542510   -3.177002
H      1.257896    0.341280   -2.941881
H      1.231880   -1.289114   -2.235133
H      1.506554   -1.620133    0.175110
H      2.273864   -0.717814    2.336535
H      2.569315    1.723196    2.637008
H      2.092982    3.270873    0.769019
