28

C      3.010865    0.751512   -1.220143
N      3.086229   -0.019982    0.025739
C      4.391107   -0.373664    0.594153
C      1.884426   -0.440706    0.707551
O      1.978933   -1.104307    1.777868
C      0.517898   -0.098342    0.158282
C     -0.632027   -0.632225    1.024520
C     -1.966107   -0.256000    0.426719
C     -2.586006    0.943795    0.817956
C     -3.806309    1.326659    0.254724
C     -4.414803    0.522452   -0.710827
C     -3.802247   -0.664570   -1.119450
C     -2.579470   -1.056471   -0.561111
N     -1.967458   -2.264841   -1.007022
H      2.475870    1.707312   -1.040300
H      4.019280    0.995015   -1.615165
H      2.474217    0.165303   -1.995057
H      4.486213    0.060900    1.611707
H      5.229538    0.008676   -0.024908
H      4.484270   -1.478430    0.658360
H      0.429834    1.007175    0.087119
H      0.428538   -0.525955   -0.863330
H     -0.549395   -0.212464    2.051597
H     -0.555151   -1.737456    1.117707
H     -2.122947    1.584003    1.558775
H     -4.278868    2.249710    0.564866
H     -5.359302    0.821604   -1.146647
H     -4.277125   -1.278705   -1.874400
