28

C      2.192176    0.241891   -0.137946
N      1.624287   -0.556893    0.953497
C      1.868019   -0.169752    2.346691
C      0.847052   -1.745887    0.686996
O      0.586819   -2.542842    1.629877
C      0.268678   -2.046145   -0.673989
C     -1.210722   -1.645963   -0.756013
C     -1.392013   -0.146970   -0.700123
C     -1.621563    0.477498    0.538692
C     -1.744904    1.866803    0.619221
C     -1.638577    2.646989   -0.533597
C     -1.405488    2.040096   -1.769907
C     -1.277792    0.648799   -1.860376
N     -1.018514    0.055825   -3.130990
H      1.379476    0.689274   -0.744479
H      2.829687   -0.400313   -0.781261
H      2.824506    1.070166    0.244384
H      2.441581   -0.967977    2.863415
H      2.444834    0.775984    2.418885
H      0.898148   -0.020505    2.867002
H      0.841772   -1.558187   -1.488098
H      0.345340   -3.140616   -0.852201
H     -1.639925   -2.040769   -1.701982
H     -1.777623   -2.134340    0.067378
H     -1.695128   -0.111703    1.444488
H     -1.919245    2.339184    1.577280
H     -1.732990    3.723235   -0.468646
H     -1.317891    2.653119   -2.658197
