31

N      2.855363    2.240267   -0.129257
C      3.199992    0.872073    0.077838
C      4.505872    0.548282    0.465554
C      4.864248   -0.783136    0.689708
C      3.918142   -1.797780    0.532181
C      2.612365   -1.484471    0.145248
C      2.242641   -0.150097   -0.098365
C      0.818579    0.167249   -0.483091
C     -0.021542    0.468728    0.761317
C     -1.441402    0.778137    0.377053
C     -1.853832    2.099357    0.095400
C     -3.183493    2.364163   -0.300789
C     -4.109152    1.313312   -0.430576
C     -3.667058    0.021650   -0.159798
O     -4.377542   -1.161150   -0.228097
C     -3.493185   -2.231106    0.132429
O     -2.237029   -1.598420    0.412390
C     -2.390138   -0.237262    0.224068
H      5.243644    1.329885    0.597478
H      5.874669   -1.027983    0.990715
H      4.195706   -2.828137    0.713402
H      1.888137   -2.282553    0.036866
H      0.793937    1.036349   -1.176210
H      0.375451   -0.693850   -1.031112
H      0.414161    1.332621    1.309844
H     -0.001943   -0.405743    1.448539
H     -1.151570    2.919324    0.179270
H     -3.490676    3.380458   -0.510412
H     -5.129846    1.501201   -0.736478
H     -3.870224   -2.751243    1.037824
H     -3.384276   -2.940127   -0.714852
