31

N      2.515955    1.497230    2.263803
C      3.042307    0.619439    1.270804
C      4.415545    0.642152    0.998425
C      4.953268   -0.196856    0.019511
C      4.120715   -1.059755   -0.695818
C      2.748909   -1.089731   -0.430901
C      2.197206   -0.261555    0.562250
C      0.708677   -0.287382    0.807793
C      0.002465    0.766167   -0.050429
C     -1.480925    0.734882    0.190347
C     -2.077815    1.527728    1.195417
C     -3.468624    1.455627    1.431070
C     -4.273421    0.584592    0.675045
C     -3.652150   -0.193462   -0.297483
O     -4.221745   -1.120846   -1.148359
C     -3.179544   -1.672655   -1.964566
O     -1.981164   -1.011132   -1.536931
C     -2.315538   -0.125384   -0.529307
H      5.067040    1.313960    1.543256
H      6.015266   -0.174376   -0.188245
H      4.538048   -1.703869   -1.459015
H      2.115657   -1.758012   -1.001500
H      0.494960   -0.104653    1.883566
H      0.304321   -1.295518    0.566270
H      0.211042    0.575435   -1.126289
H      0.399307    1.776688    0.191218
H     -1.471755    2.195696    1.794636
H     -3.916963    2.070226    2.200759
H     -5.339473    0.516617    0.847117
H     -3.095798   -2.766058   -1.791618
H     -3.375772   -1.455196   -3.035383
