31

N     -0.632451    0.181935    3.562377
C     -1.216466    0.595930    2.329187
C     -1.640797    1.922427    2.186131
C     -2.201615    2.356572    0.982801
C     -2.343224    1.466927   -0.083612
C     -1.925161    0.140610    0.050357
C     -1.360087   -0.310275    1.256826
C     -0.847841   -1.729385    1.355187
C      0.667131   -1.808547    1.115477
C      1.032720   -1.390336   -0.284286
C      0.963236   -2.299837   -1.362346
C      1.249345   -1.872616   -2.677872
C      1.593312   -0.532642   -2.931209
C      1.640044    0.341274   -1.849148
O      1.925714    1.692944   -1.848349
C      1.826369    2.166421   -0.498237
O      1.481379    1.011106    0.277112
C      1.374940   -0.067297   -0.581626
H     -1.530577    2.620131    3.006842
H     -2.523729    3.384290    0.875894
H     -2.771778    1.806736   -1.017546
H     -2.026079   -0.531437   -0.793003
H     -1.373717   -2.384014    0.625455
H     -1.076510   -2.138503    2.362772
H      1.202657   -1.177027    1.857355
H      1.002265   -2.854883    1.284407
H      0.682556   -3.330936   -1.187859
H      1.195003   -2.577936   -3.496824
H      1.806096   -0.189690   -3.935078
H      2.801654    2.576562   -0.162341
H      1.025609    2.931497   -0.418843
