31

N     -0.032027    0.581318   -2.401389
C     -1.106926    0.685532   -1.470180
C     -1.640955    1.948277   -1.187205
C     -2.682453    2.082717   -0.266566
C     -3.196461    0.955618    0.376808
C     -2.669540   -0.308998    0.102502
C     -1.623286   -0.459987   -0.824399
C     -1.027983   -1.832252   -1.047895
C     -0.048636   -2.218495    0.070276
C      1.159996   -1.320755    0.089526
C      2.269212   -1.567625   -0.748985
C      3.367178   -0.679238   -0.762395
C      3.362591    0.468962    0.049760
C      2.249451    0.689908    0.855283
O      2.004735    1.746228    1.711388
C      0.713985    1.546989    2.303923
O      0.237266    0.312975    1.751792
C      1.195787   -0.166324    0.878185
H     -1.244517    2.828491   -1.677672
H     -3.089371    3.061844   -0.049487
H     -4.000209    1.062360    1.093745
H     -3.069394   -1.171606    0.621232
H     -1.848023   -2.582549   -1.074915
H     -0.518115   -1.894936   -2.033271
H      0.278005   -3.269398   -0.086746
H     -0.566329   -2.187549    1.054023
H      2.281507   -2.437077   -1.394182
H      4.212847   -0.878148   -1.407670
H      4.192888    1.162644    0.042801
H      0.032258    2.377760    2.024771
H      0.806521    1.463316    3.406942
