31

N      2.852290    1.948117    1.191959
C      3.198240    0.723442    0.548454
C      4.520430    0.519174    0.135447
C      4.881244   -0.665467   -0.510918
C      3.921534   -1.650429   -0.752255
C      2.599416   -1.455749   -0.343556
C      2.226267   -0.274642    0.321536
C      0.786150   -0.072525    0.723884
C      0.014454    0.653671   -0.381725
C     -1.421625    0.847946    0.017431
C     -1.839702    2.004011    0.712966
C     -3.186645    2.150165    1.112301
C     -4.124697    1.140506    0.831902
C     -3.677376    0.007808    0.158064
O     -4.398178   -1.110144   -0.214897
C     -3.503041   -2.014551   -0.876445
O     -2.229764   -1.354849   -0.863988
C     -2.383706   -0.135738   -0.230168
H      5.269220    1.281285    0.311842
H      5.904374   -0.817830   -0.829506
H      4.201391   -2.564579   -1.259729
H      1.865272   -2.225694   -0.547045
H      0.731030    0.509993    1.669394
H      0.309157   -1.057575    0.924718
H      0.064560    0.064436   -1.323876
H      0.483835    1.641870   -0.582141
H     -1.128660    2.786406    0.947125
H     -3.497820    3.041572    1.641190
H     -5.158855    1.237640    1.134849
H     -3.443608   -2.971994   -0.317676
H     -3.835183   -2.186278   -1.921737
