31

N      1.251955   -0.882962   -3.282760
C      1.537639    0.014980   -2.212569
C      1.749532    1.369535   -2.496123
C      2.015471    2.271976   -1.463710
C      2.073018    1.825345   -0.142359
C      1.865529    0.475118    0.150350
C      1.598233   -0.444650   -0.879581
C      1.304662   -1.886758   -0.533058
C     -0.204609   -2.165779   -0.477227
C     -0.875106   -1.387520    0.623974
C     -0.887339   -1.862246    1.953905
C     -1.466017   -1.088394    2.984084
C     -2.024518    0.170587    2.699366
C     -1.984699    0.615332    1.381268
O     -2.440872    1.812615    0.864510
C     -2.156355    1.826078   -0.541093
O     -1.524479    0.566746   -0.805206
C     -1.437826   -0.129431    0.386240
H      1.702315    1.725093   -3.517814
H      2.173887    3.318894   -1.687886
H      2.272523    2.527131    0.657051
H      1.896109    0.149001    1.182726
H      1.767955   -2.553488   -1.291826
H      1.767831   -2.154279    0.442389
H     -0.671877   -1.925461   -1.456970
H     -0.361758   -3.252748   -0.305553
H     -0.445786   -2.821300    2.193989
H     -1.471887   -1.462071    3.999685
H     -2.462945    0.777830    3.480189
H     -3.097902    1.912271   -1.122711
H     -1.462683    2.658556   -0.783280
