31

N      2.589122   -2.148202   -1.343784
C      2.380070   -1.234073   -0.269587
C      2.739619   -1.613305    1.029267
C      2.530476   -0.741949    2.100717
C      1.962592    0.514016    1.879768
C      1.602897    0.902529    0.586895
C      1.809179    0.035646   -0.501288
C      1.345575    0.447386   -1.880231
C     -0.029325   -0.145561   -2.222181
C     -1.105671    0.379561   -1.309153
C     -1.740283    1.615915   -1.560007
C     -2.702650    2.121632   -0.658297
C     -3.029914    1.406006    0.507380
C     -2.377133    0.197627    0.732020
O     -2.509084   -0.663657    1.804118
C     -1.612005   -1.764201    1.601873
O     -0.968158   -1.494568    0.349799
C     -1.458237   -0.296791   -0.136889
H      3.176610   -2.587400    1.210036
H      2.805913   -1.041885    3.103495
H      1.795043    1.185282    2.712054
H      1.147135    1.873410    0.436040
H      2.084376    0.108172   -2.637860
H      1.302021    1.556080   -1.960832
H      0.011715   -1.255292   -2.169226
H     -0.280758    0.115784   -3.272966
H     -1.487296    2.188674   -2.443375
H     -3.184531    3.069231   -0.860673
H     -3.758548    1.785910    1.211238
H     -0.859377   -1.799422    2.417448
H     -2.179374   -2.716556    1.544200
