31

N      2.857235    1.497079    1.783043
C      3.196404    0.476071    0.847033
C      4.525677    0.350958    0.425291
C      4.880621   -0.631101   -0.502569
C      3.908098   -1.490416   -1.017556
C      2.578827   -1.373423   -0.602491
C      2.210929   -0.399371    0.342218
C      0.764082   -0.270268    0.750436
C      0.040617    0.742532   -0.141796
C     -1.402183    0.865034    0.261582
C     -1.816303    1.809095    1.227139
C     -3.171028    1.882635    1.620070
C     -4.121269    1.008453    1.062555
C     -3.678074    0.080421    0.124745
O     -4.410744   -0.879959   -0.545582
C     -3.515629   -1.603472   -1.401250
O     -2.229821   -1.005771   -1.186653
C     -2.376862    0.007974   -0.258021
H      5.284685    1.018401    0.813935
H      5.909323   -0.722679   -0.826441
H      4.183681   -2.245984   -1.741910
H      1.835091   -2.041690   -1.018987
H      0.693199    0.044124    1.814620
H      0.260995   -1.259771    0.673202
H      0.106001    0.420768   -1.204600
H      0.536324    1.735106   -0.063717
H     -1.096300    2.482513    1.675089
H     -3.478941    2.612211    2.357681
H     -5.161607    1.051322    1.356758
H     -3.492482   -2.675281   -1.112907
H     -3.820545   -1.485511   -2.462170
