31

N     -0.924942    1.011409    3.314035
C     -1.377336    1.152745    1.969196
C     -1.714291    2.425271    1.492484
C     -2.145000    2.592252    0.174303
C     -2.243205    1.488108   -0.674214
C     -1.911716    0.213894   -0.206953
C     -1.477954    0.031197    1.118432
C     -1.054789   -1.344633    1.580991
C      0.468527   -1.527920    1.511819
C      0.975371   -1.452864    0.095708
C      0.948885   -2.581485   -0.752668
C      1.369902   -2.475737   -2.096745
C      1.807391   -1.241427   -2.609681
C      1.808956   -0.145746   -1.751635
O      2.167282    1.159921   -2.026328
C      1.978532    1.932110   -0.832619
O      1.505346    0.996641    0.145097
C      1.413979   -0.245015   -0.456275
H     -1.636757    3.287657    2.142699
H     -2.399762    3.578829   -0.190592
H     -2.570654    1.620258   -1.697285
H     -1.976629   -0.629009   -0.883994
H     -1.391265   -1.505043    2.627867
H     -1.551230   -2.130198    0.969414
H      0.972253   -0.762368    2.141248
H      0.729932   -2.518881    1.942323
H      0.598082   -3.535400   -0.379339
H      1.347448   -3.347074   -2.738132
H      2.124110   -1.144056   -3.639663
H      2.942413    2.374684   -0.505083
H      1.217120    2.721880   -1.004006
