31

N     -3.032506    0.393250   -1.942276
C     -2.610976    0.322549   -0.581929
C     -3.066845    1.286803    0.324995
C     -2.655944    1.248539    1.659422
C     -1.788675    0.245246    2.095322
C     -1.330381   -0.722940    1.198425
C     -1.737217   -0.697138   -0.147677
C     -1.171666   -1.710723   -1.116561
C      0.013372   -1.142791   -1.911545
C      1.178216   -0.812200   -1.016143
C      2.105613   -1.802653   -0.624777
C      3.155407   -1.487238    0.265970
C      3.280974   -0.185937    0.784496
C      2.343275    0.763519    0.389508
O      2.244108    2.085879    0.776999
C      1.101203    2.654930    0.123700
O      0.557966    1.591664   -0.669580
C      1.338075    0.467009   -0.473903
H     -3.736227    2.071020   -0.005811
H     -3.007607    1.999127    2.355365
H     -1.465984    0.221031    3.128109
H     -0.643919   -1.483597    1.549504
H     -1.964610   -2.028987   -1.827084
H     -0.850130   -2.628201   -0.575785
H     -0.305725   -0.239707   -2.475998
H      0.332607   -1.895125   -2.665036
H      2.013296   -2.814042   -1.000225
H      3.861940   -2.253079    0.558217
H      4.074845    0.067293    1.474635
H      1.411500    3.499031   -0.527014
H      0.356016    2.987466    0.876678
