31

N      2.547630    0.838624   -2.435153
C      2.385667    0.722260   -1.023256
C      2.834130    1.759625   -0.196893
C      2.672860    1.676589    1.188059
C      2.064222    0.555473    1.754995
C      1.615779   -0.486014    0.938879
C      1.773034   -0.416098   -0.457029
C      1.214989   -1.520402   -1.325960
C     -0.164904   -1.158481   -1.894972
C     -1.193612   -1.002915   -0.806190
C     -1.870315   -2.121576   -0.272428
C     -2.785547   -1.962906    0.791603
C     -3.023100   -0.690305    1.341215
C     -2.330543    0.389457    0.801540
O     -2.375788    1.716426    1.183280
C     -1.468581    2.449218    0.348509
O     -0.910524    1.473582   -0.541237
C     -1.456893    0.242810   -0.227565
H      3.303326    2.634737   -0.628793
H      3.017103    2.483435    1.822003
H      1.933999    0.495813    2.827769
H      1.129794   -1.340265    1.394030
H      1.912433   -1.719861   -2.167794
H      1.141537   -2.469096   -0.749613
H     -0.095674   -0.224710   -2.494364
H     -0.487349   -1.962764   -2.591267
H     -1.686008   -3.111093   -0.671533
H     -3.300331   -2.826368    1.192283
H     -3.714648   -0.555563    2.162343
H     -2.016872    3.224062   -0.227004
H     -0.665814    2.906306    0.964542
