31

N      1.978511   -2.411336   -1.842469
C      2.025222   -1.661674   -0.630424
C      2.340569   -2.317055    0.565881
C      2.377364   -1.608083    1.768796
C      2.101074   -0.239787    1.782520
C      1.787928    0.423580    0.593518
C      1.748689   -0.277733   -0.625003
C      1.336258    0.444664   -1.887534
C     -0.149801    0.229363   -2.210242
C     -1.041754    0.819852   -1.150225
C     -1.388635    2.188691   -1.163835
C     -2.174515    2.737543   -0.126465
C     -2.609096    1.929756    0.939667
C     -2.239232    0.588160    0.930273
O     -2.520537   -0.387029    1.867552
C     -1.905428   -1.608313    1.435167
O     -1.267447   -1.284498    0.192968
C     -1.491799    0.054283   -0.069798
H      2.551870   -3.379059    0.564767
H      2.617112   -2.120478    2.691489
H      2.123429    0.306658    2.716468
H      1.558808    1.481691    0.625048
H      1.542297    1.534138   -1.797060
H      1.948113    0.081145   -2.740988
H     -0.376893    0.707259   -3.187850
H     -0.359616   -0.856046   -2.327960
H     -1.047544    2.829058   -1.967563
H     -2.436395    3.787351   -0.147212
H     -3.203934    2.338980    1.745491
H     -1.148644   -1.939360    2.177153
H     -2.675975   -2.391721    1.277871
