31

N     -1.886899   -1.774999   -2.532316
C     -2.012222   -0.644886   -1.671867
C     -2.443272    0.575346   -2.206041
C     -2.559128    1.700953   -1.387145
C     -2.246667    1.612830   -0.029440
C     -1.818185    0.398926    0.513408
C     -1.698394   -0.742655   -0.299373
C     -1.163311   -2.026520    0.293351
C      0.337656   -2.201324    0.018750
C      1.155485   -1.128084    0.687484
C      1.540532   -1.237362    2.041749
C      2.253418   -0.191773    2.669058
C      2.575960    0.976638    1.955749
C      2.170672    1.058658    0.626924
O      2.346445    2.101550   -0.261953
C      1.735036    1.732137   -1.505561
O      1.210771    0.416076   -1.286321
C      1.493422    0.051966    0.017227
H     -2.683449    0.653470   -3.258997
H     -2.888324    2.643027   -1.806091
H     -2.330551    2.487644    0.602247
H     -1.562884    0.352842    1.564972
H     -1.345489   -2.053802    1.390465
H     -1.712753   -2.891845   -0.135860
H      0.657783   -3.195791    0.398515
H      0.525950   -2.201168   -1.076940
H      1.284834   -2.122203    2.611020
H      2.545431   -0.286157    3.706812
H      3.113686    1.789085    2.426312
H      2.493668    1.712791   -2.315698
H      0.910780    2.434631   -1.750441
