31

N      1.930469   -3.021212    0.482593
C      1.986927   -1.805966   -0.261192
C      2.276134   -1.856259   -1.630113
C      2.321718   -0.681238   -2.383935
C      2.080403    0.550763   -1.773444
C      1.793540    0.611435   -0.407476
C      1.745833   -0.563756    0.363772
C      1.361809   -0.481728    1.823819
C     -0.126716   -0.790862    2.041983
C     -1.011495    0.231835    1.379297
C     -1.323177    1.453339    2.015703
C     -2.102827    2.426612    1.352476
C     -2.566190    2.196017    0.044753
C     -2.230655    0.987980   -0.559259
O     -2.544074    0.546911   -1.830418
C     -1.957018   -0.749597   -2.007288
O     -1.301303   -1.034129   -0.764704
C     -1.489336    0.045658    0.078157
H      2.460222   -2.808108   -2.112398
H      2.541126   -0.726124   -3.442818
H      2.109484    1.459605   -2.360406
H      1.591309    1.573895    0.046244
H      1.594914    0.526934    2.231071
H      1.970782   -1.203280    2.409831
H     -0.363276   -1.808139    1.660959
H     -0.333922   -0.801778    3.134053
H     -0.959587    1.654926    3.015483
H     -2.337624    3.358696    1.849672
H     -3.156635    2.936475   -0.478454
H     -1.214751   -0.724333   -2.832672
H     -2.746085   -1.504572   -2.206300
