      -----------------------------------------------------------      
     |                   =====================                   |     
     |                           x T B                           |     
     |                   =====================                   |     
     |                         S. Grimme                         |     
     |          Mulliken Center for Theoretical Chemistry        |     
     |                    University of Bonn                     |     
      -----------------------------------------------------------      

   * xtb version 6.7.1 (edcfbbe) compiled by 'runner@sat12-gn217-0cbadaec-b866-44ae-a866-732403219ae3-6E01A8DFFD18.local' on 2026-06-10

   xtb is free software: you can redistribute it and/or modify it under
   the terms of the GNU Lesser General Public License as published by
   the Free Software Foundation, either version 3 of the License, or
   (at your option) any later version.
   
   xtb is distributed in the hope that it will be useful,
   but WITHOUT ANY WARRANTY; without even the implied warranty of
   MERCHANTABILITY or FITNESS FOR A PARTICULAR PURPOSE.  See the
   GNU Lesser General Public License for more details.
   
   Cite this work as:
   * C. Bannwarth, E. Caldeweyher, S. Ehlert, A. Hansen, P. Pracht,
     J. Seibert, S. Spicher, S. Grimme, WIREs Comput. Mol. Sci., 2020, 11,
     e01493. DOI: 10.1002/wcms.1493
   
   for GFN2-xTB:
   * C. Bannwarth, S. Ehlert and S. Grimme., J. Chem. Theory Comput., 2019,
     15, 1652-1671. DOI: 10.1021/acs.jctc.8b01176
   for GFN1-xTB:
   * S. Grimme, C. Bannwarth, P. Shushkov, J. Chem. Theory Comput., 2017,
     13, 1989-2009. DOI: 10.1021/acs.jctc.7b00118
   for GFN0-xTB:
   * P. Pracht, E. Caldeweyher, S. Ehlert, S. Grimme, ChemRxiv, 2019, preprint.
     DOI: 10.26434/chemrxiv.8326202.v1
   for GFN-FF:
   * S. Spicher and S. Grimme, Angew. Chem. Int. Ed., 2020, 59, 15665-15673.
     DOI: 10.1002/anie.202004239
   
   for ALPB and GBSA implicit solvation:
   * S. Ehlert, M. Stahn, S. Spicher, S. Grimme, J. Chem. Theory Comput.,
     2021, 17, 4250-4261. DOI: 10.1021/acs.jctc.1c00471
   
   for ddCOSMO and CPCM-X implicit solvation:
   * M. Stahn, S. Ehlert, S. Grimme, J. Phys. Chem. A,
     2023, XX, XXXX-XXXX. DOI: 10.1021/acs.jpca.3c04382
   
   for DFT-D4:
   * E. Caldeweyher, C. Bannwarth and S. Grimme, J. Chem. Phys., 2017,
     147, 034112. DOI: 10.1063/1.4993215
   * E. Caldeweyher, S. Ehlert, A. Hansen, H. Neugebauer, S. Spicher,
     C. Bannwarth and S. Grimme, J. Chem. Phys., 2019, 150, 154122.
     DOI: 10.1063/1.5090222
   * E. Caldeweyher, J.-M. Mewes, S. Ehlert and S. Grimme, Phys. Chem. Chem. Phys.
     2020, 22, 8499-8512. DOI: 10.1039/D0CP00502A
   
   for sTDA-xTB:
   * S. Grimme and C. Bannwarth, J. Chem. Phys., 2016, 145, 054103.
     DOI: 10.1063/1.4959605
   
   in the mass-spec context:
   * V. Asgeirsson, C. Bauer and S. Grimme, Chem. Sci., 2017, 8, 4879.
     DOI: 10.1039/c7sc00601b
   * J. Koopman and S. Grimme, ACS Omega 2019, 4, 12, 15120-15133.
     DOI: 10.1021/acsomega.9b02011
   
   for metadynamics refer to:
   * S. Grimme, J. Chem. Theory Comput., 2019, 155, 2847-2862
     DOI: 10.1021/acs.jctc.9b00143
   
   for SPH calculations refer to:
   * S. Spicher and S. Grimme, J. Chem. Theory Comput., 2021, 17, 1701-1714
     DOI: 10.1021/acs.jctc.0c01306
   
   for ONIOM refer to:
   * C. Plett, A. Katbashev, S. Ehlert, S. Grimme, M. Bursch,
     Phys. Chem. Chem. Phys., 2023, 25, 17860-17868. DOI: 10.1039/D3CP02178E
   
   for DIPRO refer to:
   * J. Kohn, N. Gildemeister, S. Grimme, D. Fazzi, A. Hansen,
     J. Chem. Phys., 2023, just accepted.
   
   for PTB refer to:
   * S. Grimme, M. Mueller, A. Hansen, J. Chem. Phys., 2023, 158, 124111.
     DOI: 10.1063/5.0137838
   
   with help from (in alphabetical order)
   P. Atkinson, C. Bannwarth, F. Bohle, G. Brandenburg, E. Caldeweyher
   M. Checinski, S. Dohm, S. Ehlert, S. Ehrlich, I. Gerasimov, C. Hölzer
   A. Katbashev, J. Kohn, J. Koopman, C. Lavigne, S. Lehtola, F. März, M. Müller,
   F. Musil, H. Neugebauer, J. Pisarek, C. Plett, P. Pracht, F. Pultar,
   J. Seibert, P. Shushkov, S. Spicher, M. Stahn, M. Steiner, T. Strunk,
   J. Stückrath, T. Rose, and J. Unsleber
   
 * started run on 2026/09/07 at 18:21:32.514     
   ID    Z sym.   atoms
    1    7 N      1, 2, 24, 25, 53, 55, 110, 112, 215
    2    6 C      3-5, 7, 9-12, 14, 16-20, 22, 23, 26-28, 30, 32-35, 37,
                  39-43, 45, 46, 49-52, 54, 57, 58, 61, 65, 67, 68, 70, 71,
                  73, 77, 81, 86-89, 91, 92, 106-109, 111, 114, 115, 118,
                  122, 124, 125, 127, 128, 130, 134, 138, 143-146, 148, 149,
                  171-174, 176, 178, 182-185, 187, 189, 193-196, 198, 200,
                  204-207, 209, 211, 216-229
    3    1 H      6, 8, 13, 15, 21, 29, 31, 36, 38, 44, 56, 59, 60, 62, 63,
                  69, 72, 74-76, 78-80, 90, 93-105, 113, 116, 117, 119, 120,
                  126, 129, 131-133, 135-137, 147, 150-166, 175, 177,
                  179-181, 186, 188, 190-192, 197, 199, 201-203, 208, 210,
                  212-214, 230-242
    4   26 Fe     47
    5   17 Cl     48
    6    8 O      64, 66, 82-85, 121, 123, 139-142, 167-170

           -------------------------------------------------
          |                Calculation Setup                |
           -------------------------------------------------

          program call               : /Users/haywoodau3/Documents/genaisubstrate/.chem-env/bin/xtb input.xyz --gfn 2 --alpb ether --opt --input xcontrol --chrg 0 --uhf 1
          coordinate file            : input.xyz
          omp threads                :                     1


           -------------------------------------------------
          |                 G F N 2 - x T B                 |
           -------------------------------------------------

        Reference                      10.1021/acs.jctc.8b01176
      * Hamiltonian:
        H0-scaling (s, p, d)           1.850000    2.230000    2.230000
        zeta-weighting                 0.500000
      * Dispersion:
        s8                             2.700000
        a1                             0.520000
        a2                             5.000000
        s9                             5.000000
      * Repulsion:
        kExp                           1.500000    1.000000
        rExp                           1.000000
      * Coulomb:
        alpha                          2.000000
        third order                    shell-resolved
        anisotropic                    true
        a3                             3.000000
        a5                             4.000000
        cn-shift                       1.200000
        cn-exp                         4.000000
        max-rad                        5.000000

      * Solvation model:               ALPB
        Solvent                        ether
        Parameter file                 internal GFN2-xTB/ALPB
        Dielectric constant                4.3300E+00
        Reference state                gsolv [1 M gas/solution]
        Free energy shift                  4.9534E-03 Eh       3.1083E+00 kcal/mol
        Temperature                        2.9815E+02 K
        Density                            7.1300E-01 kg/L
        Solvent mass                       7.4120E+01 g/mol
        Interaction kernel             P16
        Born radius scaling (c1)           1.5847E+00
        Born radii integrator          GBOBC
        Born offset                        0.0000E+00 a0       0.0000E+00 AA
        H-bond correction              true
        Ion screening                  false
        Surface tension                    1.0000E-05 Eh       1.5569E+01 dyn/cm
        Grid points                               230 per atom

          ...................................................
          :                      SETUP                      :
          :.................................................:
          :  # basis functions                 677          :
          :  # atomic orbitals                 675          :
          :  # shells                          385          :
          :  # electrons                       713          :
          :  max. iterations                   250          :
          :  Hamiltonian                  GFN2-xTB          :
          :  restarted?                      false          :
          :  GBSA solvation                   true          :
          :  PC potential                    false          :
          :  electronic temp.          300.0000000     K    :
          :  accuracy                    1.0000000          :
          :  -> integral cutoff          0.2500000E+02      :
          :  -> integral neglect         0.1000000E-07      :
          :  -> SCF convergence          0.1000000E-05 Eh   :
          :  -> wf. convergence          0.1000000E-03 e    :
          :  Broyden damping             0.4000000          :
          :  net charge                          0          :
          :  unpaired electrons                  1          :
          ...................................................

 iter      E             dE          RMSdq      gap      omega  full diag
   1   -398.6202355 -0.398620E+03  0.456E+00    0.15       0.0  T
   2   -398.2030930  0.417142E+00  0.323E+00    0.49       1.0  T
   3   -396.4412475  0.176185E+01  0.337E+00    0.24       1.0  T
   4   -398.0913418 -0.165009E+01  0.245E+00    0.04       1.0  T
   5   -399.0459319 -0.954590E+00  0.142E+00    1.01       1.0  T
   6   -399.3084189 -0.262487E+00  0.793E-01    0.31       1.0  T
   7   -399.3091679 -0.749031E-03  0.929E-01    0.10       1.0  T
   8   -399.5990126 -0.289845E+00  0.374E-01    0.07       1.0  T
   9   -399.5494168  0.495958E-01  0.421E-01    0.03       1.0  T
  10   -399.5938806 -0.444638E-01  0.337E-01    0.11       1.0  T
  11   -399.6169796 -0.230990E-01  0.197E-01    0.10       1.0  T
  12   -399.6165782  0.401345E-03  0.140E-01    0.07       1.0  T
  13   -399.6053145  0.112637E-01  0.193E-01    0.08       1.0  T
  14   -399.6214429 -0.161284E-01  0.655E-02    0.06       1.0  T
  15   -399.6227140 -0.127109E-02  0.320E-02    0.06       1.0  T
  16   -399.6229332 -0.219189E-03  0.222E-02    0.06       1.0  T
  17   -399.6231220 -0.188824E-03  0.718E-03    0.06       1.0  T
  18   -399.6231243 -0.234013E-05  0.592E-03    0.06       1.1  T
  19   -399.6231089  0.153932E-04  0.798E-03    0.06       1.0  T
  20   -399.6231321 -0.231132E-04  0.322E-03    0.06       2.0  T
  21   -399.6231331 -0.106312E-05  0.232E-03    0.06       2.8  T
  22   -399.6231353 -0.222176E-05  0.771E-04    0.06       8.3  T
  23   -399.6231354 -0.803590E-07  0.311E-04    0.06      20.6  T
  24   -399.6231351  0.327346E-06  0.903E-04    0.06       7.1  T

   *** convergence criteria satisfied after 24 iterations ***

         #    Occupation            Energy/Eh            Energy/eV
      -------------------------------------------------------------
         1        2.0000           -0.9938984             -27.0454
       ...           ...                  ...                  ...
       351        2.0000           -0.3595575              -9.7841
       352        2.0000           -0.3570993              -9.7172
       353        2.0000           -0.3519925              -9.5782
       354        2.0000           -0.3468282              -9.4377
       355        2.0000           -0.3402091              -9.2576
       356        1.7862           -0.3081717              -8.3858
       357        0.9436           -0.3053809              -8.3098 (HOMO)
       358        0.2702           -0.3032013              -8.2505 (LUMO)
       359        0.0000           -0.2895189              -7.8782
       360                         -0.2875377              -7.8243
       361                         -0.2864789              -7.7955
       362                         -0.2575589              -7.0085
       ...                                ...                  ...
       675                          1.4620033              39.7831
      -------------------------------------------------------------
                  HL-Gap            0.0021796 Eh            0.0593 eV
             Fermi-level           -0.3055462 Eh           -8.3143 eV

 SCC (total)                   0 d,  0 h,  0 min,  2.732 sec
 SCC setup                      ...        0 min,  0.008 sec (  0.292%)
 Dispersion                     ...        0 min,  0.006 sec (  0.234%)
 classical contributions        ...        0 min,  0.001 sec (  0.050%)
 integral evaluation            ...        0 min,  0.057 sec (  2.087%)
 iterations                     ...        0 min,  2.119 sec ( 77.569%)
 molecular gradient             ...        0 min,  0.487 sec ( 17.827%)
 printout                       ...        0 min,  0.053 sec (  1.940%)

         :::::::::::::::::::::::::::::::::::::::::::::::::::::
         ::                     SUMMARY                     ::
         :::::::::::::::::::::::::::::::::::::::::::::::::::::
         :: total energy            -394.426979207443 Eh    ::
         :: total w/o Gsasa/hb      -394.315077166647 Eh    ::
         :: gradient norm              0.412354803460 Eh/a0 ::
         :: HOMO-LUMO gap              0.059309437966 eV    ::
         ::.................................................::
         :: SCC energy              -399.600462330961 Eh    ::
         :: -> isotropic ES            0.521511639135 Eh    ::
         :: -> anisotropic ES          0.010776625726 Eh    ::
         :: -> anisotropic XC          0.171739419421 Eh    ::
         :: -> dispersion             -0.361542263667 Eh    ::
         :: -> Gsolv                  -0.176976372543 Eh    ::
         ::    -> Gelec               -0.065074331747 Eh    ::
         ::    -> Gsasa               -0.110931665005 Eh    ::
         ::    -> Ghb                 -0.005923813368 Eh    ::
         ::    -> Gshift               0.004953437577 Eh    ::
         :: repulsion energy           5.173483123518 Eh    ::
         :: add. restraining           0.000000000000 Eh    ::
         :: total charge              -0.000000000193 e     ::
         :::::::::::::::::::::::::::::::::::::::::::::::::::::

      ----------------------------------------------------------- 
     |                   =====================                   |
     |                        A N C O P T                        |
     |                   =====================                   |
     |               Approximate Normal Coordinate               |
     |                Rational Function Optimizer                |
      ----------------------------------------------------------- 
      ----------------------------------------------------------- 
     |                   =====================                   |
     |                        A N C O P T                        |
     |                   =====================                   |
     |               Approximate Normal Coordinate               |
     |                Rational Function Optimizer                |
      ----------------------------------------------------------- 

          ...................................................
          :                      SETUP                      :
          :.................................................:
          :   optimization level            normal          :
          :   max. optcycles                   726          :
          :   ANC micro-cycles                  20          :
          :   degrees of freedom                81          :
          :.................................................:
          :   RF solver                   davidson          :
          :   write xtbopt.log                true          :
          :   linear?                        false          :
          :   energy convergence         0.5000000E-05 Eh   :
          :   grad. convergence          0.1000000E-02 Eh/α :
          :   maxmium RF displ.          1.0000000          :
          :   Hlow (freq-cutoff)         0.1000000E-01      :
          :   Hmax (freq-cutoff)         5.0000000          :
          :   S6 in model hess.         20.0000000          :
          ...................................................

generating ANC from exact Hessian ...
Using Lindh-Hessian (1995)
 Shifting diagonal of input Hessian by    1.0284287348503406E-002
 Lowest  eigenvalues of input Hessian
    0.010000    0.000000    0.010268    0.000000    0.010273    0.000000
    0.000000    0.000000    0.000000    0.010309    0.010315    0.010338
    0.010348    0.010378    0.010381    0.010391    0.010413    0.010433
 Highest eigenvalues
    2.241454    2.243166    2.267303    2.271282    2.271579    2.706331


........................................................................
.............................. CYCLE    1 ..............................
........................................................................

 iter      E             dE          RMSdq      gap      omega  full diag
   1   -399.6231353 -0.399623E+03  0.444E-04    0.06       0.0  T
   2   -399.6231110  0.243505E-04  0.728E-03    0.06       1.0  T
   3   -399.6231354 -0.243702E-04  0.381E-04    0.06      16.9  T
   4   -399.6231354 -0.395346E-07  0.227E-04    0.06      28.3  T
   5   -399.6231354 -0.189061E-07  0.796E-05    0.06      80.7  T
     SCC iter.                  ...        0 min,  0.432 sec
     gradient                   ...        0 min,  0.488 sec
 * total energy  :  -394.4269795 Eh     change       -0.3362588E-06 Eh
   gradient norm :     0.1271443 Eh/α   predicted     0.0000000E+00 (-100.00%)
   displ. norm   :     0.0680201 α      lambda       -0.8555193E-02
   maximum displ.:     0.0352650 α      in ANC's #62, #18, #21, ...

........................................................................
.............................. CYCLE    2 ..............................
........................................................................

 iter      E             dE          RMSdq      gap      omega  full diag
   1   -399.6262444 -0.399626E+03  0.120E-01    0.05       0.0  T
   2   -399.5447541  0.814904E-01  0.490E-01    0.10       1.0  T
   3   -399.6278870 -0.831329E-01  0.860E-02    0.05       1.0  T
   4   -399.6243789  0.350811E-02  0.113E-01    0.07       1.0  T
   5   -399.6286993 -0.432045E-02  0.565E-02    0.05       1.0  T
   6   -399.6288094 -0.110106E-03  0.520E-02    0.06       1.0  T
   7   -399.6300984 -0.128895E-02  0.757E-03    0.06       1.0  T
   8   -399.6300406  0.577677E-04  0.122E-02    0.05       1.0  T
   9   -399.6301110 -0.704193E-04  0.135E-03    0.06       4.8  T
  10   -399.6301112 -0.192528E-06  0.110E-03    0.06       5.8  T
  11   -399.6301114 -0.171180E-06  0.747E-04    0.06       8.6  T
  12   -399.6301116 -0.195332E-06  0.348E-04    0.06      18.5  T
     SCC iter.                  ...        0 min,  1.049 sec
     gradient                   ...        0 min,  0.494 sec
 * total energy  :  -394.4356123 Eh     change       -0.8632782E-02 Eh
   gradient norm :     0.0816481 Eh/α   predicted    -0.4327667E-02 ( -49.87%)
   displ. norm   :     0.1242740 α      lambda       -0.1011515E-01
   maximum displ.:     0.0693866 α      in ANC's #62, #21, #20, ...

........................................................................
.............................. CYCLE    3 ..............................
........................................................................

 iter      E             dE          RMSdq      gap      omega  full diag
   1   -399.6266980 -0.399627E+03  0.246E-01    0.04       0.0  T
   2   -399.3068286  0.319869E+00  0.992E-01    0.07       1.0  T
   3   -399.6385117 -0.331683E+00  0.123E-01    0.04       1.0  T
   4   -399.6254387  0.130730E-01  0.201E-01    0.08       1.0  T
   5   -399.6410775 -0.156388E-01  0.595E-02    0.05       1.0  T
   6   -399.6403380  0.739433E-03  0.672E-02    0.06       1.0  T
   7   -399.6420292 -0.169113E-02  0.182E-02    0.05       1.0  T
   8   -399.6420537 -0.245355E-04  0.126E-02    0.06       1.0  T
   9   -399.6421095 -0.558473E-04  0.356E-03    0.05       1.8  T
  10   -399.6421102 -0.679794E-06  0.232E-03    0.05       2.8  T
  11   -399.6421109 -0.677526E-06  0.140E-03    0.05       4.6  T
  12   -399.6421112 -0.295112E-06  0.834E-04    0.05       7.7  T
  13   -399.6421112 -0.355209E-07  0.625E-04    0.05      10.3  T
     SCC iter.                  ...        0 min,  1.125 sec
     gradient                   ...        0 min,  0.500 sec
 * total energy  :  -394.4420100 Eh     change       -0.6397631E-02 Eh
   gradient norm :     0.0265505 Eh/α   predicted    -0.5135711E-02 ( -19.72%)
   displ. norm   :     0.0131893 α      lambda       -0.3381632E-03
   maximum displ.:     0.0048052 α      in ANC's #71, #55, #18, ...

........................................................................
.............................. CYCLE    4 ..............................
........................................................................

 iter      E             dE          RMSdq      gap      omega  full diag
   1   -399.6411136 -0.399641E+03  0.448E-02    0.05       0.0  T
   2   -399.5904147  0.506989E-01  0.343E-01    0.10       1.0  T
   3   -399.6417866 -0.513719E-01  0.232E-02    0.05       1.0  T
   4   -399.6419145 -0.127973E-03  0.100E-02    0.05       1.0  T
   5   -399.6418752  0.393135E-04  0.129E-02    0.05       1.0  T
   6   -399.6419440 -0.687573E-04  0.429E-03    0.05       1.5  T
   7   -399.6419497 -0.572926E-05  0.217E-03    0.05       3.0  T
   8   -399.6419439  0.577352E-05  0.373E-03    0.05       1.7  T
   9   -399.6419507 -0.680683E-05  0.313E-04    0.05      20.5  T
  10   -399.6419507 -0.617320E-08  0.223E-04    0.05      28.9  T
  11   -399.6419507 -0.272632E-08  0.136E-04    0.05      47.4  T
     SCC iter.                  ...        0 min,  0.937 sec
     gradient                   ...        0 min,  0.517 sec
 * total energy  :  -394.4418067 Eh     change        0.2032818E-03 Eh
   gradient norm :     0.0209867 Eh/α   predicted    -0.1693062E-03 (-183.29%)
   displ. norm   :     0.0611333 α      lambda       -0.1220868E-02
   maximum displ.:     0.0263161 α      in ANC's #55, #14, #1, ...

........................................................................
.............................. CYCLE    5 ..............................
........................................................................

 iter      E             dE          RMSdq      gap      omega  full diag
   1   -399.6255752 -0.399626E+03  0.198E-01    0.04       0.0  T
   2   -399.2215531  0.404022E+00  0.996E-01    0.20       1.0  T
   3   -399.6172170 -0.395664E+00  0.244E-01    0.09       1.0  T
   4   -399.6405709 -0.233539E-01  0.610E-02    0.05       1.0  T
   5   -399.6385876  0.198325E-02  0.849E-02    0.06       1.0  T
   6   -399.6414562 -0.286861E-02  0.275E-02    0.05       1.0  T
   7   -399.6415591 -0.102854E-03  0.105E-02    0.05       1.0  T
   8   -399.6414704  0.887136E-04  0.155E-02    0.05       1.0  T
   9   -399.6415612 -0.908552E-04  0.465E-03    0.05       1.4  T
  10   -399.6415647 -0.345357E-05  0.283E-03    0.05       2.3  T
  11   -399.6415671 -0.240466E-05  0.164E-03    0.05       3.9  T
  12   -399.6415681 -0.103034E-05  0.474E-04    0.05      13.6  T
  13   -399.6415681  0.858159E-08  0.432E-04    0.05      14.9  T
  14   -399.6415682 -0.497856E-07  0.219E-04    0.05      29.4  T
     SCC iter.                  ...        0 min,  1.226 sec
     gradient                   ...        0 min,  0.520 sec
 * total energy  :  -394.4390960 Eh     change        0.2710717E-02 Eh
   gradient norm :     0.0240586 Eh/α   predicted    -0.6130231E-03 (-122.61%)
   displ. norm   :     0.0456629 α      lambda       -0.5556191E-03
   maximum displ.:     0.0225199 α      in ANC's #55, #14, #1, ...

........................................................................
.............................. CYCLE    6 ..............................
........................................................................

 iter      E             dE          RMSdq      gap      omega  full diag
   1   -399.6344151 -0.399634E+03  0.128E-01    0.04       0.0  T
   2   -399.5002561  0.134159E+00  0.581E-01    0.10       1.0  T
   3   -399.6371912 -0.136935E+00  0.915E-02    0.06       1.0  T
   4   -399.6374540 -0.262784E-03  0.837E-02    0.04       1.0  T
   5   -399.6388223 -0.136832E-02  0.673E-02    0.06       1.0  T
   6   -399.6402454 -0.142309E-02  0.350E-02    0.05       1.0  T
   7   -399.6407595 -0.514183E-03  0.870E-03    0.05       1.0  T
   8   -399.6407360  0.235308E-04  0.106E-02    0.05       1.0  T
   9   -399.6407719 -0.358902E-04  0.526E-03    0.05       1.2  T
  10   -399.6407840 -0.120725E-04  0.657E-04    0.05       9.8  T
  11   -399.6407840 -0.158590E-07  0.526E-04    0.05      12.2  T
  12   -399.6407841 -0.606594E-07  0.253E-04    0.05      25.4  T
     SCC iter.                  ...        0 min,  1.057 sec
     gradient                   ...        0 min,  0.533 sec
 * total energy  :  -394.4353174 Eh     change        0.3778528E-02 Eh
   gradient norm :     0.0312060 Eh/α   predicted    -0.2783987E-03 (-107.37%)
   displ. norm   :     0.2284882 α      lambda       -0.2908015E-02
   maximum displ.:     0.1176150 α      in ANC's #14, #55, #1, ...

........................................................................
.............................. CYCLE    7 ..............................
........................................................................

 iter      E             dE          RMSdq      gap      omega  full diag
   1   -399.6011470 -0.399601E+03  0.326E-01    0.04       0.0  T
   2   -399.1436314  0.457516E+00  0.108E+00    0.29       1.0  T
   3   -399.5241670 -0.380536E+00  0.475E-01    0.10       1.0  T
   4   -399.5611525 -0.369855E-01  0.450E-01    0.12       1.0  T
   5   -399.5932611 -0.321087E-01  0.324E-01    0.10       1.0  T
   6   -399.6237431 -0.304820E-01  0.160E-01    0.07       1.0  T
   7   -399.6307076 -0.696450E-02  0.562E-02    0.05       1.0  T
   8   -399.6311269 -0.419302E-03  0.195E-02    0.05       1.0  T
   9   -399.6309333  0.193630E-03  0.239E-02    0.05       1.0  T
  10   -399.6311495 -0.216216E-03  0.745E-03    0.05       1.0  T
  11   -399.6311665 -0.170053E-04  0.368E-03    0.05       1.7  T
  12   -399.6311565  0.100237E-04  0.562E-03    0.05       1.1  T
  13   -399.6311703 -0.138272E-04  0.140E-03    0.05       4.6  T
  14   -399.6311705 -0.219899E-06  0.105E-03    0.05       6.1  T
  15   -399.6311708 -0.229089E-06  0.586E-04    0.05      11.0  T
  16   -399.6311708 -0.702087E-07  0.413E-04    0.05      15.6  T
     SCC iter.                  ...        0 min,  1.432 sec
     gradient                   ...        0 min,  0.537 sec
 * total energy  :  -394.3885820 Eh     change        0.4673544E-01 Eh
   gradient norm :     0.0534949 Eh/α   predicted    -0.1530338E-02 (-103.27%)
   displ. norm   :     0.3926596 α      lambda       -0.4551307E-02
   maximum displ.:     0.2067396 α      in ANC's #14, #55, #1, ...

........................................................................
.............................. CYCLE    8 ..............................
........................................................................

 iter      E             dE          RMSdq      gap      omega  full diag
   1   -399.5510395 -0.399551E+03  0.403E-01    0.06       0.0  T
   2   -399.3003694  0.250670E+00  0.886E-01    0.64       1.0  T
   3   -399.5571164 -0.256747E+00  0.363E-01    0.11       1.0  T
   4   -399.5743780 -0.172616E-01  0.239E-01    0.05       1.0  T
   5   -399.5452364  0.291416E-01  0.361E-01    0.08       1.0  T
   6   -399.5884551 -0.432187E-01  0.130E-01    0.07       1.0  T
   7   -399.5731830  0.152721E-01  0.213E-01    0.05       1.0  T
   8   -399.5851844 -0.120014E-01  0.140E-01    0.05       1.0  T
   9   -399.5932989 -0.811447E-02  0.204E-02    0.05       1.0  T
  10   -399.5934288 -0.129957E-03  0.697E-03    0.04       1.0  T
  11   -399.5934400 -0.112159E-04  0.324E-03    0.04       2.0  T
  12   -399.5934406 -0.586163E-06  0.246E-03    0.04       2.6  T
  13   -399.5934388  0.178979E-05  0.304E-03    0.04       2.1  T
  14   -399.5934425 -0.367899E-05  0.614E-04    0.04      10.5  T
  15   -399.5934425 -0.640972E-08  0.515E-04    0.04      12.5  T
  16   -399.5934425  0.856687E-08  0.421E-04    0.04      15.3  T
     SCC iter.                  ...        0 min,  1.439 sec
     gradient                   ...        0 min,  0.545 sec
 * total energy  :  -394.1400567 Eh     change        0.2485253E+00 Eh
   gradient norm :     0.0698987 Eh/α   predicted    -0.2626689E-02 (-101.06%)
   displ. norm   :     0.3124360 α      lambda       -0.3842527E-02
   maximum displ.:     0.1684313 α      in ANC's #14, #55, #1, ...

........................................................................
.............................. CYCLE    9 ..............................
........................................................................

 iter      E             dE          RMSdq      gap      omega  full diag
   1   -399.4946921 -0.399495E+03  0.387E-01    0.07       0.0  T
   2   -399.1741720  0.320520E+00  0.104E+00    0.75       1.0  T
   3   -399.4434927 -0.269321E+00  0.481E-01    0.10       1.0  T
   4   -399.4714291 -0.279364E-01  0.419E-01    0.09       1.0  T
   5   -399.5391433 -0.677142E-01  0.147E-01    0.05       1.0  T
   6   -399.5140825  0.250608E-01  0.262E-01    0.05       1.0  T
   7   -399.5407839 -0.267014E-01  0.531E-02    0.05       1.0  T
   8   -399.5413678 -0.583934E-03  0.238E-02    0.04       1.0  T
   9   -399.5404749  0.892970E-03  0.458E-02    0.05       1.0  T
  10   -399.5414005 -0.925671E-03  0.129E-02    0.04       1.0  T
  11   -399.5414162 -0.157051E-04  0.114E-02    0.04       1.0  T
  12   -399.5414662 -0.499812E-04  0.330E-03    0.04       1.9  T
  13   -399.5414677 -0.149871E-05  0.247E-03    0.04       2.6  T
  14   -399.5414696 -0.189530E-05  0.144E-03    0.04       4.5  T
  15   -399.5414699 -0.328977E-06  0.109E-03    0.04       5.9  T
  16   -399.5414703 -0.381982E-06  0.537E-04    0.04      12.0  T
  17   -399.5414704 -0.872977E-07  0.269E-04    0.04      23.9  T
     SCC iter.                  ...        0 min,  1.545 sec
     gradient                   ...        0 min,  0.550 sec
 * total energy  :  -393.6288832 Eh     change        0.5111735E+00 Eh
   gradient norm :     0.0648784 Eh/α   predicted    -0.2108873E-02 (-100.41%)
   displ. norm   :     0.2345948 α      lambda       -0.4682375E-02
   maximum displ.:     0.1283007 α      in ANC's #14, #55, #1, ...

........................................................................
.............................. CYCLE   10 ..............................
........................................................................

 iter      E             dE          RMSdq      gap      omega  full diag
   1   -399.1194105 -0.399119E+03  0.101E+00    0.11       0.0  T
   2   -397.8706709  0.124874E+01  0.194E+00    0.62       1.0  T
   3   -399.2591061 -0.138844E+01  0.843E-01    0.19       1.0  T
   4   -399.2403989  0.187072E-01  0.785E-01    0.44       1.0  T
   5   -399.4709445 -0.230546E+00  0.280E-01    0.04       1.0  T
   6   -399.4747845 -0.384009E-02  0.234E-01    0.04       1.0  T
   7   -399.4762273 -0.144276E-02  0.238E-01    0.07       1.0  T
   8   -399.4887034 -0.124761E-01  0.118E-01    0.04       1.0  T
   9   -399.4843627  0.434079E-02  0.148E-01    0.06       1.0  T
  10   -399.4890227 -0.466006E-02  0.117E-01    0.04       1.0  T
  11   -399.4929435 -0.392081E-02  0.684E-02    0.04       1.0  T
  12   -399.4948740 -0.193045E-02  0.298E-02    0.04       1.0  T
  13   -399.4950978 -0.223822E-03  0.139E-02    0.05       1.0  T
  14   -399.4951743 -0.764541E-04  0.539E-03    0.05       1.2  T
  15   -399.4951853 -0.110615E-04  0.161E-03    0.04       4.0  T
  16   -399.4951860 -0.686539E-06  0.111E-03    0.05       5.8  T
  17   -399.4951859  0.113112E-06  0.109E-03    0.05       5.9  T
  18   -399.4951862 -0.271754E-06  0.743E-04    0.05       8.6  T
  19   -399.4951864 -0.215559E-06  0.215E-04    0.05      29.9  T
     SCC iter.                  ...        0 min,  1.743 sec
     gradient                   ...        0 min,  0.546 sec
 * total energy  :  -392.8944688 Eh     change        0.7344144E+00 Eh
   gradient norm :     0.0258787 Eh/α   predicted    -0.2470081E-02 (-100.34%)
   displ. norm   :     0.0466318 α      lambda       -0.6107490E-03
   maximum displ.:     0.0225266 α      in ANC's #14, #55, #46, ...

........................................................................
.............................. CYCLE   11 ..............................
........................................................................

 iter      E             dE          RMSdq      gap      omega  full diag
   1   -399.4761134 -0.399476E+03  0.176E-01    0.06       0.0  T
   2   -399.2053854  0.270728E+00  0.831E-01    0.43       1.0  T
   3   -399.4478607 -0.242475E+00  0.332E-01    0.07       1.0  T
   4   -399.4469289  0.931782E-03  0.289E-01    0.05       1.0  T
   5   -399.4836678 -0.367389E-01  0.987E-02    0.06       1.0  T
   6   -399.4875218 -0.385401E-02  0.327E-02    0.05       1.0  T
   7   -399.4876490 -0.127199E-03  0.207E-02    0.05       1.0  T
   8   -399.4876635 -0.145432E-04  0.139E-02    0.04       1.0  T
   9   -399.4877115 -0.479687E-04  0.505E-03    0.05       1.3  T
  10   -399.4876866  0.249163E-04  0.829E-03    0.05       1.0  T
  11   -399.4877173 -0.307047E-04  0.253E-03    0.05       2.5  T
  12   -399.4877195 -0.221587E-05  0.111E-03    0.05       5.8  T
  13   -399.4877191  0.370298E-06  0.125E-03    0.05       5.2  T
  14   -399.4877198 -0.666392E-06  0.491E-04    0.05      13.1  T
  15   -399.4877197  0.686667E-07  0.615E-04    0.05      10.5  T
     SCC iter.                  ...        0 min,  1.410 sec
     gradient                   ...        0 min,  0.542 sec
 * total energy  :  -392.7297331 Eh     change        0.1647357E+00 Eh
   gradient norm :     0.0154393 Eh/α   predicted    -0.3061374E-03 (-100.19%)
   displ. norm   :     0.0249047 α      lambda       -0.1543845E-03
   maximum displ.:     0.0128316 α      in ANC's #55, #14, #71, ...

........................................................................
.............................. CYCLE   12 ..............................
........................................................................

 iter      E             dE          RMSdq      gap      omega  full diag
   1   -399.4814949 -0.399481E+03  0.807E-02    0.05       0.0  T
   2   -399.2908402  0.190655E+00  0.663E-01    0.19       1.0  T
   3   -399.4706805 -0.179840E+00  0.189E-01    0.05       1.0  T
   4   -399.4820973 -0.114168E-01  0.643E-02    0.04       1.0  T
   5   -399.4829090 -0.811714E-03  0.469E-02    0.05       1.0  T
   6   -399.4837990 -0.889921E-03  0.150E-02    0.05       1.0  T
   7   -399.4838312 -0.322307E-04  0.104E-02    0.05       1.0  T
   8   -399.4838671 -0.359406E-04  0.559E-03    0.05       1.1  T
   9   -399.4838712 -0.411621E-05  0.280E-03    0.05       2.3  T
  10   -399.4838724 -0.114469E-05  0.181E-03    0.05       3.6  T
  11   -399.4838731 -0.683771E-06  0.102E-03    0.05       6.3  T
  12   -399.4838735 -0.421256E-06  0.311E-04    0.05      20.7  T
  13   -399.4838735 -0.330414E-07  0.125E-04    0.05      51.5  T
     SCC iter.                  ...        0 min,  1.239 sec
     gradient                   ...        0 min,  0.553 sec
 * total energy  :  -392.6484774 Eh     change        0.8125564E-01 Eh
   gradient norm :     0.0142893 Eh/α   predicted    -0.7726363E-04 (-100.10%)
   displ. norm   :     0.0907373 α      lambda       -0.4930515E-03
   maximum displ.:     0.0500998 α      in ANC's #55, #14, #71, ...

........................................................................
.............................. CYCLE   13 ..............................
........................................................................

 iter      E             dE          RMSdq      gap      omega  full diag
   1   -399.4238712 -0.399424E+03  0.351E-01    0.06       0.0  T
   2   -399.0310899  0.392781E+00  0.109E+00    0.89       1.0  T
   3   -399.4281855 -0.397096E+00  0.370E-01    0.08       1.0  T
   4   -399.3400558  0.881298E-01  0.527E-01    0.11       1.0  T
   5   -399.4515580 -0.111502E+00  0.234E-01    0.06       1.0  T
   6   -399.4687921 -0.172341E-01  0.862E-02    0.06       1.0  T
   7   -399.4685247  0.267423E-03  0.820E-02    0.06       1.0  T
   8   -399.4687604 -0.235700E-03  0.656E-02    0.04       1.0  T
   9   -399.4701355 -0.137513E-02  0.384E-02    0.05       1.0  T
  10   -399.4694375  0.698002E-03  0.519E-02    0.04       1.0  T
  11   -399.4705386 -0.110108E-02  0.181E-02    0.05       1.0  T
  12   -399.4706489 -0.110269E-03  0.950E-03    0.05       1.0  T
  13   -399.4706893 -0.404654E-04  0.150E-03    0.05       4.3  T
  14   -399.4706895 -0.148641E-06  0.108E-03    0.05       5.9  T
  15   -399.4706899 -0.395261E-06  0.307E-04    0.05      20.9  T
  16   -399.4706898  0.524762E-07  0.439E-04    0.05      14.6  T
     SCC iter.                  ...        0 min,  1.518 sec
     gradient                   ...        0 min,  0.561 sec
 * total energy  :  -392.3526166 Eh     change        0.2958609E+00 Eh
   gradient norm :     0.0192093 Eh/α   predicted    -0.2486259E-03 (-100.08%)
   displ. norm   :     0.1167178 α      lambda       -0.4567878E-03
   maximum displ.:     0.0674275 α      in ANC's #55, #14, #1, ...

........................................................................
.............................. CYCLE   14 ..............................
........................................................................

 iter      E             dE          RMSdq      gap      omega  full diag
   1   -399.3977487 -0.399398E+03  0.394E-01    0.06       0.0  T
   2   -398.9080557  0.489693E+00  0.121E+00    0.96       1.0  T
   3   -399.4023630 -0.494307E+00  0.383E-01    0.04       1.0  T
   4   -399.4418628 -0.394997E-01  0.186E-01    0.04       1.0  T
   5   -399.4525808 -0.107180E-01  0.100E-01    0.05       1.0  T
   6   -399.4355053  0.170755E-01  0.248E-01    0.05       1.0  T
   7   -399.4212638  0.142415E-01  0.271E-01    0.07       1.0  T
   8   -399.4452236 -0.239597E-01  0.151E-01    0.04       1.0  T
   9   -399.4544440 -0.922041E-02  0.594E-02    0.05       1.0  T
  10   -399.4538157  0.628259E-03  0.646E-02    0.04       1.0  T
  11   -399.4554996 -0.168387E-02  0.225E-02    0.05       1.0  T
  12   -399.4557302 -0.230649E-03  0.605E-03    0.05       1.1  T
  13   -399.4557415 -0.112694E-04  0.222E-03    0.05       2.9  T
  14   -399.4557430 -0.151789E-05  0.897E-04    0.05       7.2  T
  15   -399.4557429  0.137683E-06  0.953E-04    0.05       6.7  T
  16   -399.4557432 -0.322152E-06  0.326E-04    0.05      19.7  T
     SCC iter.                  ...        0 min,  1.524 sec
     gradient                   ...        0 min,  0.565 sec
 * total energy  :  -391.9508163 Eh     change        0.4018003E+00 Eh
   gradient norm :     0.0248108 Eh/α   predicted    -0.2315383E-03 (-100.06%)
   displ. norm   :     0.2344373 α      lambda       -0.9421923E-03
   maximum displ.:     0.1389062 α      in ANC's #55, #14, #1, ...

........................................................................
.............................. CYCLE   15 ..............................
........................................................................

 iter      E             dE          RMSdq      gap      omega  full diag
   1   -399.3359508 -0.399336E+03  0.533E-01    0.07       0.0  T
   2   -398.2312518  0.110470E+01  0.172E+00    0.22       1.0  T
   3   -399.2862318 -0.105498E+01  0.602E-01    0.06       1.0  T
   4   -399.3918783 -0.105646E+00  0.382E-01    0.09       1.0  T
   5   -399.4041996 -0.123213E-01  0.283E-01    0.04       1.0  T
   6   -399.3534138  0.507858E-01  0.448E-01    0.04       1.0  T
   7   -399.3697261 -0.163123E-01  0.398E-01    0.07       1.0  T
   8   -399.4308893 -0.611633E-01  0.150E-01    0.07       1.0  T
   9   -399.4298214  0.106796E-02  0.136E-01    0.04       1.0  T
  10   -399.4375219 -0.770056E-02  0.460E-02    0.06       1.0  T
  11   -399.4380861 -0.564183E-03  0.160E-02    0.05       1.0  T
  12   -399.4381747 -0.886068E-04  0.780E-03    0.05       1.0  T
  13   -399.4381884 -0.137092E-04  0.363E-03    0.05       1.8  T
  14   -399.4381889 -0.447925E-06  0.315E-03    0.05       2.0  T
  15   -399.4381883  0.617573E-06  0.311E-03    0.05       2.1  T
  16   -399.4381926 -0.434585E-05  0.486E-04    0.05      13.2  T
  17   -399.4381927 -0.512822E-07  0.330E-04    0.05      19.5  T
  18   -399.4381927 -0.340436E-07  0.131E-04    0.05      49.0  T
     SCC iter.                  ...        0 min,  1.739 sec
     gradient                   ...        0 min,  0.566 sec
 * total energy  :  -391.2101932 Eh     change        0.7406230E+00 Eh
   gradient norm :     0.0264220 Eh/α   predicted    -0.4970408E-03 (-100.07%)
   displ. norm   :     0.1316119 α      lambda       -0.6466333E-03
   maximum displ.:     0.0801821 α      in ANC's #55, #14, #71, ...

........................................................................
.............................. CYCLE   16 ..............................
........................................................................

 iter      E             dE          RMSdq      gap      omega  full diag
   1   -399.4315529 -0.399432E+03  0.168E-01    0.06       0.0  T
   2   -399.1131948  0.318358E+00  0.913E-01    0.57       1.0  T
   3   -399.4201571 -0.306962E+00  0.221E-01    0.04       1.0  T
   4   -399.4331242 -0.129671E-01  0.145E-01    0.07       1.0  T
   5   -399.4164975  0.166267E-01  0.253E-01    0.07       1.0  T
   6   -399.4376988 -0.212013E-01  0.939E-02    0.05       1.0  T
   7   -399.4395496 -0.185079E-02  0.551E-02    0.05       1.0  T
   8   -399.4406237 -0.107409E-02  0.171E-02    0.05       1.0  T
   9   -399.4407481 -0.124460E-03  0.524E-03    0.05       1.2  T
  10   -399.4407471  0.101403E-05  0.503E-03    0.05       1.3  T
  11   -399.4407519 -0.476674E-05  0.308E-03    0.05       2.1  T
  12   -399.4407525 -0.658584E-06  0.219E-03    0.05       2.9  T
  13   -399.4407538 -0.126588E-05  0.101E-03    0.05       6.4  T
  14   -399.4407542 -0.349084E-06  0.474E-04    0.05      13.6  T
  15   -399.4407542 -0.343147E-08  0.434E-04    0.05      14.8  T
     SCC iter.                  ...        0 min,  1.448 sec
     gradient                   ...        0 min,  0.568 sec
 * total energy  :  -391.0444365 Eh     change        0.1657567E+00 Eh
   gradient norm :     0.0186126 Eh/α   predicted    -0.3289671E-03 (-100.20%)
   displ. norm   :     0.0414215 α      lambda       -0.3794826E-03
   maximum displ.:     0.0275386 α      in ANC's #81, #14, #1, ...

........................................................................
.............................. CYCLE   17 ..............................
........................................................................

 iter      E             dE          RMSdq      gap      omega  full diag
   1   -399.4507378 -0.399451E+03  0.713E-02    0.05       0.0  T
   2   -399.3842162  0.665217E-01  0.416E-01    0.03       1.0  T
   3   -399.4156572 -0.314411E-01  0.280E-01    0.07       1.0  T
   4   -399.4482452 -0.325879E-01  0.102E-01    0.05       1.0  T
   5   -399.4500081 -0.176292E-02  0.680E-02    0.05       1.0  T
   6   -399.4511056 -0.109751E-02  0.401E-02    0.05       1.0  T
   7   -399.4516418 -0.536191E-03  0.171E-02    0.05       1.0  T
   8   -399.4516562 -0.143801E-04  0.132E-02    0.05       1.0  T
   9   -399.4517090 -0.527981E-04  0.618E-03    0.05       1.0  T
  10   -399.4517193 -0.102902E-04  0.231E-03    0.05       2.8  T
  11   -399.4517206 -0.133421E-05  0.726E-04    0.05       8.9  T
  12   -399.4517207 -0.113332E-06  0.338E-04    0.05      19.0  T
  13   -399.4517207 -0.887354E-08  0.273E-04    0.05      23.5  T
     SCC iter.                  ...        0 min,  1.257 sec
     gradient                   ...        0 min,  0.570 sec
 * total energy  :  -391.2908167 Eh     change       -0.2463802E+00 Eh
   gradient norm :     0.0105272 Eh/α   predicted    -0.1901844E-03 ( -99.92%)
   displ. norm   :     0.0340680 α      lambda       -0.1372817E-03
   maximum displ.:     0.0193672 α      in ANC's #55, #81, #41, ...

........................................................................
.............................. CYCLE   18 ..............................
........................................................................

 iter      E             dE          RMSdq      gap      omega  full diag
   1   -399.4567283 -0.399457E+03  0.559E-02    0.06       0.0  T
   2   -399.3057303  0.150998E+00  0.599E-01    0.11       1.0  T
   3   -399.4492629 -0.143533E+00  0.146E-01    0.06       1.0  T
   4   -399.4562016 -0.693876E-02  0.656E-02    0.05       1.0  T
   5   -399.4571953 -0.993674E-03  0.367E-02    0.05       1.0  T
   6   -399.4574276 -0.232262E-03  0.246E-02    0.05       1.0  T
   7   -399.4576057 -0.178154E-03  0.816E-03    0.05       1.0  T
   8   -399.4576154 -0.967977E-05  0.523E-03    0.05       1.2  T
   9   -399.4576212 -0.580208E-05  0.369E-03    0.05       1.7  T
  10   -399.4576255 -0.427989E-05  0.162E-03    0.05       4.0  T
  11   -399.4576263 -0.847870E-06  0.414E-04    0.05      15.5  T
  12   -399.4576264 -0.295648E-07  0.168E-04    0.05      38.2  T
     SCC iter.                  ...        0 min,  1.164 sec
     gradient                   ...        0 min,  0.575 sec
 * total energy  :  -391.3453825 Eh     change       -0.5456576E-01 Eh
   gradient norm :     0.0072152 Eh/α   predicted    -0.6874873E-04 ( -99.87%)
   displ. norm   :     0.0346331 α      lambda       -0.8051126E-04
   maximum displ.:     0.0194891 α      in ANC's #81, #55, #41, ...

........................................................................
.............................. CYCLE   19 ..............................
........................................................................

 iter      E             dE          RMSdq      gap      omega  full diag
   1   -399.4632099 -0.399463E+03  0.537E-02    0.06       0.0  T
   2   -399.3265373  0.136673E+00  0.570E-01    0.10       1.0  T
   3   -399.4577355 -0.131198E+00  0.124E-01    0.06       1.0  T
   4   -399.4624452 -0.470967E-02  0.686E-02    0.05       1.0  T
   5   -399.4634381 -0.992857E-03  0.406E-02    0.05       1.0  T
   6   -399.4638364 -0.398295E-03  0.220E-02    0.05       1.0  T
   7   -399.4639629 -0.126547E-03  0.834E-03    0.05       1.0  T
   8   -399.4639725 -0.962863E-05  0.563E-03    0.05       1.1  T
   9   -399.4639689  0.359320E-05  0.581E-03    0.05       1.1  T
  10   -399.4639818 -0.128478E-04  0.143E-03    0.05       4.5  T
  11   -399.4639825 -0.738360E-06  0.367E-04    0.05      17.5  T
  12   -399.4639825 -0.132604E-07  0.194E-04    0.05      33.1  T
     SCC iter.                  ...        0 min,  1.170 sec
     gradient                   ...        0 min,  0.581 sec
 * total energy  :  -391.4049898 Eh     change       -0.5960731E-01 Eh
   gradient norm :     0.0063791 Eh/α   predicted    -0.4031465E-04 ( -99.93%)
   displ. norm   :     0.0326599 α      lambda       -0.6478488E-04
   maximum displ.:     0.0213702 α      in ANC's #81, #55, #41, ...

........................................................................
.............................. CYCLE   20 ..............................
........................................................................

 iter      E             dE          RMSdq      gap      omega  full diag
   1   -399.4714868 -0.399471E+03  0.474E-02    0.06       0.0  T
   2   -399.3956261  0.758607E-01  0.426E-01    0.06       1.0  T
   3   -399.4633769 -0.677509E-01  0.140E-01    0.07       1.0  T
   4   -399.4703684 -0.699143E-02  0.706E-02    0.05       1.0  T
   5   -399.4713495 -0.981144E-03  0.425E-02    0.05       1.0  T
   6   -399.4718714 -0.521919E-03  0.184E-02    0.05       1.0  T
   7   -399.4719519 -0.804611E-04  0.772E-03    0.05       1.0  T
   8   -399.4719467  0.513722E-05  0.685E-03    0.05       1.0  T
   9   -399.4719645 -0.177295E-04  0.215E-03    0.05       3.0  T
  10   -399.4719662 -0.175363E-05  0.685E-04    0.05       9.4  T
  11   -399.4719662  0.690920E-08  0.554E-04    0.05      11.6  T
  12   -399.4719663 -0.103236E-06  0.158E-04    0.05      40.6  T
     SCC iter.                  ...        0 min,  1.177 sec
     gradient                   ...        0 min,  0.576 sec
 * total energy  :  -391.5091666 Eh     change       -0.1041768E+00 Eh
   gradient norm :     0.0056035 Eh/α   predicted    -0.3247139E-04 ( -99.97%)
   displ. norm   :     0.0289130 α      lambda       -0.4156476E-04
   maximum displ.:     0.0170274 α      in ANC's #81, #55, #41, ...
 * RMSD in coord.:     0.1238049 α      energy gain   0.2917813E+01 Eh

generating ANC from exact Hessian ...
Using Lindh-Hessian (1995)
 Shifting diagonal of input Hessian by    1.0416365296202993E-002
 Lowest  eigenvalues of input Hessian
    0.010000    0.010389    0.000000    0.000000    0.010406    0.000000
    0.000000    0.000000    0.000000    0.010439    0.010445    0.010466
    0.010478    0.010488    0.010510    0.010518    0.010544    0.010560
 Highest eigenvalues
    2.327009    2.483807    2.927483    3.053777    3.786358    5.488140


........................................................................
.............................. CYCLE   21 ..............................
........................................................................

 iter      E             dE          RMSdq      gap      omega  full diag
   1   -399.4785585 -0.399479E+03  0.358E-02    0.05       0.0  T
   2   -399.4448959  0.336626E-01  0.283E-01    0.04       1.0  T
   3   -399.4747765 -0.298806E-01  0.947E-02    0.06       1.0  T
   4   -399.4778254 -0.304888E-02  0.551E-02    0.05       1.0  T
   5   -399.4783685 -0.543128E-03  0.351E-02    0.05       1.0  T
   6   -399.4787600 -0.391524E-03  0.116E-02    0.05       1.0  T
   7   -399.4787874 -0.274247E-04  0.639E-03    0.05       1.0  T
   8   -399.4787866  0.840920E-06  0.501E-03    0.05       1.3  T
   9   -399.4787925 -0.589315E-05  0.286E-03    0.05       2.2  T
  10   -399.4787949 -0.240400E-05  0.883E-04    0.05       7.3  T
  11   -399.4787951 -0.188905E-06  0.252E-04    0.05      25.5  T
  12   -399.4787951 -0.556736E-08  0.150E-04    0.05      43.0  T
     SCC iter.                  ...        0 min,  1.187 sec
     gradient                   ...        0 min,  0.576 sec
 * total energy  :  -391.5876218 Eh     change       -0.7845521E-01 Eh
   gradient norm :     0.0387983 Eh/α   predicted     0.0000000E+00 (-100.00%)
   displ. norm   :     0.0217226 α      lambda       -0.8414876E-03
   maximum displ.:     0.0201068 α      in ANC's #31, #45, #14, ...

........................................................................
.............................. CYCLE   22 ..............................
........................................................................

 iter      E             dE          RMSdq      gap      omega  full diag
   1   -399.4757264 -0.399476E+03  0.356E-02    0.05       0.0  T
   2   -399.4397337  0.359927E-01  0.296E-01    0.08       1.0  T
   3   -399.4751571 -0.354234E-01  0.513E-02    0.05       1.0  T
   4   -399.4758005 -0.643390E-03  0.316E-02    0.05       1.0  T
   5   -399.4760568 -0.256292E-03  0.176E-02    0.05       1.0  T
   6   -399.4761284 -0.716357E-04  0.878E-03    0.05       1.0  T
   7   -399.4761484 -0.199376E-04  0.507E-03    0.05       1.3  T
   8   -399.4761533 -0.490484E-05  0.257E-03    0.05       2.5  T
   9   -399.4761541 -0.785987E-06  0.596E-04    0.05      10.8  T
  10   -399.4761541 -0.219396E-07  0.458E-04    0.05      14.0  T
     SCC iter.                  ...        0 min,  0.968 sec
     gradient                   ...        0 min,  0.586 sec
 * total energy  :  -391.5939283 Eh     change       -0.6306521E-02 Eh
   gradient norm :     0.0283018 Eh/α   predicted    -0.4213757E-03 ( -93.32%)
   displ. norm   :     0.0606414 α      lambda       -0.1715000E-02
   maximum displ.:     0.0579293 α      in ANC's #31, #45, #63, ...

........................................................................
.............................. CYCLE   23 ..............................
........................................................................

 iter      E             dE          RMSdq      gap      omega  full diag
   1   -399.4641606 -0.399464E+03  0.101E-01    0.05       0.0  T
   2   -399.3049328  0.159228E+00  0.622E-01    0.03       1.0  T
   3   -399.4564364 -0.151504E+00  0.183E-01    0.06       1.0  T
   4   -399.4651880 -0.875161E-02  0.847E-02    0.06       1.0  T
   5   -399.4671742 -0.198617E-02  0.415E-02    0.05       1.0  T
   6   -399.4674254 -0.251150E-03  0.285E-02    0.05       1.0  T
   7   -399.4676215 -0.196135E-03  0.113E-02    0.05       1.0  T
   8   -399.4676053  0.162190E-04  0.107E-02    0.05       1.0  T
   9   -399.4676274 -0.221459E-04  0.682E-03    0.05       1.0  T
  10   -399.4676412 -0.138236E-04  0.277E-03    0.05       2.3  T
  11   -399.4676423 -0.107314E-05  0.214E-03    0.05       3.0  T
  12   -399.4676440 -0.168472E-05  0.871E-04    0.05       7.4  T
  13   -399.4676442 -0.168839E-06  0.429E-04    0.05      15.0  T
  14   -399.4676442 -0.559518E-07  0.194E-04    0.05      33.1  T
     SCC iter.                  ...        0 min,  1.374 sec
     gradient                   ...        0 min,  0.577 sec
 * total energy  :  -391.6092377 Eh     change       -0.1530932E-01 Eh
   gradient norm :     0.0085630 Eh/α   predicted    -0.8606810E-03 ( -94.38%)
   displ. norm   :     0.0041566 α      lambda       -0.3465533E-04
   maximum displ.:     0.0030385 α      in ANC's #14, #66, #45, ...

........................................................................
.............................. CYCLE   24 ..............................
........................................................................

 iter      E             dE          RMSdq      gap      omega  full diag
   1   -399.4676373 -0.399468E+03  0.332E-03    0.05       0.0  T
   2   -399.4672745  0.362830E-03  0.293E-02    0.05       1.0  T
   3   -399.4676268 -0.352338E-03  0.584E-03    0.05       1.1  T
   4   -399.4676311 -0.432695E-05  0.505E-03    0.05       1.3  T
   5   -399.4676384 -0.722942E-05  0.255E-03    0.05       2.5  T
   6   -399.4676394 -0.102307E-05  0.134E-03    0.05       4.8  T
   7   -399.4676396 -0.180543E-06  0.118E-03    0.05       5.5  T
   8   -399.4676400 -0.431412E-06  0.347E-04    0.05      18.5  T
   9   -399.4676400 -0.451004E-07  0.828E-05    0.05      77.6  T
     SCC iter.                  ...        0 min,  0.912 sec
     gradient                   ...        0 min,  0.595 sec
 * total energy  :  -391.6086013 Eh     change        0.6363250E-03 Eh
   gradient norm :     0.0037803 Eh/α   predicted    -0.1762239E-04 (-102.77%)
   displ. norm   :     0.0034867 α      lambda       -0.1261792E-04
   maximum displ.:     0.0022530 α      in ANC's #14, #66, #31, ...

........................................................................
.............................. CYCLE   25 ..............................
........................................................................

 iter      E             dE          RMSdq      gap      omega  full diag
   1   -399.4673624 -0.399467E+03  0.252E-03    0.05       0.0  T
   2   -399.4673501  0.122071E-04  0.660E-03    0.05       1.0  T
   3   -399.4673450  0.514242E-05  0.676E-03    0.05       1.0  T
   4   -399.4673432  0.176937E-05  0.687E-03    0.05       1.0  T
   5   -399.4673608 -0.175333E-04  0.281E-03    0.05       2.3  T
   6   -399.4673629 -0.209021E-05  0.100E-03    0.05       6.4  T
   7   -399.4673628  0.872407E-07  0.107E-03    0.05       6.0  T
   8   -399.4673631 -0.345138E-06  0.373E-04    0.05      17.2  T
   9   -399.4673632 -0.535863E-07  0.650E-05    0.05      98.9  T
     SCC iter.                  ...        0 min,  0.859 sec
     gradient                   ...        0 min,  0.586 sec
 * total energy  :  -391.6077286 Eh     change        0.8727552E-03 Eh
   gradient norm :     0.0009181 Eh/α   predicted    -0.6329454E-05 (-100.73%)
   displ. norm   :     0.0006572 α      lambda       -0.2337038E-06
   maximum displ.:     0.0002850 α      in ANC's #75, #78, #77, ...

........................................................................
.............................. CYCLE   26 ..............................
........................................................................

 iter      E             dE          RMSdq      gap      omega  full diag
   1   -399.4672990 -0.399467E+03  0.791E-04    0.05       0.0  T
   2   -399.4672968  0.216604E-05  0.265E-03    0.05       2.4  T
   3   -399.4672959  0.963215E-06  0.274E-03    0.05       2.3  T
   4   -399.4672986 -0.271134E-05  0.119E-03    0.05       5.4  T
   5   -399.4672987 -0.163941E-06  0.101E-03    0.05       6.4  T
   6   -399.4672991 -0.334996E-06  0.174E-04    0.05      36.9  T
   7   -399.4672991  0.734190E-09  0.131E-04    0.05      49.1  T
     SCC iter.                  ...        0 min,  0.701 sec
     gradient                   ...        0 min,  0.573 sec
 * total energy  :  -391.6066383 Eh     change        0.1090305E-02 Eh
   gradient norm :     0.0008944 Eh/α   predicted    -0.1838938E-06 (-100.02%)
   displ. norm   :     0.0078253 α      lambda       -0.4059146E-05
   maximum displ.:     0.0036260 α      in ANC's #75, #78, #77, ...

........................................................................
.............................. CYCLE   27 ..............................
........................................................................

 iter      E             dE          RMSdq      gap      omega  full diag
   1   -399.4665545 -0.399467E+03  0.880E-03    0.05       0.0  T
   2   -399.4662664  0.288048E-03  0.304E-02    0.05       1.0  T
   3   -399.4663821 -0.115640E-03  0.215E-02    0.05       1.0  T
   4   -399.4662576  0.124436E-03  0.268E-02    0.06       1.0  T
   5   -399.4665524 -0.294725E-03  0.758E-03    0.05       1.0  T
   6   -399.4665645 -0.121945E-04  0.231E-03    0.05       2.8  T
   7   -399.4665649 -0.332711E-06  0.130E-03    0.05       5.0  T
   8   -399.4665649 -0.550203E-07  0.118E-03    0.05       5.4  T
   9   -399.4665654 -0.457446E-06  0.315E-04    0.05      20.4  T
  10   -399.4665654 -0.350788E-07  0.112E-04    0.05      57.5  T
     SCC iter.                  ...        0 min,  0.999 sec
     gradient                   ...        0 min,  0.585 sec
 * total energy  :  -391.5926686 Eh     change        0.1396971E-01 Eh
   gradient norm :     0.0018092 Eh/α   predicted    -0.2127410E-05 (-100.02%)
   displ. norm   :     0.0111467 α      lambda       -0.3384004E-05
   maximum displ.:     0.0053396 α      in ANC's #75, #78, #77, ...

........................................................................
.............................. CYCLE   28 ..............................
........................................................................

 iter      E             dE          RMSdq      gap      omega  full diag
   1   -399.4656072 -0.399466E+03  0.122E-02    0.05       0.0  T
   2   -399.4644572  0.115003E-02  0.560E-02    0.06       1.0  T
   3   -399.4652249 -0.767642E-03  0.308E-02    0.05       1.0  T
   4   -399.4651715  0.533445E-04  0.334E-02    0.06       1.0  T
   5   -399.4656160 -0.444490E-03  0.869E-03    0.05       1.0  T
   6   -399.4656267 -0.106599E-04  0.432E-03    0.05       1.5  T
   7   -399.4656288 -0.209642E-05  0.207E-03    0.05       3.1  T
   8   -399.4656292 -0.424944E-06  0.175E-03    0.05       3.7  T
   9   -399.4656302 -0.101890E-05  0.361E-04    0.05      17.8  T
  10   -399.4656302 -0.315698E-07  0.185E-04    0.05      34.7  T
  11   -399.4656302 -0.529633E-08  0.124E-04    0.05      52.0  T
     SCC iter.                  ...        0 min,  1.084 sec
     gradient                   ...        0 min,  0.586 sec
 * total energy  :  -391.5719911 Eh     change        0.2067751E-01 Eh
   gradient norm :     0.0028837 Eh/α   predicted    -0.2183523E-05 (-100.01%)
   displ. norm   :     0.0283687 α      lambda       -0.1637401E-04
   maximum displ.:     0.0136907 α      in ANC's #75, #78, #77, ...

........................................................................
.............................. CYCLE   29 ..............................
........................................................................

 iter      E             dE          RMSdq      gap      omega  full diag
   1   -399.4631105 -0.399463E+03  0.318E-02    0.05       0.0  T
   2   -399.4530658  0.100446E-01  0.163E-01    0.07       1.0  T
   3   -399.4611916 -0.812578E-02  0.699E-02    0.05       1.0  T
   4   -399.4603393  0.852274E-03  0.853E-02    0.06       1.0  T
   5   -399.4632207 -0.288138E-02  0.184E-02    0.05       1.0  T
   6   -399.4632564 -0.356680E-04  0.126E-02    0.05       1.0  T
   7   -399.4632823 -0.259277E-04  0.386E-03    0.05       1.7  T
   8   -399.4632817  0.587279E-06  0.327E-03    0.05       2.0  T
   9   -399.4632849 -0.314562E-05  0.153E-03    0.05       4.2  T
  10   -399.4632854 -0.538043E-06  0.773E-04    0.05       8.3  T
  11   -399.4632856 -0.184591E-06  0.252E-04    0.05      25.5  T
     SCC iter.                  ...        0 min,  1.089 sec
     gradient                   ...        0 min,  0.595 sec
 * total energy  :  -391.5183193 Eh     change        0.5367177E-01 Eh
   gradient norm :     0.0044564 Eh/α   predicted    -0.8218984E-05 (-100.02%)
   displ. norm   :     0.1044735 α      lambda       -0.5506337E-04
   maximum displ.:     0.0505385 α      in ANC's #75, #78, #77, ...

........................................................................
.............................. CYCLE   30 ..............................
........................................................................

 iter      E             dE          RMSdq      gap      omega  full diag
   1   -399.4507851 -0.399451E+03  0.126E-01    0.05       0.0  T
   2   -399.3707197  0.800654E-01  0.467E-01    0.07       1.0  T
   3   -399.4371782 -0.664585E-01  0.201E-01    0.04       1.0  T
   4   -399.4139268  0.232514E-01  0.311E-01    0.08       1.0  T
   5   -399.4518217 -0.378949E-01  0.917E-02    0.06       1.0  T
   6   -399.4535936 -0.177191E-02  0.401E-02    0.05       1.0  T
   7   -399.4537466 -0.153016E-03  0.363E-02    0.05       1.0  T
   8   -399.4539550 -0.208361E-03  0.139E-02    0.06       1.0  T
   9   -399.4539810 -0.260251E-04  0.126E-02    0.06       1.0  T
  10   -399.4540316 -0.506218E-04  0.205E-03    0.06       3.1  T
  11   -399.4540319 -0.226641E-06  0.153E-03    0.06       4.2  T
  12   -399.4540324 -0.502517E-06  0.682E-04    0.06       9.4  T
  13   -399.4540323  0.312457E-07  0.598E-04    0.06      10.7  T
     SCC iter.                  ...        0 min,  1.278 sec
     gradient                   ...        0 min,  0.589 sec
 * total energy  :  -391.3114536 Eh     change        0.2068657E+00 Eh
   gradient norm :     0.0084290 Eh/α   predicted    -0.2790491E-04 (-100.01%)
   displ. norm   :     0.1753835 α      lambda       -0.7833440E-04
   maximum displ.:     0.0849561 α      in ANC's #75, #78, #77, ...

........................................................................
.............................. CYCLE   31 ..............................
........................................................................

 iter      E             dE          RMSdq      gap      omega  full diag
   1   -399.4218053 -0.399422E+03  0.238E-01    0.05       0.0  T
   2   -399.1749932  0.246812E+00  0.809E-01    0.05       1.0  T
   3   -399.4179252 -0.242932E+00  0.245E-01    0.06       1.0  T
   4   -399.4162824  0.164272E-02  0.241E-01    0.08       1.0  T
   5   -399.4111773  0.510517E-02  0.246E-01    0.05       1.0  T
   6   -399.4304362 -0.192590E-01  0.129E-01    0.07       1.0  T
   7   -399.4335492 -0.311291E-02  0.828E-02    0.06       1.0  T
   8   -399.4337709 -0.221700E-03  0.733E-02    0.05       1.0  T
   9   -399.4360738 -0.230295E-02  0.117E-02    0.06       1.0  T
  10   -399.4360875 -0.136972E-04  0.884E-03    0.06       1.0  T
  11   -399.4361051 -0.176285E-04  0.471E-03    0.06       1.4  T
  12   -399.4361085 -0.340193E-05  0.307E-03    0.06       2.1  T
  13   -399.4361113 -0.278225E-05  0.133E-03    0.06       4.8  T
  14   -399.4361118 -0.487509E-06  0.631E-04    0.06      10.2  T
  15   -399.4361119 -0.920267E-07  0.365E-04    0.06      17.6  T
     SCC iter.                  ...        0 min,  1.498 sec
     gradient                   ...        0 min,  0.590 sec
 * total energy  :  -390.9333474 Eh     change        0.3781062E+00 Eh
   gradient norm :     0.0125205 Eh/α   predicted    -0.4045637E-04 (-100.01%)
   displ. norm   :     0.8272103 α      lambda       -0.3983577E-03
   maximum displ.:     0.4008282 α      in ANC's #75, #78, #77, ...

........................................................................
.............................. CYCLE   32 ..............................
........................................................................

 iter      E             dE          RMSdq      gap      omega  full diag
   1   -399.1363961 -0.399136E+03  0.844E-01    0.02       0.0  T
   2   -396.7133753  0.242302E+01  0.294E+00    0.09       1.0  T
   3   -399.1244080 -0.241103E+01  0.832E-01    0.11       1.0  T
   4   -399.1129108  0.114972E-01  0.767E-01    0.14       1.0  T
   5   -398.8323992  0.280512E+00  0.106E+00    0.14       1.0  T
   6   -399.2607606 -0.428361E+00  0.423E-01    0.08       1.0  T
   7   -399.2520064  0.875420E-02  0.411E-01    0.12       1.0  T
   8   -399.2801179 -0.281116E-01  0.270E-01    0.07       1.0  T
   9   -399.2651890  0.149289E-01  0.315E-01    0.09       1.0  T
  10   -399.2946546 -0.294656E-01  0.161E-01    0.08       1.0  T
  11   -399.3031714 -0.851678E-02  0.578E-02    0.08       1.0  T
  12   -399.2979520  0.521936E-02  0.117E-01    0.07       1.0  T
  13   -399.3042354 -0.628335E-02  0.220E-02    0.08       1.0  T
  14   -399.3043039 -0.685546E-04  0.124E-02    0.08       1.0  T
  15   -399.3043275 -0.235524E-04  0.796E-03    0.08       1.0  T
  16   -399.3043285 -0.991505E-06  0.702E-03    0.08       1.0  T
  17   -399.3043478 -0.193229E-04  0.282E-03    0.08       2.3  T
  18   -399.3043499 -0.210095E-05  0.129E-03    0.08       5.0  T
  19   -399.3043501 -0.257677E-06  0.740E-04    0.08       8.7  T
  20   -399.3043499  0.267876E-06  0.939E-04    0.08       6.8  T
     SCC iter.                  ...        0 min,  1.989 sec
     gradient                   ...        0 min,  0.602 sec
 * total energy  :  -388.3635687 Eh     change        0.2569779E+01 Eh
   gradient norm :     0.0291131 Eh/α   predicted    -0.3386315E-03 (-100.01%)
   displ. norm   :     0.3921875 α      lambda       -0.5825259E-03
   maximum displ.:     0.1897375 α      in ANC's #75, #78, #77, ...

........................................................................
.............................. CYCLE   33 ..............................
........................................................................

 iter      E             dE          RMSdq      gap      omega  full diag
   1   -399.3359839 -0.399336E+03  0.441E-01    0.08       0.0  T
   2   -399.0191952  0.316789E+00  0.971E-01    0.38       1.0  T
   3   -399.0285269 -0.933168E-02  0.932E-01    0.08       1.0  T
   4   -399.3318567 -0.303330E+00  0.402E-01    0.07       1.0  T
   5   -399.2789428  0.529139E-01  0.494E-01    0.07       1.0  T
   6   -399.3118765 -0.329337E-01  0.398E-01    0.07       1.0  T
   7   -399.3476714 -0.357949E-01  0.280E-01    0.11       1.0  T
   8   -399.3761405 -0.284692E-01  0.122E-01    0.09       1.0  T
   9   -399.3764899 -0.349404E-03  0.895E-02    0.08       1.0  T
  10   -399.3776458 -0.115581E-02  0.676E-02    0.07       1.0  T
  11   -399.3788091 -0.116331E-02  0.274E-02    0.07       1.0  T
  12   -399.3789683 -0.159192E-03  0.193E-02    0.07       1.0  T
  13   -399.3789577  0.105792E-04  0.166E-02    0.07       1.0  T
  14   -399.3790504 -0.927019E-04  0.789E-03    0.07       1.0  T
  15   -399.3790719 -0.214735E-04  0.309E-03    0.07       2.1  T
  16   -399.3790740 -0.216649E-05  0.159E-03    0.07       4.0  T
  17   -399.3790725  0.155652E-05  0.223E-03    0.07       2.9  T
  18   -399.3790747 -0.222157E-05  0.401E-04    0.07      16.0  T
  19   -399.3790747  0.233516E-07  0.446E-04    0.07      14.4  T
  20   -399.3790746  0.297529E-07  0.486E-04    0.07      13.2  T
     SCC iter.                  ...        0 min,  2.005 sec
     gradient                   ...        0 min,  0.602 sec
 * total energy  :  -389.8006250 Eh     change       -0.1437056E+01 Eh
   gradient norm :     0.0176770 Eh/α   predicted    -0.3340960E-03 ( -99.98%)
   displ. norm   :     0.1577185 α      lambda       -0.1897494E-03
   maximum displ.:     0.0766449 α      in ANC's #75, #78, #77, ...

........................................................................
.............................. CYCLE   34 ..............................
........................................................................

 iter      E             dE          RMSdq      gap      omega  full diag
   1   -399.3376088 -0.399338E+03  0.213E-01    0.06       0.0  T
   2   -398.8808222  0.456787E+00  0.107E+00    0.33       1.0  T
   3   -399.2820628 -0.401241E+00  0.423E-01    0.10       1.0  T
   4   -399.3492533 -0.671905E-01  0.117E-01    0.07       1.0  T
   5   -399.2581823  0.910710E-01  0.469E-01    0.06       1.0  T
   6   -399.3416184 -0.834361E-01  0.162E-01    0.06       1.0  T
   7   -399.3505185 -0.890008E-02  0.838E-02    0.08       1.0  T
   8   -399.3520433 -0.152487E-02  0.463E-02    0.07       1.0  T
   9   -399.3523101 -0.266772E-03  0.359E-02    0.07       1.0  T
  10   -399.3527239 -0.413820E-03  0.142E-02    0.07       1.0  T
  11   -399.3527774 -0.535043E-04  0.771E-03    0.07       1.0  T
  12   -399.3527909 -0.134978E-04  0.249E-03    0.07       2.6  T
  13   -399.3527919 -0.101558E-05  0.161E-03    0.07       4.0  T
  14   -399.3527920 -0.186544E-07  0.128E-03    0.07       5.0  T
  15   -399.3527925 -0.511523E-06  0.629E-04    0.07      10.2  T
  16   -399.3527926 -0.131631E-06  0.221E-04    0.07      29.1  T
     SCC iter.                  ...        0 min,  1.597 sec
     gradient                   ...        0 min,  0.606 sec
 * total energy  :  -389.2893611 Eh     change        0.5112640E+00 Eh
   gradient norm :     0.0160465 Eh/α   predicted    -0.9843977E-04 (-100.02%)
   displ. norm   :     0.5031781 α      lambda       -0.5947462E-03
   maximum displ.:     0.2448944 α      in ANC's #75, #78, #77, ...

........................................................................
.............................. CYCLE   35 ..............................
........................................................................

 iter      E             dE          RMSdq      gap      omega  full diag
   1   -399.1528757 -0.399153E+03  0.548E-01    0.03       0.0  T
   2   -397.6503945  0.150248E+01  0.224E+00    0.04       1.0  T
   3   -399.0672240 -0.141683E+01  0.717E-01    0.05       1.0  T
   4   -399.1782589 -0.111035E+00  0.469E-01    0.06       1.0  T
   5   -399.0353704  0.142889E+00  0.678E-01    0.07       1.0  T
   6   -399.1806928 -0.145322E+00  0.394E-01    0.06       1.0  T
   7   -399.1836008 -0.290797E-02  0.378E-01    0.11       1.0  T
   8   -399.2057332 -0.221325E-01  0.265E-01    0.06       1.0  T
   9   -399.2255648 -0.198315E-01  0.163E-01    0.09       1.0  T
  10   -399.2328937 -0.732892E-02  0.857E-02    0.09       1.0  T
  11   -399.2341068 -0.121310E-02  0.646E-02    0.09       1.0  T
  12   -399.2345921 -0.485300E-03  0.420E-02    0.09       1.0  T
  13   -399.2351219 -0.529780E-03  0.213E-02    0.09       1.0  T
  14   -399.2351803 -0.584324E-04  0.145E-02    0.09       1.0  T
  15   -399.2352125 -0.321604E-04  0.954E-03    0.09       1.0  T
  16   -399.2352427 -0.302838E-04  0.377E-03    0.09       1.7  T
  17   -399.2352379  0.487299E-05  0.472E-03    0.09       1.4  T
  18   -399.2352473 -0.939497E-05  0.122E-03    0.09       5.3  T
  19   -399.2352475 -0.268017E-06  0.853E-04    0.09       7.5  T
  20   -399.2352477 -0.124423E-06  0.529E-04    0.09      12.2  T
     SCC iter.                  ...        0 min,  2.002 sec
     gradient                   ...        0 min,  0.598 sec
 * total energy  :  -386.9013631 Eh     change        0.2387998E+01 Eh
   gradient norm :     0.0218023 Eh/α   predicted    -0.3906899E-03 (-100.02%)
   displ. norm   :     0.1416691 α      lambda       -0.2742297E-03
   maximum displ.:     0.0683533 α      in ANC's #75, #78, #77, ...

........................................................................
.............................. CYCLE   36 ..............................
........................................................................

 iter      E             dE          RMSdq      gap      omega  full diag
   1   -399.2630575 -0.399263E+03  0.190E-01    0.09       0.0  T
   2   -398.8519320  0.411126E+00  0.101E+00    0.20       1.0  T
   3   -399.1254723 -0.273540E+00  0.608E-01    0.09       1.0  T
   4   -399.2339654 -0.108493E+00  0.322E-01    0.06       1.0  T
   5   -399.2729036 -0.389382E-01  0.772E-02    0.09       1.0  T
   6   -399.2586428  0.142609E-01  0.192E-01    0.06       1.0  T
   7   -399.2702821 -0.116394E-01  0.955E-02    0.08       1.0  T
   8   -399.2735917 -0.330955E-02  0.428E-02    0.09       1.0  T
   9   -399.2736285 -0.368217E-04  0.384E-02    0.08       1.0  T
  10   -399.2740190 -0.390459E-03  0.201E-02    0.08       1.0  T
  11   -399.2741055 -0.865721E-04  0.111E-02    0.08       1.0  T
  12   -399.2741276 -0.220799E-04  0.649E-03    0.08       1.0  T
  13   -399.2741187  0.886147E-05  0.692E-03    0.08       1.0  T
  14   -399.2741332 -0.144642E-04  0.401E-03    0.08       1.6  T
  15   -399.2741364 -0.322986E-05  0.288E-03    0.08       2.2  T
  16   -399.2741387 -0.226411E-05  0.154E-03    0.08       4.2  T
  17   -399.2741392 -0.476607E-06  0.102E-03    0.08       6.3  T
  18   -399.2741396 -0.428733E-06  0.341E-04    0.08      18.8  T
  19   -399.2741396 -0.381643E-07  0.135E-04    0.08      47.6  T
     SCC iter.                  ...        0 min,  2.023 sec
     gradient                   ...        0 min,  0.613 sec
 * total energy  :  -387.7338359 Eh     change       -0.8324728E+00 Eh
   gradient norm :     0.0073207 Eh/α   predicted    -0.1328319E-03 ( -99.98%)
   displ. norm   :     0.0788369 α      lambda       -0.7108239E-04
   maximum displ.:     0.0387359 α      in ANC's #75, #78, #77, ...

........................................................................
.............................. CYCLE   37 ..............................
........................................................................

 iter      E             dE          RMSdq      gap      omega  full diag
   1   -399.2486016 -0.399249E+03  0.111E-01    0.07       0.0  T
   2   -398.9913672  0.257234E+00  0.778E-01    0.07       1.0  T
   3   -399.2290199 -0.237653E+00  0.258E-01    0.10       1.0  T
   4   -399.2495343 -0.205145E-01  0.939E-02    0.09       1.0  T
   5   -399.2443298  0.520450E-02  0.142E-01    0.08       1.0  T
   6   -399.2513584 -0.702853E-02  0.600E-02    0.09       1.0  T
   7   -399.2523265 -0.968169E-03  0.344E-02    0.09       1.0  T
   8   -399.2526180 -0.291491E-03  0.156E-02    0.08       1.0  T
   9   -399.2526322 -0.141738E-04  0.108E-02    0.09       1.0  T
  10   -399.2526233  0.888811E-05  0.114E-02    0.08       1.0  T
  11   -399.2526806 -0.572584E-04  0.269E-03    0.08       2.4  T
  12   -399.2526821 -0.151611E-05  0.151E-03    0.08       4.3  T
  13   -399.2526824 -0.287495E-06  0.819E-04    0.08       7.8  T
  14   -399.2526825 -0.135018E-06  0.540E-04    0.08      11.9  T
     SCC iter.                  ...        0 min,  1.443 sec
     gradient                   ...        0 min,  0.597 sec
 * total energy  :  -387.2913807 Eh     change        0.4424551E+00 Eh
   gradient norm :     0.0052858 Eh/α   predicted    -0.4005358E-04 (-100.01%)
   displ. norm   :     0.2695642 α      lambda       -0.2918535E-03
   maximum displ.:     0.1324463 α      in ANC's #75, #78, #77, ...

........................................................................
.............................. CYCLE   38 ..............................
........................................................................

 iter      E             dE          RMSdq      gap      omega  full diag
   1   -399.1302907 -0.399130E+03  0.349E-01    0.05       0.0  T
   2   -398.8017366  0.328554E+00  0.965E-01    0.03       1.0  T
   3   -399.1323051 -0.330568E+00  0.361E-01    0.10       1.0  T
   4   -399.1060481  0.262570E-01  0.393E-01    0.07       1.0  T
   5   -399.1389857 -0.329376E-01  0.270E-01    0.07       1.0  T
   6   -399.1601991 -0.212134E-01  0.170E-01    0.10       1.0  T
   7   -399.1642572 -0.405812E-02  0.940E-02    0.10       1.0  T
   8   -399.1658494 -0.159211E-02  0.653E-02    0.09       1.0  T
   9   -399.1622015  0.364787E-02  0.102E-01    0.08       1.0  T
  10   -399.1665161 -0.431466E-02  0.334E-02    0.09       1.0  T
  11   -399.1667304 -0.214204E-03  0.192E-02    0.09       1.0  T
  12   -399.1668545 -0.124121E-03  0.743E-03    0.09       1.0  T
  13   -399.1668600 -0.555135E-05  0.538E-03    0.09       1.2  T
  14   -399.1668638 -0.380182E-05  0.430E-03    0.09       1.5  T
  15   -399.1668696 -0.576153E-05  0.215E-03    0.09       3.0  T
  16   -399.1668699 -0.306207E-06  0.183E-03    0.09       3.5  T
  17   -399.1668709 -0.996056E-06  0.678E-04    0.09       9.5  T
  18   -399.1668709 -0.209426E-07  0.509E-04    0.09      12.6  T
     SCC iter.                  ...        0 min,  1.858 sec
     gradient                   ...        0 min,  0.600 sec
 * total energy  :  -385.3379498 Eh     change        0.1953431E+01 Eh
   gradient norm :     0.0120707 Eh/α   predicted    -0.8524316E-04 (-100.00%)
   displ. norm   :     0.3306696 α      lambda       -0.4618490E-03
   maximum displ.:     0.1627768 α      in ANC's #75, #78, #77, ...

........................................................................
.............................. CYCLE   39 ..............................
........................................................................

 iter      E             dE          RMSdq      gap      omega  full diag
   1   -398.9718699 -0.398972E+03  0.471E-01    0.04       0.0  T
   2   -398.4488805  0.522989E+00  0.127E+00    0.07       1.0  T
   3   -398.9630417 -0.514161E+00  0.496E-01    0.11       1.0  T
   4   -398.9089152  0.541265E-01  0.563E-01    0.05       1.0  T
   5   -398.8928731  0.160422E-01  0.591E-01    0.09       1.0  T
   6   -398.5537498  0.339123E+00  0.104E+00    0.01       1.0  T
   7   -399.0238349 -0.470085E+00  0.243E-01    0.10       1.0  T
   8   -399.0142743  0.956059E-02  0.257E-01    0.10       1.0  T
   9   -399.0328701 -0.185958E-01  0.137E-01    0.10       1.0  T
  10   -399.0379353 -0.506524E-02  0.593E-02    0.09       1.0  T
  11   -399.0378123  0.123042E-03  0.433E-02    0.09       1.0  T
  12   -399.0377584  0.538149E-04  0.422E-02    0.09       1.0  T
  13   -399.0382820 -0.523575E-03  0.211E-02    0.09       1.0  T
  14   -399.0382544  0.275773E-04  0.177E-02    0.09       1.0  T
  15   -399.0382972 -0.427859E-04  0.156E-02    0.09       1.0  T
  16   -399.0383192 -0.219378E-04  0.106E-02    0.09       1.0  T
  17   -399.0383323 -0.131235E-04  0.815E-03    0.09       1.0  T
  18   -399.0383414 -0.910240E-05  0.554E-03    0.09       1.2  T
  19   -399.0383438 -0.243738E-05  0.410E-03    0.09       1.6  T
  20   -399.0383449 -0.109899E-05  0.340E-03    0.09       1.9  T
  21   -399.0383462 -0.127103E-05  0.258E-03    0.09       2.5  T
  22   -399.0383469 -0.729784E-06  0.187E-03    0.09       3.4  T
  23   -399.0383474 -0.515680E-06  0.137E-03    0.09       4.7  T
  24   -399.0383479 -0.470846E-06  0.845E-04    0.09       7.6  T
  25   -399.0383481 -0.194540E-06  0.376E-04    0.09      17.1  T
     SCC iter.                  ...        0 min,  2.544 sec
     gradient                   ...        0 min,  0.614 sec
 * total energy  :  -381.5602849 Eh     change        0.3777665E+01 Eh
   gradient norm :     0.0175000 Eh/α   predicted    -0.9084997E-04 (-100.00%)
   displ. norm   :     0.5185710 α      lambda       -0.1608119E-02
   maximum displ.:     0.2556371 α      in ANC's #75, #78, #77, ...

........................................................................
.............................. CYCLE   40 ..............................
........................................................................

 iter      E             dE          RMSdq      gap      omega  full diag
   1   -398.4634874 -0.398463E+03  0.995E-01    0.06       0.0  T
   2   -390.7511804  0.771231E+01  0.437E+00    0.47       1.0  T
   3   -398.1245213 -0.737334E+01  0.151E+00    0.14       1.0  T
   4   -398.1485919 -0.240706E-01  0.124E+00    0.04       1.0  T
   5   -398.3583050 -0.209713E+00  0.105E+00    0.14       1.0  T
   6   -398.4554330 -0.971280E-01  0.921E-01    0.11       1.0  T
   7   -398.6379624 -0.182529E+00  0.598E-01    0.04       1.0  T
   8   -398.4739657  0.163997E+00  0.872E-01    0.03       1.0  T
   9   -398.7187816 -0.244816E+00  0.463E-01    0.05       1.0  T
  10   -398.7979978 -0.792162E-01  0.250E-01    0.09       1.0  T
  11   -398.8052764 -0.727853E-02  0.182E-01    0.09       1.0  T
  12   -398.7716968  0.335796E-01  0.327E-01    0.07       1.0  T
  13   -398.7941391 -0.224423E-01  0.268E-01    0.09       1.0  T
  14   -398.7895149  0.462418E-02  0.278E-01    0.09       1.0  T
  15   -398.8046942 -0.151793E-01  0.213E-01    0.08       1.0  T
  16   -398.7946306  0.100636E-01  0.215E-01    0.07       1.0  T
  17   -398.8115461 -0.169155E-01  0.866E-02    0.08       1.0  T
  18   -398.8141142 -0.256804E-02  0.566E-02    0.07       1.0  T
  19   -398.8125826  0.153157E-02  0.861E-02    0.07       1.0  T
  20   -398.8131836 -0.601010E-03  0.692E-02    0.07       1.0  T
  21   -398.8132789 -0.952930E-04  0.547E-02    0.07       1.0  T
  22   -398.8145095 -0.123061E-02  0.240E-02    0.07       1.0  T
  23   -398.8146098 -0.100349E-03  0.177E-02    0.07       1.0  T
  24   -398.8146988 -0.889519E-04  0.111E-02    0.07       1.0  T
  25   -398.8147501 -0.512702E-04  0.664E-03    0.07       1.0  T
  26   -398.8147548 -0.470278E-05  0.456E-03    0.07       1.4  T
  27   -398.8147621 -0.736468E-05  0.196E-03    0.07       3.3  T
  28   -398.8147614  0.746661E-06  0.223E-03    0.07       2.9  T
  29   -398.8147625 -0.109954E-05  0.116E-03    0.07       5.5  T
  30   -398.8147630 -0.510453E-06  0.515E-04    0.07      12.5  T
  31   -398.8147630  0.372361E-07  0.596E-04    0.07      10.8  T
     SCC iter.                  ...        0 min,  3.149 sec
     gradient                   ...        0 min,  0.596 sec
 * total energy  :  -369.9114838 Eh     change        0.1164880E+02 Eh
   gradient norm :     0.0211020 Eh/α   predicted    -0.2859479E-03 (-100.00%)
   displ. norm   :     0.5927089 α      lambda       -0.3939484E-02
   maximum displ.:     0.2935121 α      in ANC's #75, #78, #77, ...

........................................................................
.............................. CYCLE   41 ..............................
........................................................................

 iter      E             dE          RMSdq      gap      omega  full diag
   1   -398.3298991 -0.398330E+03  0.103E+00    0.09       0.0  T
   2   -389.2284435  0.910146E+01  0.435E+00    0.02       1.0  T
   3   -397.8212722 -0.859283E+01  0.136E+00    0.05       1.0  T
   4   -396.6552953  0.116598E+01  0.204E+00    0.10       1.0  T
   5   -398.1471105 -0.149182E+01  0.116E+00    0.06       1.0  T
   6   -398.4850740 -0.337964E+00  0.636E-01    0.03       1.0  T
   7   -398.2114327  0.273641E+00  0.101E+00    0.05       1.0  T
   8   -398.4262722 -0.214839E+00  0.695E-01    0.02       1.0  T
   9   -398.3366033  0.896689E-01  0.714E-01    0.04       1.0  T
  10   -398.5393800 -0.202777E+00  0.374E-01    0.05       1.0  T
  11   -398.5592037 -0.198237E-01  0.323E-01    0.06       1.0  T
  12   -398.5649114 -0.570776E-02  0.277E-01    0.05       1.0  T
  13   -398.5582157  0.669574E-02  0.272E-01    0.05       1.0  T
  14   -398.5564260  0.178973E-02  0.313E-01    0.07       1.0  T
  15   -398.5691709 -0.127450E-01  0.211E-01    0.07       1.0  T
  16   -398.5725693 -0.339841E-02  0.163E-01    0.07       1.0  T
  17   -398.5757258 -0.315649E-02  0.128E-01    0.07       1.0  T
  18   -398.5738882  0.183765E-02  0.128E-01    0.07       1.0  T
  19   -398.5754978 -0.160964E-02  0.110E-01    0.07       1.0  T
  20   -398.5764848 -0.986952E-03  0.932E-02    0.07       1.0  T
  21   -398.5776015 -0.111677E-02  0.670E-02    0.07       1.0  T
  22   -398.5784614 -0.859841E-03  0.331E-02    0.07       1.0  T
  23   -398.5788258 -0.364384E-03  0.126E-02    0.07       1.0  T
  24   -398.5788163  0.951496E-05  0.125E-02    0.06       1.0  T
  25   -398.5788723 -0.560191E-04  0.358E-03    0.07       1.8  T
  26   -398.5788684  0.390081E-05  0.402E-03    0.07       1.6  T
  27   -398.5788724 -0.405208E-05  0.294E-03    0.07       2.2  T
  28   -398.5788734 -0.962255E-06  0.256E-03    0.07       2.5  T
  29   -398.5788752 -0.182076E-05  0.130E-03    0.07       5.0  T
  30   -398.5788757 -0.519473E-06  0.585E-04    0.07      11.0  T
  31   -398.5788758 -0.103377E-06  0.379E-04    0.07      17.0  T
     SCC iter.                  ...        0 min,  3.140 sec
     gradient                   ...        0 min,  0.617 sec
 * total energy  :  -337.5886198 Eh     change        0.3232286E+02 Eh
   gradient norm :     0.0152942 Eh/α   predicted    -0.5899873E-03 (-100.00%)
   displ. norm   :     0.6523276 α      lambda       -0.2498180E-02
   maximum displ.:     0.3207472 α      in ANC's #75, #78, #77, ...

........................................................................
.............................. CYCLE   42 ..............................
........................................................................

 iter      E             dE          RMSdq      gap      omega  full diag
   1   -398.1554958 -0.398155E+03  0.118E+00    0.08       0.0  T
   2   -395.8038322  0.235166E+01  0.230E+00    0.05       1.0  T
   3   -397.1178876 -0.131406E+01  0.197E+00    0.06       1.0  T
   4   -398.1637489 -0.104586E+01  0.839E-01    0.11       1.0  T
   5   -397.6044498  0.559299E+00  0.143E+00    0.27       1.0  T
   6   -398.1361835 -0.531734E+00  0.801E-01    0.05       1.0  T
   7   -398.2754122 -0.139229E+00  0.530E-01    0.07       1.0  T
   8   -398.3435896 -0.681774E-01  0.332E-01    0.06       1.0  T
   9   -398.3622384 -0.186488E-01  0.231E-01    0.03       1.0  T
  10   -398.2140616  0.148177E+00  0.594E-01    0.10       1.0  T
  11   -398.3368419 -0.122780E+00  0.313E-01    0.09       1.0  T
  12   -398.3641894 -0.273475E-01  0.135E-01    0.02       1.0  T
  13   -398.3555606  0.862875E-02  0.201E-01    0.08       1.0  T
  14   -398.3697419 -0.141813E-01  0.753E-02    0.02       1.0  T
  15   -398.3718456 -0.210368E-02  0.231E-02    0.03       1.0  T
  16   -398.3710456  0.799944E-03  0.488E-02    0.04       1.0  T
  17   -398.3717508 -0.705140E-03  0.236E-02    0.03       1.0  T
  18   -398.3718575 -0.106773E-03  0.185E-02    0.04       1.0  T
  19   -398.3719413 -0.837571E-04  0.133E-02    0.03       1.0  T
  20   -398.3719752 -0.338546E-04  0.725E-03    0.03       1.0  T
  21   -398.3719930 -0.178163E-04  0.296E-03    0.04       2.2  T
  22   -398.3719925  0.515060E-06  0.248E-03    0.04       2.6  T
  23   -398.3719936 -0.114971E-05  0.196E-03    0.04       3.3  T
  24   -398.3719945 -0.920007E-06  0.111E-03    0.04       5.8  T
  25   -398.3719945  0.242242E-07  0.101E-03    0.04       6.4  T
  26   -398.3719943  0.150951E-06  0.108E-03    0.04       6.0  T
  27   -398.3719947 -0.314045E-06  0.645E-04    0.04      10.0  T
  28   -398.3719948 -0.149742E-06  0.279E-04    0.04      23.0  T
     SCC iter.                  ...        0 min,  2.846 sec
     gradient                   ...        0 min,  0.611 sec
 * total energy  :  -259.5176812 Eh     change        0.7807094E+02 Eh
   gradient norm :     0.0249917 Eh/α   predicted    -0.3271961E-03 (-100.00%)
   displ. norm   :     0.4870038 α      lambda       -0.4207016E-02
   maximum displ.:     0.2399512 α      in ANC's #75, #78, #77, ...
 * RMSD in coord.:     0.2706193 α      energy gain   0.1319915E+03 Eh

generating ANC from exact Hessian ...
Using Lindh-Hessian (1995)
 Shifting diagonal of input Hessian by    1.0462063888090026E-002
 Lowest  eigenvalues of input Hessian
    0.010000    0.010424    0.010436    0.000000    0.000000    0.000000
    0.000000    0.000000    0.000000    0.010478    0.010482    0.010499
    0.010506    0.010519    0.010525    0.010547    0.010556    0.010575
 Highest eigenvalues
    5.322984    7.670990    8.755209   14.743999   20.169211  126.794123


........................................................................
.............................. CYCLE   43 ..............................
........................................................................

 iter      E             dE          RMSdq      gap      omega  full diag
   1   -397.8101276 -0.397810E+03  0.121E+00    0.10       0.0  T
   2   -392.5640885  0.524604E+01  0.291E+00    0.05       1.0  T
   3   -397.1516617 -0.458757E+01  0.143E+00    0.11       1.0  T
   4   -397.9252957 -0.773634E+00  0.914E-01    0.10       1.0  T
   5   -397.8688427  0.564531E-01  0.886E-01    0.08       1.0  T
   6   -398.0302889 -0.161446E+00  0.593E-01    0.09       1.0  T
   7   -398.1447627 -0.114474E+00  0.287E-01    0.07       1.0  T
   8   -398.1410617  0.370097E-02  0.285E-01    0.10       1.0  T
   9   -398.1135676  0.274941E-01  0.359E-01    0.08       1.0  T
  10   -398.1370172 -0.234496E-01  0.350E-01    0.03       1.0  T
  11   -398.1606330 -0.236158E-01  0.174E-01    0.05       1.0  T
  12   -398.1626046 -0.197155E-02  0.154E-01    0.04       1.0  T
  13   -398.1641990 -0.159448E-02  0.121E-01    0.06       1.0  T
  14   -398.1657543 -0.155525E-02  0.112E-01    0.05       1.0  T
  15   -398.1607961  0.495817E-02  0.134E-01    0.06       1.0  T
  16   -398.1610494 -0.253244E-03  0.117E-01    0.04       1.0  T
  17   -398.1628073 -0.175792E-02  0.972E-02    0.05       1.0  T
  18   -398.1615686  0.123866E-02  0.212E-01    0.05       1.0  T
  19   -398.1682739 -0.670530E-02  0.203E-01    0.04       1.0  T
  20   -398.1823848 -0.141109E-01  0.252E-01    0.06       1.0  T
  21   -398.1761960  0.618886E-02  0.180E-01    0.06       1.0  T
  22   -398.1787193 -0.252335E-02  0.271E-01    0.07       1.0  T
  23   -398.1726416  0.607769E-02  0.292E-01    0.07       1.0  T
  24   -398.1816113 -0.896966E-02  0.259E-01    0.06       1.0  T
  25   -398.1741109  0.750039E-02  0.305E-01    0.07       1.0  T
  26   -398.1725436  0.156727E-02  0.257E-01    0.07       1.0  T
  27   -398.1685538  0.398988E-02  0.192E-01    0.06       1.0  T
  28   -398.1664175  0.213624E-02  0.156E-01    0.05       1.0  T
  29   -398.1648821  0.153537E-02  0.143E-01    0.05       1.0  T
  30   -398.1629121  0.197009E-02  0.123E-01    0.05       1.0  T
  31   -398.1623828  0.529266E-03  0.128E-01    0.05       1.0  T
  32   -398.1626345 -0.251696E-03  0.122E-01    0.05       1.0  T
  33   -398.1618733  0.761219E-03  0.151E-01    0.05       1.0  T
  34   -398.1619544 -0.811277E-04  0.148E-01    0.05       1.0  T
  35   -398.1624672 -0.512832E-03  0.128E-01    0.05       1.0  T
  36   -398.1636866 -0.121935E-02  0.880E-02    0.05       1.0  T
  37   -398.1654789 -0.179229E-02  0.903E-02    0.05       1.0  T
  38   -398.1713245 -0.584562E-02  0.151E-01    0.06       1.0  T
  39   -398.1761506 -0.482608E-02  0.186E-01    0.06       1.0  T
  40   -398.1759442  0.206322E-03  0.184E-01    0.06       1.0  T
  41   -398.1716011  0.434313E-02  0.160E-01    0.06       1.0  T
  42   -398.1686283  0.297285E-02  0.147E-01    0.06       1.0  T
  43   -398.1677264  0.901894E-03  0.137E-01    0.06       1.0  T
  44   -398.1662174  0.150901E-02  0.121E-01    0.05       1.0  T
  45   -398.1648025  0.141489E-02  0.981E-02    0.05       1.0  T
  46   -398.1643148  0.487642E-03  0.868E-02    0.05       1.0  T
  47   -398.1641110  0.203834E-03  0.830E-02    0.05       1.0  T
  48   -398.1639965  0.114523E-03  0.834E-02    0.05       1.0  T
  49   -398.1640332 -0.366896E-04  0.830E-02    0.05       1.0  T
  50   -398.1638706  0.162591E-03  0.864E-02    0.05       1.0  T
  51   -398.1639053 -0.346970E-04  0.853E-02    0.05       1.0  T
  52   -398.1642072 -0.301928E-03  0.811E-02    0.05       1.0  T
  53   -398.1656585 -0.145133E-02  0.979E-02    0.05       1.0  T
  54   -398.1662708 -0.612254E-03  0.107E-01    0.05       1.0  T
  55   -398.1656649  0.605908E-03  0.982E-02    0.05       1.0  T
  56   -398.1649112  0.753679E-03  0.863E-02    0.05       1.0  T
  57   -398.1644335  0.477727E-03  0.786E-02    0.05       1.0  T
  58   -398.1638731  0.560321E-03  0.823E-02    0.05       1.0  T
  59   -398.1636151  0.258076E-03  0.989E-02    0.05       1.0  T
  60   -398.1634410  0.174033E-03  0.118E-01    0.04       1.0  T
  61   -398.1633429  0.981381E-04  0.130E-01    0.04       1.0  T
  62   -398.1633181  0.247971E-04  0.134E-01    0.04       1.0  T
  63   -398.1633572 -0.390515E-04  0.128E-01    0.04       1.0  T
  64   -398.1634529 -0.956961E-04  0.116E-01    0.04       1.0  T
  65   -398.1635939 -0.141070E-03  0.996E-02    0.05       1.0  T
  66   -398.1637884 -0.194522E-03  0.832E-02    0.05       1.0  T
  67   -398.1640417 -0.253294E-03  0.731E-02    0.05       1.0  T
  68   -398.1642838 -0.242028E-03  0.713E-02    0.05       1.0  T
  69   -398.1640831  0.200640E-03  0.721E-02    0.05       1.0  T
  70   -398.1638510  0.232098E-03  0.779E-02    0.05       1.0  T
  71   -398.1638217  0.293496E-04  0.792E-02    0.05       1.0  T
  72   -398.1639122 -0.905441E-04  0.756E-02    0.05       1.0  T
  73   -398.1641131 -0.200900E-03  0.715E-02    0.05       1.0  T
  74   -398.1645338 -0.420635E-03  0.730E-02    0.05       1.0  T
  75   -398.1647761 -0.242310E-03  0.762E-02    0.05       1.0  T
  76   -398.1648011 -0.250794E-04  0.765E-02    0.05       1.0  T
  77   -398.1646522  0.148985E-03  0.745E-02    0.05       1.0  T
  78   -398.1643607  0.291472E-03  0.715E-02    0.05       1.0  T
  79   -398.1639436  0.417108E-03  0.742E-02    0.05       1.0  T
  80   -398.1637956  0.147953E-03  0.796E-02    0.05       1.0  T
  81   -398.1637306  0.650757E-04  0.832E-02    0.05       1.0  T
  82   -398.1637285  0.209708E-05  0.833E-02    0.05       1.0  T
  83   -398.1637951 -0.666090E-04  0.795E-02    0.05       1.0  T
  84   -398.1639229 -0.127843E-03  0.744E-02    0.05       1.0  T
  85   -398.1640854 -0.162465E-03  0.711E-02    0.05       1.0  T
  86   -398.1642830 -0.197665E-03  0.706E-02    0.05       1.0  T
  87   -398.1648687 -0.585662E-03  0.772E-02    0.05       1.0  T
  88   -398.1654797 -0.610977E-03  0.867E-02    0.05       1.0  T
  89   -398.1668169 -0.133726E-02  0.106E-01    0.05       1.0  T
  90   -398.1742369 -0.741995E-02  0.172E-01    0.06       1.0  T
  91   -398.1695990  0.463792E-02  0.203E-01    0.08       1.0  T
  92   -398.1755082 -0.590923E-02  0.157E-01    0.08       1.0  T
  93   -398.1755303 -0.220670E-04  0.157E-01    0.08       1.0  T
  94   -398.1042797  0.712506E-01  0.821E-01    0.07       1.0  T
  95   -396.4055956  0.169868E+01  0.291E+00    0.07       1.0  T
  96   -396.4315741 -0.259786E-01  0.288E+00    0.07       1.0  T
  97   -396.4212728  0.103014E-01  0.290E+00    0.07       1.0  T
  98   -396.4317494 -0.104766E-01  0.288E+00    0.07       1.0  T
  99   -396.4418909 -0.101415E-01  0.287E+00    0.07       1.0  T
 100   -396.4407622  0.112869E-02  0.287E+00    0.07       1.0  T
 101   -396.4404315  0.330702E-03  0.288E+00    0.07       1.0  T
 102   -396.2805638  0.159868E+00  0.306E+00    0.06       1.0  T
 103   -396.4493439 -0.168780E+00  0.285E+00    0.07       1.0  T
 104   -396.5474003 -0.980564E-01  0.272E+00    0.08       1.0  T
 105   -396.5999045 -0.525042E-01  0.266E+00    0.08       1.0  T
 106   -396.9937548 -0.393850E+00  0.220E+00    0.08       1.0  T
 107   -397.9949549 -0.100120E+01  0.116E+00    0.03       1.0  T
 108   -396.1726113  0.182234E+01  0.547E+00    0.22       1.0  T
 109   -395.9017024  0.270909E+00  0.599E+00    0.28       1.0  T
 110   -395.9087134 -0.701100E-02  0.597E+00    0.28       1.0  T
 111   -395.7965720  0.112141E+00  0.617E+00    0.31       1.0  T
 112   -395.7597817  0.367902E-01  0.624E+00    0.31       1.0  T
 113   -395.7815583 -0.217766E-01  0.620E+00    0.31       1.0  T
 114   -395.6787686  0.102790E+00  0.638E+00    0.33       1.0  T
 115   -394.9135771  0.765192E+00  0.753E+00    0.07       1.0  T
 116   -394.9567883 -0.432112E-01  0.749E+00    0.08       1.0  T
 117   -394.5946738  0.362114E+00  0.778E+00    0.00       1.0  T
 118   -394.3073937  0.287280E+00  0.798E+00    0.05       1.0  T
 119   -394.4806164 -0.173223E+00  0.787E+00    0.02       1.0  T
 120   -394.9873051 -0.506689E+00  0.747E+00    0.10       1.0  T
 121   -394.1826600  0.804645E+00  0.807E+00    0.07       1.0  T
 122   -395.1634919 -0.980832E+00  0.724E+00    0.17       1.0  T
 123   -395.6871626 -0.523671E+00  0.639E+00    0.31       1.0  T
 124   -395.5105561  0.176606E+00  0.664E+00    0.34       1.0  T
 125   -395.2509644  0.259592E+00  0.709E+00    0.22       1.0  T
 126   -395.0455316  0.205433E+00  0.738E+00    0.12       1.0  T
 127   -395.1721389 -0.126607E+00  0.720E+00    0.18       1.0  T
 128   -395.1062336  0.659053E-01  0.731E+00    0.14       1.0  T
 129   -395.1084752 -0.224166E-02  0.730E+00    0.14       1.0  T
 130   -395.0716973  0.367779E-01  0.735E+00    0.13       1.0  T
 131   -395.0791487 -0.745145E-02  0.734E+00    0.13       1.0  T
 132   -395.0758352  0.331357E-02  0.735E+00    0.13       1.0  T
 133   -395.0476752  0.281600E-01  0.739E+00    0.12       1.0  T
 134   -395.0389054  0.876977E-02  0.740E+00    0.11       1.0  T
 135   -395.0432935 -0.438804E-02  0.739E+00    0.12       1.0  T
 136   -395.0448461 -0.155266E-02  0.739E+00    0.12       1.0  T
 137   -395.6749435 -0.630097E+00  0.638E+00    0.33       1.0  T
 138   -396.1957405 -0.520797E+00  0.542E+00    0.25       1.0  T
 139   -395.2194549  0.976286E+00  0.719E+00    0.26       1.0  T
 140   -395.3111045 -0.916496E-01  0.708E+00    0.32       1.0  T
 141   -395.3341934 -0.230890E-01  0.710E+00    0.35       1.0  T
 142   -397.4501887 -0.211600E+01  0.466E+00    0.03       1.0  T
 143   -311.3849991  0.860652E+02  0.278E+01    0.02       1.0  T
 144   -316.5578759 -0.517288E+01  0.269E+01    0.05       1.0  T
 145   -322.9746495 -0.641677E+01  0.265E+01    0.07       1.0  T
 146   -323.2351143 -0.260465E+00  0.264E+01    0.07       1.0  T
 147   -323.2380599 -0.294558E-02  0.264E+01    0.07       1.0  T
 148   -323.2568981 -0.188382E-01  0.264E+01    0.07       1.0  T
 149   -322.8933502  0.363548E+00  0.265E+01    0.07       1.0  T
 150   -323.8968131 -0.100346E+01  0.261E+01    0.07       1.0  T
 151   -323.8725528  0.242603E-01  0.261E+01    0.07       1.0  T
 152   -324.3342185 -0.461666E+00  0.259E+01    0.07       1.0  T
 153   -325.9174204 -0.158320E+01  0.253E+01    0.05       1.0  T
 154   -330.8668824 -0.494946E+01  0.250E+01    0.04       1.0  T
 155   -330.8944544 -0.275720E-01  0.250E+01    0.04       1.0  T
 156   -331.0209319 -0.126477E+00  0.250E+01    0.04       1.0  T
 157   -329.1623320  0.185860E+01  0.251E+01    0.02       1.0  T
 158   -332.3621126 -0.319978E+01  0.248E+01    0.13       1.0  T
 159   -330.8362132  0.152590E+01  0.250E+01    0.04       1.0  T
 160   -332.6333511 -0.179714E+01  0.248E+01    0.16       1.0  T
 161   -332.1078569  0.525494E+00  0.249E+01    0.10       1.0  T
 162   -332.4997543 -0.391897E+00  0.248E+01    0.15       1.0  T
 163   -332.1419036  0.357851E+00  0.249E+01    0.11       1.0  T
 164   -332.5971063 -0.455203E+00  0.248E+01    0.16       1.0  T
 165   -332.8764812 -0.279375E+00  0.247E+01    0.21       1.0  T
 166   -333.8122090 -0.935728E+00  0.243E+01    0.19       1.0  T
 167   -333.8056950  0.651397E-02  0.243E+01    0.19       1.0  T
 168   -333.4059597  0.399735E+00  0.245E+01    0.21       1.0  T
 169   -332.3041569  0.110180E+01  0.248E+01    0.12       1.0  T
 170   -325.8909984  0.641316E+01  0.253E+01    0.03       1.0  T
 171   -331.8927204 -0.600172E+01  0.248E+01    0.07       1.0  T
 172   -332.6918895 -0.799169E+00  0.247E+01    0.11       1.0  T
 173   -329.0399122  0.365198E+01  0.249E+01    0.01       1.0  T
 174   -327.6967418  0.134317E+01  0.250E+01    0.01       1.0  T
 175   -326.8479592  0.848783E+00  0.250E+01    0.02       1.0  T
 176   -325.9558147  0.892145E+00  0.252E+01    0.03       1.0  T
 177   -327.2628992 -0.130708E+01  0.249E+01    0.01       1.0  T
 178   -327.4454306 -0.182531E+00  0.249E+01    0.01       1.0  T
 179   -326.2225584  0.122287E+01  0.250E+01    0.02       1.0  T
 180   -323.8189575  0.240360E+01  0.261E+01    0.07       1.0  T
 181   -321.1466600  0.267230E+01  0.261E+01    0.05       1.0  T
 182   -320.9738739  0.172786E+00  0.262E+01    0.05       1.0  T
 183   -320.7226101  0.251264E+00  0.262E+01    0.06       1.0  T
 184   -317.4928742  0.322974E+01  0.263E+01    0.11       1.0  T
 185   -316.7590276  0.733847E+00  0.266E+01    0.09       1.0  T
 186   -316.9556760 -0.196648E+00  0.265E+01    0.10       1.0  T
 187   -316.9658343 -0.101583E-01  0.265E+01    0.11       1.0  T
 188   -314.5253843  0.244045E+01  0.277E+01    0.06       1.0  T
 189   -305.0526790  0.947271E+01  0.284E+01    0.05       1.0  T
 190   -303.6529212  0.139976E+01  0.287E+01    0.01       1.0  T
 191   -304.0914330 -0.438512E+00  0.286E+01    0.02       1.0  T
 192   -305.2441117 -0.115268E+01  0.283E+01    0.05       1.0  T
 193   -305.5608171 -0.316705E+00  0.282E+01    0.06       1.0  T
 194   -297.6999378  0.786088E+01  0.294E+01    0.06       1.0  T
 195   -298.0751990 -0.375261E+00  0.292E+01    0.06       1.0  T
 196   -297.8703675  0.204832E+00  0.293E+01    0.06       1.0  T
 197   -297.3386135  0.531754E+00  0.294E+01    0.05       1.0  T
 198   -297.6486038 -0.309990E+00  0.293E+01    0.05       1.0  T
 199   -296.4780497  0.117055E+01  0.296E+01    0.02       1.0  T
 200   -296.6618110 -0.183761E+00  0.295E+01    0.02       1.0  T
 201   -296.7243939 -0.625829E-01  0.295E+01    0.02       1.0  T
 202   -296.7122567  0.121372E-01  0.295E+01    0.02       1.0  T
 203   -295.5460989  0.116616E+01  0.297E+01    0.01       1.0  T
 204   -294.7325144  0.813584E+00  0.299E+01    0.02       1.0  T
 205   -293.5685567  0.116396E+01  0.300E+01    0.04       1.0  T
 206   -294.3042887 -0.735732E+00  0.299E+01    0.03       1.0  T
 207   -295.3938128 -0.108952E+01  0.298E+01    0.02       1.0  T
 208   -295.4130999 -0.192871E-01  0.298E+01    0.02       1.0  T
 209   -294.9473736  0.465726E+00  0.299E+01    0.02       1.0  T
 210   -294.7928135  0.154560E+00  0.299E+01    0.02       1.0  T
 211   -296.6757471 -0.188293E+01  0.296E+01    0.02       1.0  T
 212   -296.1075191  0.568228E+00  0.297E+01    0.01       1.0  T
 213   -296.0818941  0.256250E-01  0.297E+01    0.01       1.0  T
 214   -296.1374922 -0.555981E-01  0.297E+01    0.02       1.0  T
 215   -296.8208917 -0.683400E+00  0.295E+01    0.02       1.0  T
 216   -296.9443730 -0.123481E+00  0.295E+01    0.02       1.0  T
 217   -293.7930027  0.315137E+01  0.300E+01    0.04       1.0  T
 218   -294.2013048 -0.408302E+00  0.299E+01    0.04       1.0  T
 219   -296.4928129 -0.229151E+01  0.295E+01    0.03       1.0  T
 220   -296.2289070  0.263906E+00  0.296E+01    0.03       1.0  T
 221   -296.6137627 -0.384856E+00  0.295E+01    0.03       1.0  T
 222   -296.4437945  0.169968E+00  0.295E+01    0.03       1.0  T
 223   -296.1502742  0.293520E+00  0.296E+01    0.03       1.0  T
 224   -296.2706153 -0.120341E+00  0.296E+01    0.04       1.0  T
 225   -295.9607650  0.309850E+00  0.297E+01    0.04       1.0  T
 226   -297.8103769 -0.184961E+01  0.293E+01    0.03       1.0  T
 227   -297.9579520 -0.147575E+00  0.292E+01    0.02       1.0  T
 228   -297.4108909  0.547061E+00  0.294E+01    0.03       1.0  T
 229   -297.3790744  0.318165E-01  0.294E+01    0.03       1.0  T
 230   -298.8886365 -0.150956E+01  0.290E+01    0.01       1.0  T
 231   -299.0499357 -0.161299E+00  0.290E+01    0.01       1.0  T
 232   -298.6766602  0.373276E+00  0.291E+01    0.02       1.0  T
 233   -301.0449135 -0.236825E+01  0.284E+01    0.06       1.0  T
 234   -301.5389195 -0.494006E+00  0.283E+01    0.07       1.0  T
 235   -309.7212176 -0.818230E+01  0.275E+01    0.02       1.0  T
 236   -295.6524687  0.140687E+02  0.296E+01    0.03       1.0  T
 237   -303.1830714 -0.753060E+01  0.273E+01    0.09       1.0  T
 238   -302.6570680  0.526003E+00  0.273E+01    0.08       1.0  T
 239   -302.1153056  0.541762E+00  0.275E+01    0.06       1.0  T
 240   -306.3989719 -0.428367E+01  0.265E+01    0.02       1.0  T
 241   -301.8690011  0.452997E+01  0.275E+01    0.03       1.0  T
 242   -279.4753636  0.223936E+02  0.298E+01    0.05       1.0  T
 243   -279.4849089 -0.954526E-02  0.298E+01    0.05       1.0  T
 244   -280.2379870 -0.753078E+00  0.295E+01    0.04       1.0  T
 245   -282.1111990 -0.187321E+01  0.289E+01    0.06       1.0  T
 246   -288.8834756 -0.677228E+01  0.284E+01    0.03       1.0  T
 247   -282.6674584  0.621602E+01  0.288E+01    0.05       1.0  T
 248   -282.1829760  0.484482E+00  0.290E+01    0.01       1.0  T
 249   -282.6542181 -0.471242E+00  0.288E+01    0.04       1.0  T
 250   -282.0906896  0.563529E+00  0.290E+01    0.01       1.0  T
     SCC iter.                  ...        0 min, 26.241 sec
     gradient                   ...        0 min,  0.614 sec
================
 final structure:
================
242
 xtb: 6.7.1 (edcfbbe)
N            0.17529300000000       -1.76653100000000       -0.95177400000000
N           -0.03987900000000       -1.08711700000000        1.79395200000000
C           -0.42567100000000       -1.01075200000000       -3.24327000000000
C            0.01527600000000       -1.96895100000000       -2.30220600000000
C            0.42077900000000       -3.31928600000000       -2.65740200000000
H            0.38181000000000       -3.73630900000000       -3.67028900000000
C            0.85767400000000       -3.91388100000000       -1.50162100000000
H            1.25222000000000       -4.92661100000000       -1.36412900000000
C            0.67012700000000       -2.94610800000000       -0.43491500000000
C            0.86728600000000       -3.23641000000000        0.92994200000000
C            0.46645100000000       -2.35886600000000        1.95732300000000
C            0.40720200000000       -2.73660600000000        3.35816900000000
H            0.74592100000000       -3.69930400000000        3.75748800000000
C           -0.18426500000000       -1.69548700000000        4.02697000000000
H           -0.42391500000000       -1.61194700000000        5.09336100000000
C           -0.44393100000000       -0.66197900000000        3.04014300000000
C            1.41247500000000       -4.58030500000000        1.31319000000000
C            2.76035300000000       -4.72887200000000        1.72835600000000
C            3.28510100000000       -5.98383600000000        2.09620000000000
C            2.45131600000000       -7.11084200000000        2.03727000000000
H            2.85795500000000       -8.09718800000000        2.31153000000000
C            1.11305500000000       -7.00849700000000        1.63244600000000
C            0.59804800000000       -5.74219200000000        1.28373400000000
N           -0.78947100000000        1.57492500000000        1.06765600000000
N           -0.53039900000000        0.90738800000000       -1.65826000000000
C           -1.00232900000000        0.59644800000000        3.34925800000000
C           -1.10009200000000        1.64630100000000        2.40966500000000
C           -1.47448800000000        3.00358700000000        2.76126000000000
H           -1.78524300000000        3.32409400000000        3.76241900000000
C           -1.34234800000000        3.75850100000000        1.62201000000000
H           -1.53150000000000        4.82946100000000        1.48970900000000
C           -0.95359400000000        2.85058600000000        0.56080900000000
C           -0.84809200000000        3.21738800000000       -0.79363400000000
C           -0.73141500000000        2.26140400000000       -1.82139400000000
C           -0.94945900000000        2.56712900000000       -3.22240900000000
H           -1.13355100000000        3.57131000000000       -3.62042200000000
C           -0.93286800000000        1.37254800000000       -3.89610300000000
H           -1.09481600000000        1.18674200000000       -4.96423500000000
C           -0.63836300000000        0.34427800000000       -2.91409100000000
C           -0.92889500000000        4.66264300000000       -1.18119500000000
C            0.25288000000000        5.35795200000000       -1.54871500000000
C            0.21244000000000        6.70117600000000       -1.97381000000000
C           -1.02316000000000        7.36575400000000       -2.00343900000000
H           -1.06140500000000        8.41846100000000       -2.32563400000000
C           -2.21141000000000        6.71735100000000       -1.63477400000000
C           -2.16034900000000        5.36373600000000       -1.24182000000000
Fe          -0.19053800000000       -0.05702100000000        0.06541400000000
Cl          -2.43617500000000       -0.69777800000000        0.06300400000000
C           -1.57213100000000        0.80978900000000        4.72341700000000
C           -0.79561800000000        1.35627200000000        5.78467500000000
C           -2.93275000000000        0.45063200000000        4.96527600000000
C           -1.36354400000000        1.54684600000000        7.06448800000000
N            0.54434900000000        1.70904300000000        5.49956000000000
C           -3.49979500000000        0.66579100000000        6.24466300000000
N           -3.66041400000000       -0.14131100000000        3.91344400000000
H           -0.74014300000000        1.95433200000000        7.86817200000000
C           -2.70716900000000        1.20361200000000        7.26604400000000
C            1.53263500000000        2.12435300000000        6.37270100000000
H            0.81276100000000        1.60623300000000        4.51539600000000
H           -4.55231100000000        0.40460800000000        6.40245400000000
C           -4.99781700000000       -0.51794300000000        3.90470100000000
H           -3.14024400000000       -0.31968100000000        3.04441100000000
H           -3.15425400000000        1.36030000000000        8.26085600000000
O            1.39286700000000        2.23519600000000        7.59252600000000
C            2.85008800000000        2.44656500000000        5.70317400000000
O           -5.78944800000000       -0.27785500000000        4.81941500000000
C           -5.41623500000000       -1.27338400000000        2.66902700000000
C            4.11613500000000        2.06455400000000        6.42910800000000
H            2.89776800000000        2.44676200000000        4.60159900000000
C            3.69435400000000        3.51747800000000        6.40858900000000
C           -6.77654100000000       -0.97678600000000        2.08340500000000
H           -4.63577600000000       -1.59123500000000        1.95692700000000
C           -6.58766200000000       -2.24262300000000        2.89008300000000
H            3.99933600000000        1.54166800000000        7.39132800000000
H            4.98050700000000        1.78403200000000        5.80723900000000
H            3.25954700000000        3.91855500000000        7.33655000000000
C            4.46428100000000        4.47710600000000        5.56166900000000
H           -7.36398100000000       -0.18473800000000        2.57465200000000
H           -6.87171900000000       -1.07100300000000        0.98948300000000
H           -6.99735300000000       -2.24088300000000        3.91138000000000
C           -6.56815300000000       -3.56284700000000        2.19515900000000
O            4.55363900000000        5.68327700000000        6.17192600000000
O            4.95995800000000        4.21603900000000        4.47143900000000
O           -7.17299500000000       -4.50828000000000        2.96527500000000
O           -6.09142400000000       -3.78574100000000        1.09208200000000
C            5.29721700000000        6.74497300000000        5.49130500000000
C           -7.26497100000000       -5.86007100000000        2.42103200000000
C            4.31010800000000        7.61375400000000        4.71229300000000
C            6.06410600000000        7.49973500000000        6.57282700000000
H            5.99569000000000        6.25050400000000        4.78373000000000
C           -7.24922800000000       -6.80321500000000        3.62025200000000
C           -8.52546600000000       -5.97609600000000        1.56276000000000
H           -6.36963600000000       -6.02030100000000        1.78317800000000
H            3.78770900000000        7.01976000000000        3.93605800000000
H            3.55130600000000        8.05485400000000        5.39144000000000
H            4.84608000000000        8.44238800000000        4.20488600000000
H            6.75225500000000        6.82205500000000        7.11671400000000
H            6.66621200000000        8.31264300000000        6.11781100000000
H            5.36848900000000        7.95299400000000        7.30917500000000
H           -6.32342000000000       -6.66901100000000        4.21476200000000
H           -8.11849300000000       -6.61435000000000        4.28421900000000
H           -7.29538200000000       -7.85792500000000        3.27963100000000
H           -8.48247200000000       -5.27251500000000        0.70812400000000
H           -8.62080300000000       -7.00389900000000        1.15481800000000
H           -9.43241700000000       -5.75419800000000        2.16322400000000
C           -0.67279600000000       -1.47965700000000       -4.64881300000000
C            0.28274400000000       -1.27252900000000       -5.68543300000000
C           -1.88064500000000       -2.17902400000000       -4.94407500000000
C            0.06905400000000       -1.81003700000000       -6.97419000000000
N            1.42296900000000       -0.49829800000000       -5.37103300000000
C           -2.08463900000000       -2.72365400000000       -6.23440000000000
N           -2.85279300000000       -2.25987800000000       -3.92772700000000
H            0.82291100000000       -1.64121400000000       -7.75173400000000
C           -1.10576300000000       -2.53551400000000       -7.21890400000000
C            2.36389000000000        0.04720600000000       -6.22819300000000
H            1.44780800000000       -0.16087700000000       -4.40370100000000
H           -3.00886800000000       -3.27950500000000       -6.43036300000000
C           -4.08847100000000       -2.89195600000000       -3.96359300000000
H           -2.63875700000000       -1.74428000000000       -3.06531900000000
H           -1.26957000000000       -2.96238800000000       -8.22140700000000
O            2.45732500000000       -0.21347900000000       -7.42825700000000
C            3.26374000000000        1.06443300000000       -5.56402000000000
O           -4.46944700000000       -3.61582800000000       -4.88626700000000
C           -4.95499500000000       -2.59715800000000       -2.76656700000000
C            3.57230500000000        2.31455200000000       -6.35423600000000
H            3.21156000000000        1.17759300000000       -4.46857300000000
C            4.65017700000000        1.26560400000000       -6.17885400000000
C           -5.85187300000000       -3.69206400000000       -2.24404500000000
H           -4.59239700000000       -1.86802300000000       -2.02212700000000
C           -6.46473900000000       -2.57716000000000       -3.06134600000000
H            3.12486200000000        2.38626200000000       -7.35791900000000
H            3.68454500000000        3.25261400000000       -5.78865100000000
H            4.88489300000000        0.63709500000000       -7.05110900000000
C            5.77692900000000        1.57854400000000       -5.24796200000000
H           -5.78313000000000       -4.66696100000000       -2.75237200000000
H           -6.02864500000000       -3.69815300000000       -1.15625400000000
H           -6.73388700000000       -2.81678200000000       -4.10118600000000
C           -7.30259700000000       -1.53889500000000       -2.39178800000000
O            6.94696000000000        1.11080500000000       -5.73994600000000
O            5.66382300000000        2.18969500000000       -4.19039100000000
O           -8.30558300000000       -1.13683000000000       -3.21838000000000
O           -7.13441200000000       -1.10180200000000       -1.26284900000000
C            8.16476700000000        1.35817200000000       -4.96722100000000
C           -9.22924900000000       -0.12539400000000       -2.71010600000000
C            9.06953900000000        0.15234300000000       -5.19832100000000
C            8.77598500000000        2.68677600000000       -5.41246300000000
H            7.86510400000000        1.42810500000000       -3.90008900000000
C           -8.66499900000000        1.26545300000000       -3.00013200000000
C          -10.57337900000000       -0.39948400000000       -3.37797400000000
H           -9.29969600000000       -0.26867200000000       -1.61062600000000
H            8.56634700000000       -0.78228700000000       -4.87966400000000
H            9.33462100000000        0.05679500000000       -6.27172000000000
H           10.00830600000000        0.26183900000000       -4.61751600000000
H            8.07726700000000        3.52600200000000       -5.22410900000000
H            9.71067600000000        2.88707500000000       -4.84884200000000
H            9.02099600000000        2.66413700000000       -6.49466500000000
H           -7.69594900000000        1.41012300000000       -2.48347200000000
H           -8.51521500000000        1.40949300000000       -4.09058000000000
H           -9.36409600000000        2.04750700000000       -2.63796700000000
H          -10.92712300000000       -1.42483300000000       -3.14896700000000
H          -11.33555700000000        0.32034400000000       -3.01527600000000
H          -10.49591200000000       -0.29766000000000       -4.48057100000000
H            4.33211400000000       -6.07293600000000        2.41678800000000
H            0.46916700000000       -7.89734000000000        1.58367400000000
H            1.13476900000000        7.21215700000000       -2.28289900000000
H           -3.17318400000000        7.24855800000000       -1.65508100000000
O            3.50742800000000       -3.57054900000000        1.75351200000000
O           -0.69275100000000       -5.55027800000000        0.85389300000000
O            1.40366000000000        4.60310700000000       -1.53106300000000
O           -3.26866900000000        4.65505700000000       -0.84426000000000
C            4.84126400000000       -3.61372000000000        2.14290500000000
C            5.83966100000000       -3.89643800000000        1.19261100000000
C            5.17567500000000       -3.29349900000000        3.47060400000000
C            7.18901600000000       -3.86041400000000        1.58546200000000
H            5.55198000000000       -4.13344600000000        0.15719200000000
C            6.52875600000000       -3.25917500000000        3.85024100000000
H            4.37077900000000       -3.06730900000000        4.18608400000000
C            7.53688900000000       -3.54375500000000        2.91144000000000
H            7.97390600000000       -4.07830000000000        0.84399700000000
H            6.79555000000000       -3.00601600000000        4.88866000000000
H            8.59569100000000       -3.51609800000000        3.21300600000000
C           -1.66084500000000       -6.53018000000000        1.02487600000000
C           -2.03248000000000       -6.97527900000000        2.30809000000000
C           -2.32058800000000       -7.00458300000000       -0.12191100000000
C           -3.06322900000000       -7.92119400000000        2.43339000000000
H           -1.51869100000000       -6.57504800000000        3.19516900000000
C           -3.35676700000000       -7.94335600000000        0.01801000000000
H           -2.01866000000000       -6.62088700000000       -1.10765300000000
C           -3.72645700000000       -8.40969700000000        1.29213100000000
H           -3.35578700000000       -8.27272900000000        3.43561600000000
H           -3.87741500000000       -8.31284100000000       -0.87954600000000
H           -4.53385500000000       -9.15100600000000        1.39724700000000
C            2.67223500000000        5.14879500000000       -1.43243300000000
C            2.98561900000000        6.21244700000000       -0.56193700000000
C            3.68336100000000        4.51568900000000       -2.17923300000000
C            4.31897400000000        6.64791000000000       -0.46566200000000
H            2.19494400000000        6.68866000000000        0.03688500000000
C            5.01243200000000        4.95227500000000       -2.06354700000000
H            3.42407900000000        3.67348500000000       -2.83657500000000
C            5.33537800000000        6.02523700000000       -1.21292400000000
H            4.56377900000000        7.48163300000000        0.21192700000000
H            5.78679500000000        4.43410800000000       -2.64997300000000
H            6.37670600000000        6.37307500000000       -1.12714900000000
C           -4.55107200000000        5.05723000000000       -1.18863000000000
C           -4.92482700000000        5.26955800000000       -2.52997600000000
C           -5.49726300000000        5.15776800000000       -0.15347000000000
C           -6.25679700000000        5.60326400000000       -2.82580600000000
H           -4.17708400000000        5.16459800000000       -3.33048200000000
C           -6.82807900000000        5.48383300000000       -0.46467300000000
H           -5.17672700000000        4.96688400000000        0.88146600000000
C           -7.21135200000000        5.71394900000000       -1.79788600000000
H           -6.55220700000000        5.76747900000000       -3.87433900000000
H           -7.57047600000000        5.55878800000000        0.34560400000000
H           -8.25429800000000        5.97302800000000       -2.03762000000000
N            1.46441400000000        0.33553400000000        0.15921900000000
C            2.55168800000000        1.08950200000000        0.69090200000000
C            3.11662000000000        0.70440800000000        1.91269100000000
C            4.18969700000000        1.41996500000000        2.44906700000000
C            4.70474500000000        2.52370600000000        1.76676200000000
C            4.14640900000000        2.91680800000000        0.54784400000000
C            3.06156200000000        2.20933100000000       -0.00021000000000
C            2.50441100000000        2.62294300000000       -1.34314700000000
C            3.08089000000000        1.77665600000000       -2.48717400000000
C            4.56746400000000        1.97728300000000       -2.63752000000000
C            5.06428900000000        3.10444800000000       -3.31284700000000
C            6.44315600000000        3.31376700000000       -3.41375300000000
C            7.33392100000000        2.40496400000000       -2.83589100000000
C            6.84733500000000        1.28596900000000       -2.15458600000000
C            5.46946000000000        1.07200300000000       -2.05260300000000
H            2.72618500000000       -0.15329200000000        2.44606000000000
H            4.62448500000000        1.11651000000000        3.39264400000000
H            5.54037300000000        3.07314200000000        2.18063100000000
H            4.56670100000000        3.76747300000000        0.02545700000000
H            2.71195600000000        3.69887500000000       -1.53499900000000
H            1.39828300000000        2.51624900000000       -1.33643900000000
H            2.84926500000000        0.70252300000000       -2.31638600000000
H            2.57565400000000        2.06428700000000       -3.43479200000000
H            4.38393100000000        3.82156700000000       -3.75524700000000
H            6.82110500000000        4.18300300000000       -3.93625400000000
H            8.40083700000000        2.56989300000000       -2.91267600000000
H            7.53787700000000        0.58645200000000       -1.70156700000000
H            5.10566900000000        0.20802400000000       -1.51020500000000

 Bond Distances (Angstroems)
 ---------------------------
N1-C4=1.3749         N1-C9=1.3796         N1-Fe47=2.0226       N2-C11=1.3786        N2-C16=1.3773        N2-Fe47=2.0178       
C3-C4=1.4136         C3-C39=1.4106        C3-C106=1.5022       C4-N1=1.3749         C4-C3=1.4136         C4-C5=1.4540         
C5-C4=1.4540         C5-H6=1.0961         C5-C7=1.3712         H6-C5=1.0961         C7-C5=1.3712         C7-H8=1.0955         
C7-C9=1.4525         H8-C7=1.0955         C9-N1=1.3796         C9-C7=1.4525         C9-C10=1.4092        C10-C9=1.4092        
C10-C11=1.4093       C10-C17=1.5001       C11-N2=1.3786        C11-C10=1.4093       C11-C12=1.4521       C12-C11=1.4521       
C12-H13=1.0959       C12-C14=1.3715       H13-C12=1.0959       C14-C12=1.3715       C14-H15=1.0962       C14-C16=1.4524       
H15-C14=1.0962       C16-N2=1.3773        C16-C14=1.4524       C16-C26=1.4110       C17-C10=1.5001       C17-C18=1.4182       
C17-C23=1.4192       C18-C17=1.4182       C18-C19=1.4091       C18-O167=1.3786      C19-C18=1.4091       C19-C20=1.4031       
C19-H163=1.0986      C20-C19=1.4031       C20-H21=1.1016       C20-C22=1.4019       H21-C20=1.1016       C22-C20=1.4019       
C22-C23=1.4108       C22-H164=1.0986      C23-C17=1.4192       C23-C22=1.4108       C23-O168=1.3740      N24-C27=1.3793       
N24-C32=1.3824       N24-Fe47=2.0066      N25-C34=1.3785       N25-C39=1.3805       N25-Fe47=2.0042      C26-C16=1.4110       
C26-C27=1.4123       C26-C49=1.5028       C27-N24=1.3793       C27-C26=1.4123       C27-C28=1.4512       C28-C27=1.4512       
C28-H29=1.0962       C28-C30=1.3730       H29-C28=1.0962       C30-C28=1.3730       C30-H31=1.0956       C30-C32=1.4497       
H31-C30=1.0956       C32-N24=1.3824       C32-C30=1.4497       C32-C33=1.4072       C33-C32=1.4072       C33-C34=1.4085       
C33-C40=1.4985       C34-N25=1.3785       C34-C33=1.4085       C34-C35=1.4505       C35-C34=1.4505       C35-H36=1.0958       
C35-C37=1.3716       H36-C35=1.0958       C37-C35=1.3716       C37-H38=1.0962       C37-C39=1.4520       H38-C37=1.0962       
C39-C3=1.4106        C39-N25=1.3805       C39-C37=1.4520       C40-C33=1.4985       C40-C41=1.4195       C40-C46=1.4183       
C41-C40=1.4195       C41-C42=1.4095       C41-O169=1.3764      C42-C41=1.4095       C42-C43=1.4033       C42-H165=1.0988      
C43-C42=1.4033       C43-H44=1.1016       C43-C45=1.4030       H44-C43=1.1016       C45-C43=1.4030       C45-C46=1.4104       
C45-H166=1.0989      C46-C40=1.4183       C46-C45=1.4104       C46-O170=1.3743      Fe47-N1=2.0226       Fe47-N2=2.0178       
Fe47-N24=2.0066      Fe47-N25=2.0042      Fe47-Cl48=2.3353     Fe47-N215=1.7035     Cl48-Fe47=2.3353     C49-C26=1.5028       
C49-C50=1.4240       C49-C51=1.4279       C50-C49=1.4240       C50-C52=1.4131       C50-N53=1.4147       C51-C49=1.4279       
C51-C54=1.4159       C51-N55=1.4093       C52-C50=1.4131       C52-H56=1.0957       C52-C57=1.4013       N53-C50=1.4147       
N53-C58=1.3826       N53-H59=1.0253       C54-C51=1.4159       C54-C57=1.4003       C54-H60=1.0959       N55-C51=1.4093       
N55-C61=1.3895       N55-H62=1.0284       H56-C52=1.0957       C57-C52=1.4013       C57-C54=1.4003       C57-H63=1.1019       
C58-N53=1.3826       C58-O64=1.2328       C58-C65=1.5125       H59-N53=1.0253       H60-C54=1.0959       C61-N55=1.3895       
C61-O66=1.2333       C61-C67=1.5075       H62-N55=1.0284       H63-C57=1.1019       O64-C58=1.2328       C65-C58=1.5125       
C65-C68=1.5086       C65-H69=1.1026       C65-C70=1.5353       O66-C61=1.2333       C67-C61=1.5075       C67-C71=1.5104       
C67-H72=1.1033       C67-C73=1.5364       C68-C65=1.5086       C68-C70=1.5130       C68-H74=1.1013       C68-H75=1.1012       
H69-C65=1.1026       C70-C65=1.5353       C70-C68=1.5130       C70-H76=1.1005       C70-C77=1.4936       C71-C67=1.5104       
C71-C73=1.5129       C71-H78=1.1017       C71-H79=1.1021       H72-C67=1.1033       C73-C67=1.5364       C73-C71=1.5129       
C73-H80=1.1004       C73-C81=1.4921       H74-C68=1.1013       H75-C68=1.1012       H76-C70=1.1005       C77-C70=1.4936       
C77-O82=1.3547       C77-O83=1.2257       H78-C71=1.1017       H79-C71=1.1021       H80-C73=1.1004       C81-C73=1.4921       
C81-O84=1.3612       C81-O85=1.2222       O82-C77=1.3547       O82-C86=1.4640       O83-C77=1.2257       O84-C81=1.3612       
O84-C87=1.4601       O85-C81=1.2222       C86-O82=1.4640       C86-C88=1.5284       C86-C89=1.5256       C86-H90=1.1104       
C87-O84=1.4601       C87-C91=1.5257       C87-C92=1.5294       C87-H93=1.1109       C88-C86=1.5284       C88-H94=1.1083       
C88-H95=1.1098       C88-H96=1.1097       C89-C86=1.5256       C89-H97=1.1084       C89-H98=1.1092       C89-H99=1.1097       
H90-C86=1.1104       C91-C87=1.5257       C91-H100=1.1084      C91-H101=1.1100      C91-H102=1.1093      C92-C87=1.5294       
C92-H103=1.1078      C92-H104=1.1099      C92-H105=1.1101      H93-C87=1.1109       H94-C88=1.1083       H95-C88=1.1098       
H96-C88=1.1097       H97-C89=1.1084       H98-C89=1.1092       H99-C89=1.1097       H100-C91=1.1084      H101-C91=1.1100      
H102-C91=1.1093      H103-C92=1.1078      H104-C92=1.1099      H105-C92=1.1101      C106-C3=1.5022       C106-C107=1.4250     
C106-C108=1.4266     C107-C106=1.4250     C107-C109=1.4126     C107-N110=1.4136     C108-C106=1.4266     C108-C111=1.4153     
C108-N112=1.4087     C109-C107=1.4126     C109-H113=1.0961     C109-C114=1.4023     N110-C107=1.4136     N110-C115=1.3848     
N110-H116=1.0248     C111-C108=1.4153     C111-C114=1.4010     C111-H117=1.0962     N112-C108=1.4087     N112-C118=1.3884     
N112-H119=1.0273     H113-C109=1.0961     C114-C109=1.4023     C114-C111=1.4010     C114-H120=1.1018     C115-N110=1.3848     
C115-O121=1.2316     C115-C122=1.5118     H116-N110=1.0248     H117-C111=1.0962     C118-N112=1.3884     C118-O123=1.2331     
C118-C124=1.5069     H119-N112=1.0273     H120-C114=1.1018     O121-C115=1.2316     C122-C115=1.5118     C122-C125=1.5108     
C122-H126=1.1025     C122-C127=1.5299     O123-C118=1.2331     C124-C118=1.5069     C124-C128=1.5087     C124-H129=1.1033     
C124-C130=1.5384     C125-C122=1.5108     C125-C127=1.5142     C125-H131=1.1012     C125-H132=1.1011     H126-C122=1.1025     
C127-C122=1.5299     C127-C125=1.5142     C127-H133=1.1004     C127-C134=1.4947     C128-C124=1.5087     C128-C130=1.5121     
C128-H135=1.1016     C128-H136=1.1021     H129-C124=1.1033     C130-C124=1.5384     C130-C128=1.5121     C130-H137=1.1005     
C130-C138=1.4928     H131-C125=1.1012     H132-C125=1.1011     H133-C127=1.1004     C134-C127=1.4947     C134-O139=1.3527     
C134-O140=1.2267     H135-C128=1.1016     H136-C128=1.1021     H137-C130=1.1005     C138-C130=1.4928     C138-O141=1.3605     
C138-O142=1.2222     O139-C134=1.3527     O139-C143=1.4633     O140-C134=1.2267     O140-C225=1.4022     O140-C226=1.5729     
O141-C138=1.3605     O141-C144=1.4610     O142-C138=1.2222     C143-O139=1.4633     C143-C145=1.5251     C143-C146=1.5287     
C143-H147=1.1106     C144-O141=1.4610     C144-C148=1.5287     C144-C149=1.5257     C144-H150=1.1110     C145-C143=1.5251     
C145-H151=1.1083     C145-H152=1.1098     C145-H153=1.1093     C146-C143=1.5287     C146-H154=1.1081     C146-H155=1.1097     
C146-H156=1.1098     H147-C143=1.1106     C148-C144=1.5287     C148-H157=1.1077     C148-H158=1.1101     C148-H159=1.1097     
C149-C144=1.5257     C149-H160=1.1086     C149-H161=1.1093     C149-H162=1.1100     H150-C144=1.1110     H151-C145=1.1083     
H152-C145=1.1098     H153-C145=1.1093     H154-C146=1.1081     H155-C146=1.1097     H156-C146=1.1098     H157-C148=1.1077     
H158-C148=1.1101     H159-C148=1.1097     H160-C149=1.1086     H161-C149=1.1093     H162-C149=1.1100     H163-C19=1.0986      
H164-C22=1.0986      H165-C42=1.0988      H166-C45=1.0989      O167-C18=1.3786      O167-C171=1.3902     O168-C23=1.3740      
O168-C182=1.3880     O169-C41=1.3764      O169-C193=1.3845     O170-C46=1.3743      O170-C204=1.3874     C171-O167=1.3902     
C171-C172=1.4070     C171-C173=1.4061     C172-C171=1.4070     C172-C174=1.4058     C172-H175=1.1005     C173-C171=1.4061     
C173-C176=1.4057     C173-H177=1.1004     C174-C172=1.4058     C174-C178=1.4069     C174-H179=1.1015     H175-C172=1.1005     
C176-C173=1.4057     C176-C178=1.4067     C176-H180=1.1016     H177-C173=1.1004     C178-C174=1.4069     C178-C176=1.4067     
C178-H181=1.1013     H179-C174=1.1015     H180-C176=1.1016     H181-C178=1.1013     C182-O168=1.3880     C182-C183=1.4081     
C182-C184=1.4055     C183-C182=1.4081     C183-C185=1.4046     C183-H186=1.1005     C184-C182=1.4055     C184-C187=1.4052     
C184-H188=1.1000     C185-C183=1.4046     C185-C189=1.4075     C185-H190=1.1016     H186-C183=1.1005     C187-C184=1.4052     
C187-C189=1.4062     C187-H191=1.1015     H188-C184=1.1000     C189-C185=1.4075     C189-C187=1.4062     C189-H192=1.1011     
H190-C185=1.1016     H191-C187=1.1015     H192-C189=1.1011     C193-O169=1.3845     C193-C194=1.4097     C193-C195=1.4074     
C194-C193=1.4097     C194-C196=1.4060     C194-H197=1.1002     C195-C193=1.4074     C195-C198=1.4037     C195-H199=1.0994     
C196-C194=1.4060     C196-C200=1.4068     C196-H201=1.1019     H197-C194=1.1002     C198-C195=1.4037     C198-C200=1.4068     
C198-H202=1.1009     H199-C195=1.0994     C200-C196=1.4068     C200-C198=1.4068     C200-H203=1.1012     H201-C196=1.1019     
H202-C198=1.1009     H203-C200=1.1012     C204-O170=1.3874     C204-C205=1.4085     C204-C206=1.4060     C205-C204=1.4085     
C205-C207=1.4046     C205-H208=1.1004     C206-C204=1.4060     C206-C209=1.4051     C206-H210=1.1001     C207-C205=1.4046     
C207-C211=1.4071     C207-H212=1.1017     H208-C205=1.1004     C209-C206=1.4051     C209-C211=1.4062     C209-H213=1.1015     
H210-C206=1.1001     C211-C207=1.4071     C211-C209=1.4062     C211-H214=1.1011     H212-C207=1.1017     H213-C209=1.1015     
H214-C211=1.1011     N215-Fe47=1.7035     N215-C216=1.4259     C216-N215=1.4259     C216-C217=1.4001     C216-C221=1.4112     
C217-C216=1.4001     C217-C218=1.3969     C217-H230=1.0829     C218-C217=1.3969     C218-C219=1.3961     C218-H231=1.0823     
C219-C218=1.3961     C219-C220=1.3972     C219-H232=1.0823     C220-C219=1.3972     C220-C221=1.4063     C220-H233=1.0831     
C221-C216=1.4112     C221-C220=1.4063     C221-C222=1.5116     C222-C221=1.5116     C222-C223=1.5354     C222-H234=1.1124     
C222-H235=1.1113     C223-C222=1.5354     C223-C224=1.5076     C223-H236=1.1120     C223-H237=1.1117     C224-C223=1.5076     
C224-C225=1.4048     C224-C229=1.4054     C225-O140=1.4022     C225-C224=1.4048     C225-C226=1.3983     C225-H238=1.0830     
C226-O140=1.5729     C226-C225=1.3983     C226-C227=1.3976     C226-H239=1.0823     C227-C226=1.3976     C227-C228=1.3975     
C227-H240=1.0823     C228-C227=1.3975     C228-C229=1.3981     C228-H241=1.0823     C229-C224=1.4054     C229-C228=1.3981     
C229-H242=1.0831     H230-C217=1.0829     H231-C218=1.0823     H232-C219=1.0823     H233-C220=1.0831     H234-C222=1.1124     
H235-C222=1.1113     H236-C223=1.1120     H237-C223=1.1117     H238-C225=1.0830     H239-C226=1.0823     H240-C227=1.0823     
H241-C228=1.0823     H242-C229=1.0831     
 C  H  Rav=1.1016 sigma=0.0078  Rmin=1.0823  Rmax=1.1124    97
 C  C  Rav=1.4422 sigma=0.0506  Rmin=1.3712  Rmax=1.5384   115
 N  H  Rav=1.0264 sigma=0.0015  Rmin=1.0248  Rmax=1.0284     4
 N  C  Rav=1.3911 sigma=0.0158  Rmin=1.3749  Rmax=1.4259    17
 O  C  Rav=1.3513 sigma=0.0940  Rmin=1.2222  Rmax=1.5729    26
 Fe N  Rav=1.9509 sigma=0.1239  Rmin=1.7035  Rmax=2.0226     5
 Fe Cl Rav=2.3353 sigma=0.0000  Rmin=2.3353  Rmax=2.3353     1

 selected bond angles (degree)
 --------------------
C9-N1-C4=106.49                Fe47-N1-C4=126.68              Fe47-N1-C9=126.81              C16-N2-C11=106.58              
Fe47-N2-C11=126.86             Fe47-N2-C16=126.56             C39-C3-C4=122.88               C106-C3-C4=117.56              
C106-C3-C39=119.57             C3-C4-N1=126.19                C5-C4-N1=110.13                C5-C4-C3=123.64                
H6-C5-C4=124.69                C7-C5-C4=106.60                C7-C5-H6=128.70                H8-C7-C5=128.42                
C9-C7-C5=106.80                C9-C7-H8=124.77                C7-C9-N1=109.93                C10-C9-N1=126.10               
C10-C9-C7=123.78               C11-C10-C9=122.54              C17-C10-C9=118.87              C17-C10-C11=118.36             

 selected dihedral angles (degree)
 ---------------------------------
C3-C4-N1-C9=182.33            C3-C4-N1-Fe47=  0.66          C5-C4-N1-C9=  0.00            C5-C4-N1-Fe47=178.32          
N1-C4-C3-C39=  6.40           N1-C4-C3-C106=186.45          C5-C4-C3-C39=189.04           C5-C4-C3-C106=  9.08          
H6-C5-C4-N1=179.38            H6-C5-C4-C3=357.11            C7-C5-C4-N1=358.58            C7-C5-C4-C3=176.31            
H8-C7-C5-C4=180.68            H8-C7-C5-H6=359.83            C9-C7-C5-C4=  2.17            C9-C7-C5-H6=181.33            
C7-C9-N1-C4=  1.38            C7-C9-N1-Fe47=183.06          C10-C9-N1-C4=186.37           C10-C9-N1-Fe47=  8.04         
N1-C9-C7-C5=357.71            N1-C9-C7-H8=179.13            C10-C9-C7-C5=172.86           C10-C9-C7-H8=354.29           
C11-C10-C9-N1=  5.33          C11-C10-C9-C7=190.97          C17-C10-C9-N1=179.75          C17-C10-C9-C7=  5.39          
           -------------------------------------------------
          |                Final Singlepoint                |
           -------------------------------------------------

          ...................................................
          :                      SETUP                      :
          :.................................................:
          :  # basis functions                 677          :
          :  # atomic orbitals                 675          :
          :  # shells                          385          :
          :  # electrons                       713          :
          :  max. iterations                   250          :
          :  Hamiltonian                  GFN2-xTB          :
          :  restarted?                      false          :
          :  GBSA solvation                   true          :
          :  PC potential                    false          :
          :  electronic temp.          300.0000000     K    :
          :  accuracy                    1.0000000          :
          :  -> integral cutoff          0.2500000E+02      :
          :  -> integral neglect         0.1000000E-07      :
          :  -> SCF convergence          0.1000000E-05 Eh   :
          :  -> wf. convergence          0.1000000E-03 e    :
          :  Broyden damping             0.4000000          :
          :  net charge                          0          :
          :  unpaired electrons                  1          :
          ...................................................

 iter      E             dE          RMSdq      gap      omega  full diag
   1   -284.8123390 -0.284812E+03  0.299E+01    0.08       0.0  T
   2     26.2689484  0.311081E+03  0.251E+01    0.21       1.0  T
   3    196.6035785  0.170335E+03  0.216E+01    0.01       1.0  T
   4    -33.0739652 -0.229678E+03  0.175E+01    0.02       1.0  T
   5   -312.6646142 -0.279591E+03  0.114E+01    0.22       1.0  T
   6   -369.5578461 -0.568932E+02  0.791E+00    0.12       1.0  T
   7   -378.7929162 -0.923507E+01  0.720E+00    0.10       1.0  T
   8   -391.8860803 -0.130932E+02  0.607E+00    0.01       1.0  T
   9   -396.6854477 -0.479937E+01  0.497E+00    0.29       1.0  T
  10   -385.3077969  0.113777E+02  0.559E+00    0.05       1.0  T
  11   -391.5841159 -0.627632E+01  0.443E+00    0.00       1.0  T
  12   -402.1214054 -0.105373E+02  0.271E+00    0.27       1.0  T
  13   -402.9719559 -0.850551E+00  0.193E+00    0.61       1.0  T
  14   -400.6631135  0.230884E+01  0.283E+00    0.04       1.0  T
  15   -402.8432163 -0.218010E+01  0.173E+00    0.23       1.0  T
  16   -401.8452907  0.997926E+00  0.208E+00    0.11       1.0  T
  17   -403.2176083 -0.137232E+01  0.975E-01    0.17       1.0  T
  18   -403.1408879  0.767204E-01  0.787E-01    0.16       1.0  T
  19   -403.2959264 -0.155038E+00  0.578E-01    0.05       1.0  T
  20   -403.4113224 -0.115396E+00  0.382E-01    0.19       1.0  T
  21   -403.4271089 -0.157866E-01  0.373E-01    0.03       1.0  T
  22   -403.3996141  0.274948E-01  0.362E-01    0.12       1.0  T
  23   -403.4198774 -0.202633E-01  0.484E-01    0.08       1.0  T
  24   -403.3631559  0.567215E-01  0.597E-01    0.09       1.0  T
  25   -403.4000222 -0.368664E-01  0.513E-01    0.09       1.0  T
  26   -403.4389976 -0.389753E-01  0.309E-01    0.03       1.0  T
  27   -403.4514668 -0.124692E-01  0.234E-01    0.03       1.0  T
  28   -403.4779716 -0.265049E-01  0.865E-02    0.04       1.0  T
  29   -403.4789121 -0.940485E-03  0.481E-02    0.04       1.0  T
  30   -403.4538284  0.250837E-01  0.241E-01    0.05       1.0  T
  31   -403.4739800 -0.201516E-01  0.109E-01    0.04       1.0  T
  32   -403.4778307 -0.385063E-02  0.562E-02    0.04       1.0  T
  33   -403.4778914 -0.607234E-04  0.541E-02    0.04       1.0  T
  34   -403.4793006 -0.140918E-02  0.189E-02    0.04       1.0  T
  35   -403.4791002  0.200383E-03  0.305E-02    0.04       1.0  T
  36   -403.4787376  0.362551E-03  0.401E-02    0.04       1.0  T
  37   -403.4793685 -0.630826E-03  0.530E-03    0.04       1.2  T
  38   -403.4793271  0.413187E-04  0.121E-02    0.04       1.0  T
  39   -403.4793832 -0.560485E-04  0.175E-03    0.04       3.7  T
  40   -403.4793769  0.628260E-05  0.401E-03    0.04       1.6  T
  41   -403.4793824 -0.544500E-05  0.225E-03    0.04       2.9  T
  42   -403.4793827 -0.350230E-06  0.159E-03    0.04       4.0  T
  43   -403.4793816  0.111429E-05  0.241E-03    0.04       2.7  T
  44   -403.4793839 -0.233731E-05  0.414E-04    0.04      15.5  T
  45   -403.4793838  0.158284E-06  0.668E-04    0.04       9.6  T
  46   -403.4793839 -0.129017E-06  0.405E-04    0.04      15.9  T

   *** convergence criteria satisfied after 46 iterations ***

         #    Occupation            Energy/Eh            Energy/eV
      -------------------------------------------------------------
         1        2.0000           -2.6848852             -73.0594
       ...           ...                  ...                  ...
       351        2.0000           -0.3764415             -10.2435
       352        2.0000           -0.3753428             -10.2136
       353        2.0000           -0.3729473             -10.1484
       354        1.9999           -0.3713631             -10.1053
       355        1.9996           -0.3704336             -10.0800
       356        1.9312           -0.3653598              -9.9419
       357        0.6741           -0.3600778              -9.7982 (HOMO)
       358        0.2704           -0.3586031              -9.7581 (LUMO)
       359        0.0986           -0.3574616              -9.7270
       360        0.0262           -0.3561328              -9.6909
       361                         -0.3390280              -9.2254
       362                         -0.3320958              -9.0368
       ...                                ...                  ...
       675                          1.5551330              42.3173
      -------------------------------------------------------------
                  HL-Gap            0.0014748 Eh            0.0401 eV
             Fermi-level           -0.3612252 Eh           -9.8294 eV

 SCC (total)                   0 d,  0 h,  0 min,  5.727 sec
 SCC setup                      ...        0 min,  0.009 sec (  0.151%)
 Dispersion                     ...        0 min,  0.006 sec (  0.099%)
 classical contributions        ...        0 min,  0.002 sec (  0.032%)
 integral evaluation            ...        0 min,  0.073 sec (  1.269%)
 iterations                     ...        0 min,  4.951 sec ( 86.444%)
 molecular gradient             ...        0 min,  0.619 sec ( 10.803%)
 printout                       ...        0 min,  0.069 sec (  1.202%)

         :::::::::::::::::::::::::::::::::::::::::::::::::::::
         ::                     SUMMARY                     ::
         :::::::::::::::::::::::::::::::::::::::::::::::::::::
         :: total energy            -398.283228016174 Eh    ::
         :: total w/o Gsasa/hb      -398.168649181037 Eh    ::
         :: gradient norm              0.541867346052 Eh/a0 ::
         :: HOMO-LUMO gap              0.040130533970 eV    ::
         ::.................................................::
         :: SCC energy              -403.456711139692 Eh    ::
         :: -> isotropic ES           -6.837664971104 Eh    ::
         :: -> anisotropic ES         -0.511772431836 Eh    ::
         :: -> anisotropic XC          0.118283877880 Eh    ::
         :: -> dispersion             -0.369101293965 Eh    ::
         :: -> Gsolv                  -0.727619680851 Eh    ::
         ::    -> Gelec               -0.613040845714 Eh    ::
         ::    -> Gsasa               -0.110931665005 Eh    ::
         ::    -> Ghb                 -0.008600607709 Eh    ::
         ::    -> Gshift               0.004953437577 Eh    ::
         :: repulsion energy           5.173483123518 Eh    ::
         :: add. restraining           0.000000000000 Eh    ::
         :: total charge              -0.000000000001 e     ::
         :::::::::::::::::::::::::::::::::::::::::::::::::::::


last geometry written to: xtblast.xyz

########################################################################
[ERROR] Program stopped due to fatal error
-7- Geometry optimization failed
-6- xtb_geoopt: Trying to recover from failed geometry optimization
-5- xtb_geoopt: Geometry optimization did not converge
-4- optimizer_ancopt: Could not relax/optimize structure
-3- optimizer_relax: SCF not converged, aborting...
-2- xtb_calculator_singlepoint: Electronic structure method terminated
-1- scf: Self consistent charge iterator did not converge
########################################################################
