25

N     -2.406548   -2.195223    0.064764
C     -2.171172   -0.817950   -0.220006
C     -3.041519    0.145789    0.303425
C     -2.826667    1.502035    0.047258
C     -1.739980    1.902605   -0.732316
C     -0.866906    0.948105   -1.260395
C     -1.075587   -0.421012   -1.016243
C     -0.094340   -1.433645   -1.561511
C      0.946195   -1.842465   -0.511437
C      1.828991   -0.691338   -0.135947
C      1.676320    0.115332    0.973931
C      2.681831    1.053760    0.889360
C      3.381859    0.762834   -0.264528
O      2.847853   -0.281501   -0.855235
H     -3.884164   -0.156114    0.912840
H     -3.501163    2.243204    0.456155
H     -1.571517    2.954284   -0.924793
H     -0.022222    1.277089   -1.853189
H      0.422900   -1.029676   -2.459958
H     -0.642725   -2.339485   -1.898710
H      0.440938   -2.245477    0.393072
H      1.580510   -2.652830   -0.929767
H      0.918411    0.037836    1.742324
H      2.878966    1.859301    1.583795
H      4.239735    1.304540   -0.639597
