25

N     -1.910334    2.469159    0.717323
C     -2.373451    1.187267    0.296305
C     -3.751807    0.950522    0.239017
C     -4.236445   -0.292334   -0.168606
C     -3.346138   -1.305903   -0.521376
C     -1.967611   -1.081927   -0.468345
C     -1.457805    0.170632   -0.057889
C      0.031984    0.468951    0.018248
C      0.964672   -0.687487   -0.382965
C      2.426680   -0.341138   -0.290569
C      2.991716    0.861632    0.103182
C      4.354867    0.679408    0.020227
C      4.542245   -0.615133   -0.416337
O      3.377779   -1.195583   -0.592012
H     -4.449624    1.732559    0.511381
H     -5.303299   -0.470027   -0.211092
H     -3.724882   -2.269487   -0.837358
H     -1.316602   -1.896400   -0.750780
H      0.242304    1.336387   -0.645213
H      0.269296    0.765303    1.063578
H      0.753026   -0.984860   -1.432425
H      0.780352   -1.557868    0.282658
H      2.483828    1.764752    0.413827
H      5.122936    1.405306    0.250989
H      5.496313   -1.093732   -0.591955
