25

N      1.974093   -2.583003    0.441054
C      1.950726   -1.158607    0.503702
C      2.672052   -0.507726    1.511827
C      2.657040    0.886216    1.600631
C      1.919909    1.637220    0.683183
C      1.198239    0.996753   -0.327358
C      1.210400   -0.405536   -0.432601
C      0.388075   -1.079733   -1.507229
C     -0.967191   -1.558756   -0.972164
C     -1.833902   -0.407130   -0.562301
C     -1.992626    0.066553    0.724667
C     -2.840240    1.147784    0.618161
C     -3.143214    1.266863   -0.723541
O     -2.526228    0.326883   -1.402142
H      3.242695   -1.082957    2.230200
H      3.214540    1.384381    2.383252
H      1.904494    2.716921    0.757121
H      0.622286    1.594116   -1.023462
H      0.226397   -0.388997   -2.364364
H      0.946015   -1.951914   -1.910935
H     -0.818710   -2.248107   -0.112751
H     -1.489047   -2.127285   -1.771220
H     -1.536808   -0.319431    1.626946
H     -3.192217    1.779273    1.422731
H     -3.786780    2.016218   -1.164408
