25

N     -1.978749    1.682235    1.173917
C     -2.351506    0.542562    0.402065
C     -3.636909    0.007851    0.551571
C     -4.021339   -1.117135   -0.181847
C     -3.121597   -1.716660   -1.065253
C     -1.836575   -1.190076   -1.221456
C     -1.441887   -0.049289   -0.500651
C     -0.038631    0.482046   -0.661509
C      0.895330   -0.140036    0.379297
C      2.285060    0.390250    0.218322
C      3.259631   -0.134869   -0.606195
C      4.354484    0.688455   -0.454453
C      3.978562    1.664292    0.447034
O      2.738187    1.461137    0.827878
H     -4.338267    0.462234    1.240230
H     -5.015666   -1.527433   -0.061517
H     -3.418828   -2.592582   -1.627337
H     -1.147870   -1.672836   -1.903924
H     -0.034661    1.589425   -0.560254
H      0.337246    0.250840   -1.683067
H      0.534624    0.100079    1.402846
H      0.906389   -1.246187    0.264956
H      3.181017   -1.005900   -1.243304
H      5.313192    0.592138   -0.946073
H      4.598761    2.479458    0.794871
