25

N      1.582834   -2.592267    1.096791
C      2.204611   -1.406706    0.604025
C      3.602170   -1.330053    0.591661
C      4.240358   -0.184547    0.116003
C      3.485321    0.891106   -0.350157
C      2.089210    0.826781   -0.343005
C      1.424819   -0.325276    0.135152
C     -0.091095   -0.449124    0.165641
C     -0.870107    0.769479   -0.360077
C     -2.364542    0.596583   -0.307767
C     -3.077425   -0.502284    0.145278
C     -4.406862   -0.175852   -0.010634
C     -4.428899    1.094670   -0.546194
O     -3.200048    1.526516   -0.711114
H      4.195535   -2.161212    0.951945
H      5.321371   -0.130564    0.108698
H      3.983096    1.778867   -0.718785
H      1.546394    1.684034   -0.713703
H     -0.398765   -0.635543    1.217996
H     -0.374871   -1.336420   -0.441840
H     -0.588206    0.959052   -1.417992
H     -0.611313    1.662883    0.247748
H     -2.687831   -1.430300    0.541608
H     -5.260825   -0.791889    0.237068
H     -5.314930    1.662064   -0.797509
