25

N      1.627672   -2.783240    0.599684
C      1.728566   -1.367002    0.731854
C      2.336902   -0.829474    1.872586
C      2.438937    0.554688    2.030282
C      1.932304    1.409233    1.049386
C      1.325001    0.882181   -0.093241
C      1.222018   -0.509394   -0.268034
C      0.522938   -1.057477   -1.491340
C     -0.939519   -1.416290   -1.199835
C     -1.748617   -0.198685   -0.870878
C     -2.066392    0.241433    0.398443
C     -2.780555    1.405924    0.217377
C     -2.851954    1.603781   -1.147135
O     -2.225252    0.631614   -1.769125
H      2.728382   -1.485190    2.640287
H      2.908101    0.965148    2.915089
H      2.006788    2.481553    1.176027
H      0.926818    1.559627   -0.838656
H      0.566402   -0.323189   -2.326125
H      1.053918   -1.966281   -1.847867
H     -1.377607   -1.899716   -2.098960
H     -0.996186   -2.147946   -0.364785
H     -1.799422   -0.221210    1.339477
H     -3.196039    2.040032    0.988922
H     -3.343203    2.429877   -1.643433
