25

N      1.946888   -1.321445    2.187481
C      1.928297   -0.342723    1.150594
C      2.619933    0.860542    1.335178
C      2.608694    1.839300    0.338639
C      1.905005    1.621390   -0.847286
C      1.213162    0.423103   -1.041337
C      1.222037   -0.573605   -0.049302
C      0.431494   -1.844548   -0.262222
C     -0.942532   -1.782168    0.416498
C     -1.816499   -0.737282   -0.207852
C     -2.014252    0.542208    0.271369
C     -2.852867    1.151066   -0.636855
C     -3.112011    0.208194   -1.611517
O     -2.478000   -0.906701   -1.329073
H      3.164455    1.039412    2.253918
H      3.143117    2.768697    0.487257
H      1.892348    2.383321   -1.615894
H      0.662726    0.275433   -1.962390
H      0.300740   -2.044085   -1.348969
H      0.997979   -2.708516    0.147205
H     -0.825035   -1.580281    1.503361
H     -1.441114   -2.769277    0.311221
H     -1.589509    0.981493    1.164388
H     -3.227532    2.164993   -0.597108
H     -3.737525    0.351478   -2.482307
