25

N      1.291491   -1.938545    1.748734
C      2.027645   -1.167712    0.801394
C      3.418946   -1.076316    0.929671
C      4.161215   -0.315251    0.023525
C      3.516495    0.362408   -1.013048
C      2.128296    0.277046   -1.149388
C      1.370942   -0.497633   -0.253273
C     -0.130036   -0.548655   -0.400861
C     -0.791454    0.544500    0.441802
C     -2.279361    0.489877    0.294783
C     -3.019589    1.135870   -0.674814
C     -4.329044    0.774849   -0.441189
C     -4.305015   -0.070224    0.650381
O     -3.068232   -0.223013    1.064947
H      3.925933   -1.592642    1.735271
H      5.236344   -0.246694    0.127964
H      4.092505    0.957426   -1.709962
H      1.642912    0.816478   -1.953471
H     -0.408586   -0.413209   -1.469687
H     -0.511228   -1.546919   -0.093091
H     -0.530189    0.406339    1.513284
H     -0.424869    1.544067    0.120473
H     -2.651057    1.784749   -1.458348
H     -5.199329    1.086955   -1.002687
H     -5.164734   -0.543750    1.105126
