25

N      2.160120   -2.061476   -1.356368
C      2.056208   -0.774352   -0.751478
C      2.830289    0.279556   -1.251830
C      2.739041    1.552126   -0.683125
C      1.872623    1.778675    0.387891
C      1.097336    0.732828    0.895169
C      1.184674   -0.554849    0.336690
C      0.305269   -1.661416    0.873107
C     -0.960473   -1.845248    0.026581
C     -1.852212   -0.643489    0.103982
C     -1.914781    0.377138   -0.823522
C     -2.832997    1.274684   -0.323380
C     -3.270497    0.747862    0.875450
O     -2.665643   -0.395217    1.104041
H      3.501429    0.113426   -2.085232
H      3.337953    2.363977   -1.075144
H      1.798681    2.766747    0.823438
H      0.421719    0.928902    1.718712
H      0.020037   -1.454819    1.928520
H      0.873810   -2.616188    0.885232
H     -1.521245   -2.726657    0.404340
H     -0.688219   -2.049641   -1.031691
H     -1.351503    0.463455   -1.743374
H     -3.143641    2.206718   -0.775942
H     -3.997980    1.197258    1.537933
