25

N     -1.394901    1.764852    2.047805
C     -2.092570    0.955481    1.103490
C     -3.464391    0.734384    1.275977
C     -4.167533   -0.066887    0.373294
C     -3.502505   -0.655355   -0.704117
C     -2.133518   -0.440349   -0.884723
C     -1.416953    0.376115    0.007832
C      0.066965    0.567499   -0.188835
C      0.854359   -0.482716    0.598317
C      2.324967   -0.288957    0.402766
C      3.084684   -0.839200   -0.609867
C      4.363901   -0.366663   -0.410112
C      4.303487    0.443796    0.706025
O      3.073843    0.472381    1.166461
H     -3.986201    1.180893    2.113214
H     -5.227601   -0.235826    0.511954
H     -4.047526   -1.281722   -1.398477
H     -1.631068   -0.911892   -1.720381
H      0.367601    1.587866    0.135244
H      0.317562    0.486216   -1.270002
H      0.620825   -0.397217    1.681630
H      0.567875   -1.502689    0.260164
H      2.747906   -1.498189   -1.399234
H      5.237802   -0.583385   -1.009625
H      5.132991    0.981565    1.145186
