25

N     -0.774884   -0.720627   -3.111114
C     -1.108371   -1.040734   -1.762153
C     -1.425868   -2.364052   -1.433063
C     -1.746115   -2.704981   -0.116860
C     -1.749444   -1.725449    0.877922
C     -1.435567   -0.401856    0.558893
C     -1.118286   -0.043558   -0.763452
C     -0.739946    1.385893   -1.078277
C      0.781252    1.578743   -1.113946
C      1.394183    1.361132    0.236010
C      1.996748    0.197955    0.671655
C      2.373484    0.442872    1.974320
C      1.976626    1.735819    2.251678
O      1.393527    2.256278    1.196287
H     -1.421176   -3.130736   -2.197757
H     -1.988602   -3.729868    0.132703
H     -1.991895   -1.992483    1.898394
H     -1.431397    0.343098    1.345119
H     -1.164138    1.674977   -2.063907
H     -1.185368    2.079892   -0.331348
H      1.004912    2.616637   -1.440751
H      1.238508    0.888054   -1.855368
H      2.132770   -0.719342    0.114043
H      2.873760   -0.241881    2.645766
H      2.115288    2.254217    3.190884
