31

C     -2.636424    1.573762   -1.049255
C     -2.422674    0.404516   -0.123475
C     -3.434691    0.075345    0.796698
C     -3.283790   -1.007114    1.664355
C     -2.124054   -1.778139    1.624682
C     -1.110190   -1.469928    0.717327
C     -1.239441   -0.381389   -0.164933
C     -0.096810   -0.096516   -1.120603
C      1.152893    0.335107   -0.375617
C      1.063763    1.459366    0.468839
C      2.172992    1.907318    1.185275
C      3.393670    1.249478    1.063578
C      3.512873    0.147738    0.216676
C      2.408807   -0.318843   -0.518417
S      2.651414   -1.693274   -1.611938
N      1.697174   -3.035821   -1.091096
O      4.096122   -2.108399   -1.618413
O      2.261415   -1.302433   -3.009707
H     -3.596324    2.092815   -0.841555
H     -1.820063    2.314790   -0.923520
H     -2.661293    1.219556   -2.101114
H     -4.346921    0.657233    0.844550
H     -4.069346   -1.249186    2.368569
H     -2.009529   -2.617059    2.298961
H     -0.215616   -2.079371    0.705886
H     -0.345498    0.692777   -1.856779
H      0.059897   -1.011103   -1.720826
H      0.126450    1.989068    0.580476
H      2.085019    2.767292    1.836663
H      4.253194    1.598494    1.621310
H      4.476977   -0.336079    0.133404
