31

C      2.484711   -1.673416   -1.246712
C      2.385157   -0.541055   -0.257903
C      3.455770   -0.318771    0.627324
C      3.410927    0.726224    1.551062
C      2.300312    1.565789    1.603068
C      1.229723    1.363874    0.731705
C      1.251949    0.314830   -0.205855
C      0.052241    0.146234   -1.118181
C     -1.187035   -0.246933   -0.335446
C     -1.129606   -1.415126    0.450071
C     -2.231102   -1.831495    1.196847
C     -3.413134   -1.097071    1.164616
C     -3.502047    0.050577    0.377036
C     -2.405388    0.486752   -0.387237
S     -2.611591    1.925877   -1.402178
N     -1.554043    3.181797   -0.865021
O     -2.309456    1.582614   -2.833784
O     -4.026804    2.425875   -1.320161
H      3.419143   -2.258248   -1.109704
H      2.484174   -1.269414   -2.280767
H      1.630693   -2.369992   -1.117052
H      4.331623   -0.955475    0.604180
H      4.240688    0.885869    2.227542
H      2.268060    2.375440    2.320690
H      0.374805    2.025188    0.791630
H      0.218551   -0.618824   -1.901641
H     -0.074542    1.097247   -1.666629
H     -0.222666   -2.004463    0.491819
H     -2.167190   -2.726520    1.802196
H     -4.266667   -1.421733    1.745767
H     -4.437257    0.594350    0.362719
