31

C      1.264739   -1.337894    1.427525
C      1.944735   -0.425060    0.441154
C      3.229680    0.064146    0.736749
C      3.895006    0.901728   -0.159727
C      3.289833    1.259547   -1.363111
C      2.017055    0.780493   -1.676163
C      1.329426   -0.065647   -0.786465
C     -0.059291   -0.546826   -1.160330
C     -1.155696    0.167845   -0.387047
C     -1.074745    1.566808   -0.223908
C     -2.059274    2.265740    0.473849
C     -3.153957    1.588188    1.002335
C     -3.279371    0.211953    0.817400
C     -2.303165   -0.511471    0.110481
S     -2.571321   -2.244770   -0.148765
N     -2.441507   -2.612116   -1.832333
O     -3.946895   -2.635513    0.314538
O     -1.558011   -3.038697    0.625742
H      1.865499   -1.460785    2.353663
H      0.279689   -0.920733    1.720348
H      1.125987   -2.341458    0.975090
H      3.721056   -0.202404    1.664372
H      4.882893    1.273826    0.079487
H      3.807680    1.910781   -2.055422
H      1.563752    1.076378   -2.614218
H     -0.081738   -1.640905   -1.003287
H     -0.247896   -0.392769   -2.244762
H     -0.243477    2.125092   -0.633927
H     -1.973710    3.337102    0.602352
H     -3.916018    2.132879    1.544765
H     -4.150958   -0.285458    1.221812
