31

C     -1.342897    1.194851   -1.519462
C     -1.830932    0.216424   -0.484934
C     -2.914085   -0.618689   -0.813375
C     -3.429071   -1.517905    0.120058
C     -2.874802   -1.593456    1.395177
C     -1.788154   -0.787102    1.734659
C     -1.222530    0.097823    0.795468
C     -0.040053    0.946834    1.228777
C      1.174010    0.826610    0.323142
C      1.622922    1.991417   -0.332358
C      2.717023    1.953482   -1.195513
C      3.392551    0.756778   -1.412014
C      2.988392   -0.402714   -0.751842
C      1.896847   -0.386374    0.134043
S      1.491410   -1.897006    0.968718
N      2.819889   -2.999811    0.884051
O      0.298033   -2.533481    0.315047
O      1.202808   -1.636700    2.419489
H     -0.417463    0.808045   -1.993890
H     -1.151311    2.184682   -1.057475
H     -2.099938    1.350601   -2.317399
H     -3.372196   -0.566248   -1.793504
H     -4.268217   -2.149100   -0.142636
H     -3.286625   -2.280347    2.123280
H     -1.380574   -0.864485    2.734683
H     -0.390863    1.999947    1.284176
H      0.275768    0.702170    2.264225
H      1.115173    2.936932   -0.187366
H      3.039046    2.854892   -1.700851
H      4.237824    0.728133   -2.087553
H      3.538015   -1.316203   -0.934820
