31

C     -1.317230    1.486041   -1.224883
C     -1.960662    0.429077   -0.366157
C     -3.243322    0.664351    0.160353
C     -3.875267   -0.297844    0.949465
C     -3.238591   -1.507522    1.220994
C     -1.967551   -1.761127    0.703691
C     -1.313310   -0.804655   -0.094729
C      0.074895   -1.116201   -0.619772
C      1.166232   -0.365131    0.125683
C      1.105089   -0.292367    1.533245
C      2.085946    0.381834    2.259911
C      3.157642    0.976390    1.600611
C      3.264076    0.881444    0.213669
C      2.291326    0.199835   -0.538145
S      2.536079    0.056492   -2.288285
N      2.436248   -1.603044   -2.759635
O      1.493339    0.856611   -3.015940
O      3.894719    0.574245   -2.669807
H     -1.185548    1.101013   -2.257116
H     -0.331865    1.773983   -0.805078
H     -1.939639    2.404387   -1.279618
H     -3.758818    1.595684   -0.039321
H     -4.861720   -0.104780    1.351008
H     -3.730580   -2.250954    1.834850
H     -1.489404   -2.705570    0.932557
H      0.075763   -0.890019   -1.701907
H      0.289215   -2.203687   -0.537682
H      0.292187   -0.755292    2.077025
H      2.015481    0.440592    3.338445
H      3.916869    1.500355    2.166908
H      4.118403    1.335858   -0.270338
