31

C      1.135723   -1.627946    1.226253
C      1.892315   -0.499318    0.576366
C      3.233084   -0.701485    0.203207
C      3.968620    0.325902   -0.389530
C      3.378540    1.568271   -0.614758
C      2.050586    1.789413   -0.247211
C      1.291727    0.767149    0.352335
C     -0.153157    1.047186    0.718029
C     -1.137516    0.396761   -0.240517
C     -0.888582    0.469060   -1.627264
C     -1.765694   -0.108814   -2.544545
C     -2.918256   -0.749375   -2.099588
C     -3.209227   -0.796683   -0.736851
C     -2.343486   -0.213908    0.204915
S     -2.820028   -0.248226    1.912303
N     -2.778170    1.351568    2.564307
O     -4.219432   -0.778589    2.053428
O     -1.887147   -1.137694    2.684028
H      0.214446   -1.853402    0.651355
H      1.741797   -2.557891    1.266521
H      0.868334   -1.349572    2.266493
H      3.713733   -1.657461    0.370737
H      4.999266    0.158018   -0.674454
H      3.951094    2.362438   -1.076326
H      1.610908    2.760792   -0.437167
H     -0.299865    0.710243    1.760680
H     -0.350535    2.140950    0.722791
H     -0.008451    0.971349   -2.006575
H     -1.551563   -0.056816   -3.604306
H     -3.596682   -1.198361   -2.813595
H     -4.122384   -1.283562   -0.421060
