31

C      1.362588   -0.685327   -1.765610
C      1.972128   -0.249923   -0.458908
C      3.222598   -0.770999   -0.081300
C      3.823236   -0.380161    1.116345
C      3.187097    0.537050    1.950882
C      1.947957    1.068601    1.591098
C      1.325607    0.688298    0.387604
C     -0.029456    1.277730    0.046696
C     -1.166961    0.290288    0.251307
C     -1.180649   -0.502548    1.418135
C     -2.205967   -1.418639    1.650875
C     -3.248307   -1.546088    0.737646
C     -3.280672   -0.743284   -0.401832
C     -2.262044    0.192454   -0.652526
S     -2.412909    1.229697   -2.082494
N     -2.269473    2.888654   -1.620440
O     -3.755483    1.034781   -2.729822
O     -1.342632    0.883619   -3.078344
H      1.976449   -1.465130   -2.264441
H      1.289703    0.182864   -2.452650
H      0.353313   -1.112257   -1.594785
H      3.737152   -1.482948   -0.714817
H      4.784972   -0.789518    1.397578
H      3.654677    0.836742    2.879922
H      1.469315    1.775273    2.257802
H      0.023896    1.644390   -0.994884
H     -0.235310    2.172868    0.672517
H     -0.392172   -0.418271    2.154343
H     -2.192912   -2.029583    2.544311
H     -4.042177   -2.258957    0.919977
H     -4.113562   -0.849675   -1.084186
