31

C      1.388219   -1.883023   -0.131478
C      1.847127   -0.456187    0.007409
C      3.020008   -0.199746    0.740275
C      3.509406    1.099798    0.869789
C      2.839299    2.160807    0.266411
C      1.664129    1.929943   -0.449086
C      1.126201    0.632263   -0.557559
C     -0.156681    0.449513   -1.349800
C     -1.261807   -0.258971   -0.584736
C     -1.734142   -1.484766   -1.096894
C     -2.730973   -2.202396   -0.437448
C     -3.285161   -1.705991    0.738040
C     -2.858100   -0.481050    1.248660
C     -1.864353    0.267524    0.593959
S     -1.425591    1.838543    1.288554
N     -2.647952    2.364740    2.391800
O     -1.303503    2.876377    0.209766
O     -0.126862    1.718983    2.033901
H      1.074280   -2.089822   -1.174827
H      2.205885   -2.595758    0.108331
H      0.547756   -2.075950    0.566755
H      3.567347   -1.010906    1.204722
H      4.417639    1.282588    1.429506
H      3.229935    3.166393    0.354446
H      1.166918    2.773538   -0.910917
H      0.102689   -0.105645   -2.277005
H     -0.553172    1.422376   -1.707694
H     -1.319473   -1.899065   -2.007518
H     -3.071519   -3.148545   -0.837994
H     -4.054476   -2.267860    1.251962
H     -3.313072   -0.117708    2.160259
