31

C     -1.089750   -1.096403   -1.989903
C     -1.873722   -0.565011   -0.818750
C     -3.219064   -0.200733   -1.006198
C     -3.979532    0.283248    0.059317
C     -3.410085    0.407139    1.325328
C     -2.077912    0.046497    1.531990
C     -1.294056   -0.444283    0.471306
C      0.154222   -0.806149    0.738489
C      1.127249    0.225463    0.190928
C      0.849416    1.595133    0.383479
C      1.715128    2.577099   -0.097097
C      2.884555    2.213442   -0.758078
C      3.203606    0.866235   -0.922977
C      2.349701   -0.140339   -0.439539
S      2.861071   -1.828384   -0.619664
N      2.811885   -2.622128    0.914531
O      4.269732   -1.894702   -1.140058
O      1.955472   -2.534667   -1.588186
H     -1.682927   -1.064481   -2.928448
H     -0.804958   -2.152174   -1.801942
H     -0.177479   -0.486179   -2.149522
H     -3.683946   -0.290815   -1.980237
H     -5.013495    0.562476   -0.097373
H     -4.001979    0.784550    2.149213
H     -1.654640    0.156749    2.522779
H      0.337631   -0.905390    1.830190
H      0.326282   -1.811345    0.311697
H     -0.044569    1.911014    0.904836
H      1.478959    3.623650    0.046460
H      3.554092    2.977644   -1.131402
H      4.129111    0.612848   -1.422840
