31

C      1.481121   -1.030033   -1.643388
C      1.800181    0.134480   -0.744579
C      2.647593    1.144477   -1.234786
C      3.004427    2.227250   -0.431437
C      2.525613    2.315544    0.873089
C      1.669050    1.333870    1.371965
C      1.259420    0.253408    0.565795
C      0.324857   -0.780479    1.169534
C     -0.938010   -1.021955    0.359946
C     -1.154397   -2.318858   -0.149168
C     -2.279605   -2.609780   -0.919107
C     -3.217128   -1.617153   -1.185667
C     -3.042810   -0.334590   -0.667749
C     -1.923533   -0.020859    0.123024
S     -1.815796    1.621245    0.782538
N     -3.359603    2.395501    0.709092
O     -1.388950    1.584303    2.222060
O     -0.836545    2.427925   -0.021745
H      1.543734   -1.983371   -1.080249
H      0.465673   -0.904778   -2.072695
H      2.204024   -1.101891   -2.483818
H      3.045578    1.089009   -2.240670
H      3.663968    2.993523   -0.817977
H      2.817040    3.148231    1.500190
H      1.315867    1.426572    2.391194
H      0.025749   -0.501838    2.201352
H      0.904643   -1.720957    1.290084
H     -0.440520   -3.111503    0.037711
H     -2.422253   -3.607725   -1.313269
H     -4.086812   -1.843472   -1.789066
H     -3.792575    0.413904   -0.886007
