31

C      1.349993   -1.575760   -1.006148
C      1.831125   -0.331267   -0.309372
C      2.902744    0.380909   -0.877652
C      3.411298    1.520213   -0.254390
C      2.862052    1.962321    0.946325
C      1.786647    1.280842    1.516721
C      1.227268    0.152987    0.884153
C      0.056996   -0.542603    1.557540
C     -1.162584   -0.706532    0.666288
C     -1.600615   -2.017144    0.386285
C     -2.699063   -2.245998   -0.441102
C     -3.389787   -1.172920   -0.994921
C     -2.996422    0.133540   -0.708531
C     -1.900682    0.389697    0.134242
S     -1.509420    2.083108    0.484028
N     -2.851330    3.098719    0.089037
O     -0.326753    2.510847   -0.337480
O     -1.211024    2.264396    1.944809
H      0.417852   -1.355073   -1.566091
H      1.172317   -2.387548   -0.271757
H      2.105146   -1.951971   -1.728838
H      3.356924    0.046784   -1.802504
H      4.241662    2.054438   -0.697880
H      3.269030    2.837234    1.436681
H      1.382793    1.645164    2.452846
H     -0.256926   -0.007085    2.477555
H      0.420570   -1.529149    1.917707
H     -1.080978   -2.872917    0.799154
H     -3.012656   -3.259419   -0.656139
H     -4.238451   -1.352917   -1.642245
H     -3.557725    0.947105   -1.147937
