31

C      1.308107    1.901387   -0.127812
C      1.818930    0.500661    0.078862
C      2.954623    0.090477   -0.642651
C      3.492948   -1.183106   -0.460386
C      2.909819   -2.063397    0.447257
C      1.771447   -1.682852    1.158350
C      1.183000   -0.418185    0.959433
C     -0.051969   -0.064982    1.769994
C     -1.231777    0.402923    0.934717
C     -1.716192    1.708495    1.156758
C     -2.782759    2.215116    0.415580
C     -3.396099    1.425881   -0.551902
C     -2.957092    0.120793   -0.769323
C     -1.891950   -0.416969   -0.025439
S     -1.443722   -2.103237   -0.340579
N     -0.061318   -2.157236   -1.374543
O     -1.154871   -2.826227    0.943619
O     -2.580243   -2.810527   -1.024432
H      0.415704    1.881538   -0.786872
H      2.075940    2.545271   -0.607311
H      1.055354    2.369256    0.845393
H      3.435703    0.763824   -1.341527
H      4.372367   -1.483268   -1.015453
H      3.339510   -3.045051    0.599796
H      1.343520   -2.386005    1.861618
H     -0.387080   -0.921271    2.391423
H      0.247065    0.713638    2.504540
H     -1.257569    2.348483    1.900354
H     -3.132042    3.224580    0.590493
H     -4.220397    1.823002   -1.130240
H     -3.458955   -0.473010   -1.522119
