31

C      1.418435   -1.752168    0.601458
C      1.984150   -0.472994    0.042646
C      3.289062   -0.089577    0.400386
C      3.850204    1.082641   -0.108432
C      3.119541    1.885528   -0.982450
C      1.824821    1.519328   -1.352661
C      1.240857    0.341097   -0.851558
C     -0.175513   -0.007222   -1.266781
C     -1.190560    0.253606   -0.165655
C     -1.104036    1.453084    0.571930
C     -2.015613    1.737550    1.588185
C     -3.043573    0.843947    1.873621
C     -3.176774   -0.328041    1.130214
C     -2.274236   -0.631191    0.096008
S     -2.554319   -2.101815   -0.853866
N     -2.598551   -1.712402   -2.536899
O     -1.459240   -3.095688   -0.589293
O     -3.870696   -2.723082   -0.478752
H      2.113783   -2.225189    1.327056
H      0.466138   -1.550548    1.133031
H      1.241118   -2.474477   -0.221900
H      3.876962   -0.698807    1.075808
H      4.854725    1.368718    0.175641
H      3.556872    2.794971   -1.373879
H      1.273462    2.161476   -2.028403
H     -0.172715   -1.064027   -1.591330
H     -0.477845    0.582604   -2.158969
H     -0.324689    2.174920    0.366074
H     -1.925539    2.655850    2.154103
H     -3.748950    1.066476    2.663925
H     -3.997281   -0.994566    1.360744
