31

C     -1.407454   -1.132433   -1.476618
C     -1.978968   -0.174881   -0.464168
C     -3.194218    0.473717   -0.747486
C     -3.759661    1.357549    0.172834
C     -3.123130    1.603543    1.388036
C     -1.918844    0.965951    1.689086
C     -1.332325    0.070749    0.775328
C     -0.013551   -0.584702    1.137356
C      1.165198    0.016322    0.388925
C      1.253501    1.419184    0.268730
C      2.318847    2.015726   -0.404949
C      3.327537    1.228024   -0.951550
C      3.285969   -0.158280   -0.808773
C      2.225897   -0.780404   -0.126670
S      2.282778   -2.540409    0.079688
N      2.099851   -2.940364    1.750848
O      3.604317   -3.079193   -0.392306
O      1.186220   -3.183156   -0.721198
H     -2.013088   -1.154229   -2.407468
H     -1.392716   -2.158634   -1.054974
H     -0.377769   -0.827834   -1.754217
H     -3.708475    0.296278   -1.683988
H     -4.694377    1.852581   -0.057057
H     -3.563284    2.290941    2.098888
H     -1.438930    1.176750    2.636832
H     -0.121487   -1.668307    0.946767
H      0.185712   -0.487304    2.226442
H      0.492724    2.060512    0.693841
H      2.363092    3.093010   -0.500616
H      4.152607    1.693504   -1.475233
H      4.094027   -0.744212   -1.226330
