31

C      1.259522   -1.584948   -0.970957
C      1.942806   -0.484465   -0.202421
C      3.214859   -0.050430   -0.616280
C      3.883049    0.958054    0.079675
C      3.293683    1.544195    1.198375
C      2.033943    1.123762    1.627037
C      1.343703    0.108014    0.939890
C     -0.030854   -0.303543    1.430866
C     -1.151257    0.228230    0.551808
C     -1.094270    1.566421    0.108795
C     -2.101267    2.099254   -0.695390
C     -3.194680    1.316823   -1.054490
C     -3.296080    0.004784   -0.593812
C     -2.296870   -0.550288    0.224437
S     -2.534272   -2.198685    0.832607
N     -2.369542   -2.217720    2.552696
O     -1.522780   -3.120947    0.213496
O     -3.911675   -2.690248    0.485247
H      1.845793   -1.885199   -1.865319
H      1.143855   -2.478236   -0.323081
H      0.263324   -1.246473   -1.321839
H      3.693904   -0.492896   -1.480988
H      4.860877    1.285406   -0.249404
H      3.813676    2.327359    1.734868
H      1.592702    1.597486    2.495292
H     -0.202788    0.063774    2.465667
H     -0.039534   -1.407004    1.497749
H     -0.264474    2.205199    0.381194
H     -2.034121    3.123621   -1.038633
H     -3.974229    1.732400   -1.679994
H     -4.167002   -0.573701   -0.872167
