31

C     -1.322616   -1.214252   -1.489976
C     -1.955692   -0.244241   -0.527229
C     -3.177317    0.361199   -0.871984
C     -3.799038    1.255049    0.001151
C     -3.213102    1.554169    1.229813
C     -2.003362    0.959932    1.591570
C     -1.360509    0.055508    0.726063
C     -0.038076   -0.551556    1.153247
C      1.149738    0.060589    0.428538
C      1.203985    1.461302    0.269408
C      2.275973    2.067932   -0.384435
C      3.324576    1.293545   -0.871733
C      3.315762   -0.088646   -0.688917
C      2.249439   -0.720441   -0.025707
S      2.346903   -2.471394    0.235270
N      2.115592   -2.827639    1.910319
O      3.698599   -2.986046   -0.174100
O      1.297471   -3.167916   -0.583588
H     -1.893914   -1.280220   -2.440245
H     -1.294923   -2.226940   -1.037441
H     -0.292389   -0.888835   -1.740626
H     -3.652888    0.142138   -1.820049
H     -4.738124    1.716542   -0.275869
H     -3.696850    2.249205    1.903960
H     -1.563407    1.211684    2.548668
H     -0.109576   -1.642863    0.991655
H      0.119570   -0.416952    2.245185
H      0.411359    2.092924    0.648362
H      2.294209    3.142803   -0.510819
H      4.154765    1.766778   -1.380156
H      4.153844   -0.663358   -1.060338
