31

C      1.122480   -2.007471    0.392356
C      1.895996   -0.735690    0.162506
C      3.176773   -0.603543    0.728129
C      3.927257    0.555558    0.525325
C      3.412426    1.595832   -0.246156
C      2.145250    1.481363   -0.819411
C      1.372636    0.320893   -0.627785
C     -0.006423    0.248458   -1.254518
C     -1.122532    0.437655   -0.239958
C     -1.001083    1.459159    0.725466
C     -2.001451    1.673001    1.673201
C     -3.151189    0.888971    1.663112
C     -3.314780   -0.098416    0.692413
C     -2.323025   -0.325954   -0.277487
S     -2.637304   -1.546601   -1.524359
N     -2.415317   -0.853448   -3.091670
O     -1.704312   -2.710352   -1.344942
O     -4.052614   -2.043014   -1.424338
H      1.658956   -2.694664    1.080617
H      0.975895   -2.536215   -0.572025
H      0.136859   -1.780146    0.847296
H      3.598781   -1.399646    1.329053
H      4.911042    0.646853    0.967401
H      3.996186    2.494223   -0.400039
H      1.762941    2.304660   -1.410172
H     -0.078566   -0.721667   -1.779709
H     -0.120689    1.026872   -2.039575
H     -0.125867    2.094837    0.752166
H     -1.885161    2.451615    2.416093
H     -3.925526    1.056073    2.400767
H     -4.227639   -0.679195    0.696241
