31

C     -2.571988   -1.574990   -1.196945
C     -2.409128   -0.446494   -0.212129
C     -3.503371    0.403750    0.030709
C     -3.400428    1.453897    0.943897
C     -2.207006    1.669064    1.629818
C     -1.111377    0.835136    1.405390
C     -1.191454   -0.228062    0.487129
C      0.038672   -1.091720    0.284763
C      1.170565   -0.302827   -0.347317
C      0.928346    0.323852   -1.585709
C      1.923387    1.067113   -2.219578
C      3.181133    1.189115   -1.635791
C      3.452348    0.559398   -0.421221
C      2.465519   -0.198427    0.233679
S      2.901303   -1.010299    1.748494
N      1.961059   -0.372808    3.049964
O      4.355862   -0.792939    2.059245
O      2.657035   -2.487518    1.618990
H     -3.574119   -1.561508   -1.676022
H     -2.457073   -2.547917   -0.674742
H     -1.813586   -1.491301   -2.002676
H     -4.442803    0.254996   -0.487352
H     -4.249315    2.101748    1.120809
H     -2.129843    2.484482    2.337418
H     -0.192312    1.022379    1.945828
H      0.309191   -1.507617    1.272255
H     -0.161938   -1.973552   -0.354697
H     -0.040763    0.243817   -2.061128
H      1.717843    1.549712   -3.166390
H      3.951780    1.767257   -2.129264
H      4.442462    0.662262    0.002573
