34

N      2.545039    2.197569    0.885774
C      3.221713    1.033224    0.416653
C      4.547194    1.143942   -0.020693
C      5.227175    0.021219   -0.498557
C      4.584609   -1.217402   -0.546214
C      3.261880   -1.337932   -0.111689
C      2.570771   -0.219012    0.385534
C      1.132025   -0.365635    0.818364
C      0.183276   -0.035053   -0.344037
C     -1.299162   -0.316743   -0.009165
C     -2.146265   -0.247994   -1.298033
C     -3.630302   -0.499920   -1.006451
C     -4.160804    0.494401    0.030790
C     -3.335896    0.428376    1.319806
C     -1.848426    0.678064    1.039212
H      5.050421    2.102414    0.005929
H      6.251262    0.112467   -0.836826
H      5.110765   -2.084766   -0.923522
H      2.775295   -2.304131   -0.164449
H      0.937614    0.303356    1.682002
H      0.948273   -1.405909    1.166451
H      0.307911    1.030714   -0.637762
H      0.477580   -0.660067   -1.216815
H     -1.379137   -1.349324    0.400311
H     -2.030419    0.750102   -1.776584
H     -1.793101   -1.016149   -2.020240
H     -4.212285   -0.393272   -1.947126
H     -3.767801   -1.539111   -0.634364
H     -5.221123    0.254233    0.260777
H     -4.124529    1.525457   -0.385038
H     -3.463879   -0.569500    1.794401
H     -3.708508    1.195662    2.032168
H     -1.711607    1.722833    0.681916
H     -1.299562    0.567887    1.997390
