34

N     -2.567254   -1.743599    1.691789
C     -3.231038   -0.847086    0.803353
C     -4.570792   -0.517383    1.041655
C     -5.239060    0.369848    0.194619
C     -4.570600    0.935969   -0.892585
C     -3.233461    0.612838   -1.138747
C     -2.553424   -0.290260   -0.302799
C     -1.099810   -0.599072   -0.568262
C     -0.192807    0.339046    0.242827
C      1.304650    0.175970   -0.103780
C      2.112265    1.335657    0.517810
C      3.609399    1.199730    0.216208
C      4.147380   -0.146350    0.710798
C      3.361889   -1.306917    0.092344
C      1.861693   -1.180129    0.387265
H     -5.094349   -0.946222    1.886996
H     -6.274313    0.622562    0.384082
H     -5.087942    1.628796   -1.543635
H     -2.727118    1.068384   -1.980877
H     -0.882814   -0.483105   -1.652957
H     -0.895448   -1.658459   -0.309128
H     -0.349723    0.164069    1.330223
H     -0.498243    1.386871    0.024264
H      1.419551    0.231080   -1.210148
H      1.755580    2.304507    0.104927
H      1.960285    1.357071    1.620111
H      4.161322    2.022170    0.720112
H      3.780850    1.292601   -0.878896
H      5.219032   -0.238328    0.431596
H      4.075997   -0.194295    1.819812
H      3.525881   -1.324613   -1.007734
H      3.737744   -2.266111    0.509129
H      1.691225   -1.288760    1.481368
H      1.343454   -2.016480   -0.126002
