34

N     -2.567257   -1.743603    1.691785
C     -3.231038   -0.847085    0.803354
C     -4.570792   -0.517383    1.041657
C     -5.239060    0.369849    0.194620
C     -4.570600    0.935969   -0.892586
C     -3.233461    0.612839   -1.138746
C     -2.553424   -0.290258   -0.302798
C     -1.099810   -0.599072   -0.568261
C     -0.192807    0.339046    0.242828
C      1.304650    0.175970   -0.103780
C      2.112265    1.335657    0.517810
C      3.609400    1.199730    0.216208
C      4.147381   -0.146351    0.710798
C      3.361890   -1.306916    0.092344
C      1.861693   -1.180129    0.387264
H     -5.094349   -0.946221    1.886997
H     -6.274313    0.622561    0.384083
H     -5.087943    1.628795   -1.543638
H     -2.727118    1.068383   -1.980878
H     -0.882814   -0.483105   -1.652957
H     -0.895448   -1.658459   -0.309127
H     -0.349723    0.164069    1.330223
H     -0.498243    1.386871    0.024265
H      1.419551    0.231080   -1.210148
H      1.755579    2.304508    0.104925
H      1.960285    1.357071    1.620113
H      4.161323    2.022171    0.720111
H      3.780850    1.292601   -0.878896
H      5.219033   -0.238330    0.431597
H      4.075998   -0.194296    1.819812
H      3.525880   -1.324612   -1.007733
H      3.737744   -2.266110    0.509129
H      1.691225   -1.288761    1.481367
H      1.343454   -2.016479   -0.126001
