34

N     -2.224331    1.442900   -2.320708
C     -3.046950    0.961679   -1.259867
C     -4.323875    1.508639   -1.084575
C     -5.143287    1.064825   -0.043984
C     -4.689167    0.075152    0.829896
C     -3.416301   -0.476995    0.662875
C     -2.587190   -0.050036   -0.389326
C     -1.203441   -0.636642   -0.530612
C     -0.172544    0.230575    0.208151
C      1.238209   -0.400571    0.231279
C      1.887734   -0.402506   -1.171767
C      3.310258   -0.975306   -1.127376
C      4.184564   -0.208665   -0.130256
C      3.553223   -0.216110    1.265212
C      2.134845    0.364985    1.228001
H     -4.680817    2.281897   -1.753364
H     -6.129004    1.491945    0.088070
H     -5.322721   -0.262367    1.639964
H     -3.075946   -1.236949    1.355491
H     -1.188624   -1.668916   -0.116738
H     -0.945637   -0.716122   -1.606918
H     -0.522237    0.362743    1.256601
H     -0.127257    1.238910   -0.259695
H      1.149252   -1.452360    0.586409
H      1.292385   -1.027193   -1.869494
H      1.920319    0.632652   -1.578347
H      3.271376   -2.049508   -0.841100
H      3.764481   -0.907804   -2.139381
H      5.188265   -0.683077   -0.081602
H      4.316736    0.840070   -0.476655
H      3.521562   -1.256690    1.656955
H      4.180115    0.390099    1.954026
H      2.185912    1.440231    0.945399
H      1.700093    0.300512    2.249375
