34

N     -2.406866   -0.843979   -2.237975
C     -3.153200   -0.394594   -1.108949
C     -4.471459    0.040460   -1.291580
C     -5.218658    0.499210   -0.204164
C     -4.650865    0.529956    1.070987
C     -3.335948    0.097564    1.263290
C     -2.577788   -0.380565    0.180040
C     -1.148610   -0.811305    0.405298
C     -0.186422    0.358792    0.149075
C      1.277982    0.024077    0.513214
C      2.122686    1.316347    0.514210
C      3.590283    1.025373    0.849387
C      4.182828    0.004943   -0.127131
C      3.360441   -1.287368   -0.129531
C      1.889327   -1.007423   -0.462843
H     -4.916854    0.026905   -2.278522
H     -6.236828    0.835796   -0.350957
H     -5.228982    0.892492    1.911146
H     -2.907723    0.137087    2.257347
H     -1.025533   -1.174609    1.449311
H     -0.911533   -1.664101   -0.263843
H     -0.248763    0.668301   -0.917689
H     -0.520644    1.221098    0.768528
H      1.298155   -0.400806    1.542464
H      2.064393    1.809669   -0.481712
H      1.721796    2.025742    1.270791
H      3.667340    0.637944    1.889210
H      4.173928    1.969282    0.791594
H      5.227915   -0.225522    0.172083
H      4.206166    0.436285   -1.152169
H      3.430846   -1.776695    0.866951
H      3.780654   -1.986876   -0.883943
H      1.813338   -0.634692   -1.508414
H      1.338598   -1.968787   -0.399830
