34

N      2.272570   -0.541999    2.330871
C      2.972099   -0.123811    1.160611
C      4.369826   -0.202422    1.136391
C      5.077352    0.186108   -0.003656
C      4.391492    0.650786   -1.127499
C      2.996535    0.733065   -1.112824
C      2.273038    0.359902    0.033604
C      0.765179    0.425754    0.015377
C      0.176666   -0.922190   -0.440744
C     -1.370290   -0.984194   -0.470273
C     -1.984098   -1.020237    0.952958
C     -3.482546   -0.705666    0.909900
C     -3.754956    0.712414    0.366322
C     -2.654518    1.233145   -0.579856
C     -2.012852    0.096335   -1.385451
H      4.908982   -0.569123    2.000945
H      6.157721    0.121986   -0.017757
H      4.940987    0.944405   -2.012575
H      2.479523    1.086615   -1.996488
H      0.444501    1.235796   -0.672900
H      0.396968    0.701602    1.023632
H      0.555349   -1.145209   -1.463018
H      0.551511   -1.730070    0.226003
H     -1.617165   -1.966055   -0.935079
H     -1.496339   -0.287167    1.627179
H     -1.832816   -2.028791    1.395859
H     -3.912499   -0.801141    1.930447
H     -3.989317   -1.454832    0.262124
H     -3.852817    1.420809    1.217675
H     -4.728671    0.706551   -0.170436
H     -1.870902    1.749115    0.015596
H     -3.089699    1.982208   -1.276088
H     -2.808469   -0.376799   -2.003237
H     -1.272346    0.513111   -2.101358
