34

N      2.176212    2.214519    1.649816
C      3.017746    1.391178    0.845086
C      4.379101    1.294870    1.157926
C      5.221502    0.483589    0.394110
C      4.706988   -0.239465   -0.683765
C      3.349649   -0.149626   -1.003942
C      2.493687    0.674813   -0.252627
C      1.024749    0.730761   -0.596021
C      0.238336   -0.297310    0.231753
C     -1.246662   -0.396197   -0.185522
C     -2.035740    0.876272    0.199977
C     -3.520288    0.743901   -0.163670
C     -4.141885   -0.493995    0.490260
C     -3.373018   -1.759847    0.099828
C     -1.890378   -1.636628    0.470568
H      4.784707    1.846507    1.996852
H      6.272853    0.411482    0.641032
H      5.359848   -0.873163   -1.270042
H      2.965092   -0.724634   -1.837350
H      0.883876    0.524359   -1.679835
H      0.642100    1.755486   -0.409656
H      0.716699   -1.292224    0.089225
H      0.310570   -0.042380    1.312243
H     -1.295529   -0.527153   -1.290398
H     -1.631544    1.757091   -0.340651
H     -1.939945    1.068292    1.291706
H     -4.064010    1.650514    0.179035
H     -3.629437    0.677119   -1.268661
H     -5.199133   -0.590763    0.162061
H     -4.134920   -0.376978    1.596409
H     -3.472229   -1.936534   -0.993886
H     -3.812169   -2.632880    0.628889
H     -1.792606   -1.575330    1.577506
H     -1.364222   -2.555646    0.131546
