34

N     -2.242651   -1.970574    1.366698
C     -2.940522   -0.827894    0.875794
C     -4.340408   -0.820076    0.901569
C     -5.047618    0.280560    0.411968
C     -4.359661    1.377401   -0.110533
C     -2.962522    1.378987   -0.140342
C     -2.238099    0.284263    0.363430
C     -0.730468    0.293502    0.290811
C     -0.254219   -0.364232   -1.017593
C      1.282756   -0.439306   -1.190389
C      1.978072    0.950280   -1.130699
C      2.722109    1.171273    0.192414
C      3.806224    0.099647    0.424122
C      3.445469   -1.281317   -0.161909
C      1.929716   -1.485114   -0.246263
H     -4.881817   -1.670038    1.297869
H     -6.129778    0.280967    0.432827
H     -4.909495    2.226185   -0.496232
H     -2.444658    2.233753   -0.557895
H     -0.369842    1.342174    0.345250
H     -0.316536   -0.230826    1.175113
H     -0.675085    0.207874   -1.874186
H     -0.669282   -1.394425   -1.082052
H      1.444902   -0.819206   -2.225003
H      1.251303    1.774218   -1.296548
H      2.720405    1.021190   -1.956796
H      3.192257    2.178335    0.190554
H      1.994279    1.146103    1.031743
H      4.762373    0.439924   -0.030031
H      3.978032    0.002077    1.518273
H      3.894143   -2.080395    0.467104
H      3.878876   -1.375938   -1.182146
H      1.514786   -1.421139    0.780196
H      1.716963   -2.508236   -0.625979
