34

N      2.113878    1.552445    2.257092
C      2.990956    0.898273    1.342515
C      4.306601    0.624723    1.735811
C      5.180959   -0.028198    0.863787
C      4.743802   -0.415389   -0.404409
C      3.432573   -0.146535   -0.806087
C      2.546679    0.523243    0.056140
C      1.125245    0.773575   -0.386226
C      0.207676   -0.368311    0.077183
C     -1.229876   -0.247638   -0.477787
C     -1.989472    0.941814    0.153596
C     -3.433742    1.016630   -0.358391
C     -4.180316   -0.296141   -0.102156
C     -3.439960   -1.476462   -0.738310
C     -1.998768   -1.561748   -0.222032
H      4.651406    0.914961    2.720437
H      6.196577   -0.238614    1.173228
H      5.420599   -0.927615   -1.076043
H      3.106943   -0.462289   -1.789628
H      0.777451    1.743795    0.024783
H      1.085801    0.858318   -1.494541
H      0.647635   -1.327994   -0.275584
H      0.181598   -0.400173    1.188926
H     -1.171869   -0.091821   -1.578989
H     -1.996458    0.844719    1.261949
H     -1.488384    1.897741   -0.104491
H     -3.432380    1.238888   -1.448334
H     -3.963549    1.845568    0.158518
H     -4.280790   -0.462596    0.993062
H     -5.201917   -0.227821   -0.534031
H     -3.974194   -2.419353   -0.492349
H     -3.435398   -1.363828   -1.844911
H     -1.487411   -2.402266   -0.740119
H     -2.011894   -1.788940    0.867390
