34

N     -1.277513    0.754135   -2.455573
C     -2.044440    0.455325   -1.291305
C     -2.983021    1.391124   -0.840068
C     -3.744336    1.132299    0.301467
C     -3.575887   -0.065950    0.996645
C     -2.642161   -1.006738    0.555463
C     -1.856342   -0.754161   -0.583769
C     -0.854381   -1.791987   -1.036543
C      0.291010   -2.040361   -0.030048
C      1.287560   -0.881548    0.238003
C      0.686724    0.290037    1.037819
C      1.791032    1.239080    1.548331
C      3.026961    1.296823    0.624658
C      2.662082    1.019545   -0.839050
C      2.025502   -0.375081   -1.028170
H     -3.122396    2.322341   -1.374864
H     -4.468100    1.859856    0.645401
H     -4.171266   -0.267548    1.877750
H     -2.531762   -1.934024    1.103477
H     -1.404189   -2.750402   -1.160134
H     -0.448894   -1.571234   -2.042845
H     -0.139226   -2.374607    0.938774
H      0.879040   -2.903860   -0.411629
H      2.066131   -1.329641    0.897926
H      0.007052    0.877358    0.389849
H      0.099091   -0.088457    1.902338
H      1.362585    2.259624    1.655546
H      2.118650    0.912099    2.559240
H      3.503574    2.297608    0.705575
H      3.774878    0.543480    0.956888
H      1.947968    1.801096   -1.181468
H      3.572961    1.100338   -1.470768
H      2.819237   -1.107645   -1.292803
H      1.341874   -0.308926   -1.896113
