34

N     -1.106444   -0.524191   -2.778304
C     -1.942587   -0.146432   -1.686905
C     -2.810538    0.940948   -1.843531
C     -3.636610    1.341228   -0.791355
C     -3.604020    0.653994    0.422769
C     -2.741743   -0.432295    0.590172
C     -1.891941   -0.838186   -0.454932
C     -0.970012   -2.017710   -0.243305
C      0.107716   -1.786295    0.839096
C      1.192825   -0.711057    0.566676
C      0.668342    0.736546    0.618504
C      1.832268    1.748250    0.668807
C      3.103993    1.258405   -0.057002
C      2.773943    0.298308   -1.206674
C      2.022782   -0.960282   -0.719140
H     -2.844505    1.478287   -2.783058
H     -4.305219    2.182798   -0.918586
H     -4.249508    0.961834    1.235200
H     -2.736782   -0.957888    1.536796
H     -0.506826   -2.361709   -1.188249
H     -1.598279   -2.872957    0.088295
H     -0.388799   -1.557488    1.806857
H      0.630541   -2.756068    0.991434
H      1.901310   -0.806173    1.421931
H      0.015358    0.883410    1.506202
H      0.070294    0.951767   -0.288571
H      2.088943    1.961207    1.729447
H      1.493214    2.704705    0.214044
H      3.664907    2.132633   -0.452448
H      3.767551    0.736323    0.667157
H      2.146955    0.837533   -1.951088
H      3.712692   -0.004953   -1.718612
H      1.382745   -1.304549   -1.553936
H      2.757433   -1.769942   -0.515583
