34

N     -1.230810   -1.445914   -2.065367
C     -2.053152   -0.732988   -1.145103
C     -3.049583    0.113780   -1.645669
C     -3.885732    0.812713   -0.772938
C     -3.736016    0.664395    0.606358
C     -2.744685   -0.177033    1.116924
C     -1.882451   -0.875184    0.251203
C     -0.808926   -1.763262    0.839881
C      0.273666   -0.988907    1.627308
C      1.318829   -0.195965    0.799304
C      1.967405   -1.022737   -0.328267
C      3.168270   -0.281773   -0.950335
C      3.008250    1.253343   -0.957926
C      1.535397    1.676702   -0.966343
C      0.792437    1.171406    0.285996
H     -3.178836    0.228216   -2.714704
H     -4.654392    1.465241   -1.166444
H     -4.389651    1.201402    1.281538
H     -2.647433   -0.282841    2.190248
H     -1.308546   -2.459039    1.548829
H     -0.342924   -2.418995    0.077510
H     -0.204546   -0.307308    2.363523
H      0.831367   -1.739557    2.229891
H      2.140020    0.039761    1.515335
H      2.307280   -2.006426    0.063002
H      1.223016   -1.211250   -1.128305
H      4.091424   -0.540481   -0.387164
H      3.307003   -0.643423   -1.992638
H      3.520804    1.675416   -1.849248
H      3.499022    1.681803   -0.056207
H      1.466484    2.784887   -1.015972
H      1.046185    1.268553   -1.878421
H      0.906588    1.921016    1.099787
H     -0.285765    1.134448    0.046863
