24

C     -3.555967    1.232774    0.122253
O     -2.817275    0.040950    0.360149
C     -1.856068   -0.438793   -0.533913
O     -1.608768    0.178454   -1.605966
C     -1.083416   -1.674921   -0.191413
C      0.014030   -1.387235    0.840671
C      1.092863   -0.488671    0.278875
C      2.093021   -1.044924   -0.537892
C      3.085845   -0.234346   -1.094418
C      3.087693    1.139591   -0.847365
C      2.095381    1.707102   -0.044820
C      1.096282    0.903464    0.517690
N      0.091425    1.511892    1.326084
H     -4.144923    1.134688   -0.814201
H     -2.864586    2.098368    0.042305
H     -4.251775    1.405460    0.968682
H     -0.637079   -2.114213   -1.110542
H     -1.785819   -2.425470    0.230006
H      0.471083   -2.352949    1.148699
H     -0.435172   -0.951671    1.759281
H      2.101461   -2.107982   -0.745311
H      3.852980   -0.671795   -1.720235
H      3.856976    1.765832   -1.280409
H      2.101809    2.774394    0.138131
