24

C      2.669665    1.630923   -0.252289
O      1.966592    0.415750   -0.478117
C      2.013163   -0.658139    0.415441
O      2.713751   -0.595232    1.462539
C      1.176782   -1.871982    0.151164
C     -0.185234   -1.779442    0.850880
C     -1.031854   -0.659990    0.288525
C     -1.045593    0.590099    0.932591
C     -1.791213    1.648880    0.407870
C     -2.526918    1.473063   -0.765546
C     -2.516357    0.238707   -1.419350
C     -1.770695   -0.827615   -0.902308
N     -1.767942   -2.074229   -1.594667
H      2.476338    2.325572   -1.095193
H      2.318389    2.102485    0.689982
H      3.760811    1.433555   -0.190389
H      1.036106   -1.995184   -0.944328
H      1.713835   -2.771654    0.522101
H     -0.033558   -1.640772    1.944349
H     -0.719269   -2.746663    0.731290
H     -0.471970    0.747144    1.837774
H     -1.795682    2.607742    0.909897
H     -3.103123    2.294842   -1.170699
H     -3.086026    0.112140   -2.331519
