24

C      2.156075   -2.218025    0.644650
O      1.793862   -1.016031   -0.023156
C      1.266470   -1.003577   -1.317590
O      1.112781   -2.077550   -1.961141
C      0.828339    0.295120   -1.921093
C     -0.661775    0.557986   -1.668680
C     -0.957426    0.754589   -0.198945
C     -1.411802   -0.332596    0.568717
C     -1.654338   -0.181486    1.936430
C     -1.442673    1.053216    2.552700
C     -0.984653    2.139502    1.803432
C     -0.736926    1.997339    0.432736
N     -0.259420    3.118767   -0.307400
H      1.266190   -2.873556    0.754309
H      2.946031   -2.748483    0.071965
H      2.546433   -1.970940    1.653099
H      1.010211    0.266633   -3.017242
H      1.438921    1.124157   -1.502813
H     -1.262999   -0.284424   -2.077072
H     -0.969950    1.463108   -2.235070
H     -1.570869   -1.300289    0.109009
H     -2.003482   -1.023733    2.519685
H     -1.630395    1.167799    3.612470
H     -0.818605    3.092474    2.290123
