24

C      3.317685   -1.499745    0.895256
O      2.802253   -0.268737    0.403673
C      1.863998   -0.206022   -0.630332
O      1.436818   -1.259602   -1.177080
C      1.330529    1.125186   -1.061150
C      0.285470    1.661009   -0.074696
C     -0.965102    0.810802   -0.063260
C     -1.923229    0.985558   -1.077309
C     -3.074562    0.194414   -1.108651
C     -3.278983   -0.782963   -0.133105
C     -2.331508   -0.973378    0.875293
C     -1.174655   -0.185652    0.915645
N     -0.220990   -0.408255    1.952174
H      4.040737   -1.292575    1.710542
H      3.839379   -2.045890    0.081009
H      2.491420   -2.123923    1.296929
H      2.175857    1.844044   -1.115482
H      0.890280    1.049619   -2.079708
H      0.729096    1.738797    0.941418
H      0.016069    2.697467   -0.373965
H     -1.776047    1.734487   -1.845835
H     -3.807662    0.337581   -1.891960
H     -4.170932   -1.395504   -0.159924
H     -2.495919   -1.736717    1.625563
