24

C      1.864991   -1.063752   -3.039528
O      1.505763   -1.595504   -1.770316
C      1.627512   -0.862630   -0.586469
O      2.073168    0.317445   -0.602550
C      1.182604   -1.472785    0.706619
C     -0.344689   -1.451263    0.845392
C     -0.878894   -0.041458    0.963660
C     -0.818706    0.613390    2.206396
C     -1.278178    1.926332    2.338785
C     -1.796282    2.601509    1.232236
C     -1.854324    1.966306   -0.010334
C     -1.396695    0.650796   -0.153369
N     -1.460799    0.030799   -1.435912
H      1.251624   -0.164886   -3.261951
H      2.942494   -0.794768   -3.048063
H      1.678679   -1.828480   -3.821124
H      1.651047   -0.939272    1.562725
H      1.531991   -2.526909    0.738840
H     -0.809953   -1.988038   -0.009445
H     -0.624524   -2.022324    1.757512
H     -0.412775    0.106061    3.073012
H     -1.229797    2.421641    3.299948
H     -2.150551    3.618896    1.336716
H     -2.253706    2.498893   -0.864423
