24

C      2.612420   -0.343378    1.705283
O      1.947549   -0.514167    0.459999
C      1.315345   -1.708240    0.101721
O      1.333425   -2.704303    0.875496
C      0.562021   -1.782962   -1.190451
C     -0.921283   -1.442959   -0.996912
C     -1.118553   -0.004022   -0.576518
C     -1.263842    0.306499    0.787373
C     -1.409012    1.633531    1.199939
C     -1.406850    2.663759    0.257759
C     -1.256170    2.369958   -1.099511
C     -1.108095    1.043458   -1.522428
N     -0.945010    0.771102   -2.912622
H      3.441495   -1.076488    1.797854
H      1.893475   -0.480723    2.540684
H      3.031069    0.682521    1.756905
H      0.646736   -2.811986   -1.601988
H      1.019971   -1.089544   -1.928370
H     -1.366427   -2.132225   -0.245468
H     -1.462134   -1.630334   -1.949479
H     -1.256807   -0.479356    1.532655
H     -1.519813    1.863442    2.251762
H     -1.518607    3.691075    0.579653
H     -1.250903    3.175345   -1.823334
