24

C     -2.813682    1.355974    0.401772
O     -2.057523    0.176307    0.159770
C     -1.757726   -0.274557   -1.128910
O     -2.176204    0.348040   -2.143033
C     -0.883166   -1.477798   -1.302534
C      0.591357   -1.083587   -1.456256
C      1.138691   -0.450142   -0.197148
C      1.172634    0.951198   -0.083891
C      1.639099    1.555986    1.086127
C      2.072398    0.770118    2.155585
C      2.037304   -0.622963    2.059148
C      1.569722   -1.238177    0.891559
N      1.533856   -2.662031    0.822511
H     -2.917021    1.504196    1.496190
H     -3.825196    1.258358   -0.046216
H     -2.292937    2.235648   -0.032557
H     -1.008429   -2.157145   -0.431977
H     -1.205491   -2.034060   -2.209237
H      1.183693   -1.990385   -1.704988
H      0.703794   -0.391696   -2.320290
H      0.830116    1.575924   -0.899650
H      1.661303    2.635238    1.164806
H      2.432561    1.240714    3.061291
H      2.370845   -1.225159    2.895034
