24

C      2.847181    1.135710    0.478729
O      1.994288    0.005851    0.344761
C      1.922518   -0.748066   -0.830106
O      2.643932   -0.461834   -1.824504
C      0.936859   -1.871632   -0.924261
C     -0.390391   -1.405350   -1.536011
C     -1.100766   -0.409759   -0.646995
C     -0.947220    0.967430   -0.886800
C     -1.564297    1.904363   -0.053932
C     -2.336863    1.477849    1.027875
C     -2.491771    0.113020    1.281747
C     -1.875730   -0.833353    0.453944
N     -2.040598   -2.220359    0.741081
H      3.906156    0.832078    0.338141
H      2.727011    1.564284    1.494742
H      2.574151    1.907705   -0.271685
H      0.762529   -2.298915    0.086734
H      1.364121   -2.678229   -1.558517
H     -0.203258   -0.965412   -2.540673
H     -1.042817   -2.289816   -1.700554
H     -0.342544    1.315950   -1.715030
H     -1.440363    2.962361   -0.245635
H     -2.813281    2.205377    1.672244
H     -3.088850   -0.209253    2.125684
