24

C      2.415091    1.634811    1.402972
O      1.446016    0.610546    1.586628
C      1.715496   -0.736133    1.326452
O      2.857862   -1.100749    0.934982
C      0.617453   -1.745563    1.461145
C     -0.102167   -1.974985    0.125943
C     -0.838726   -0.737994   -0.336134
C     -0.224955    0.132269   -1.254645
C     -0.872790    1.300208   -1.665165
C     -2.136468    1.613833   -1.161345
C     -2.754443    0.761868   -0.242940
C     -2.112360   -0.409750    0.175901
N     -2.759959   -1.257023    1.122558
H      1.966838    2.612883    1.672867
H      3.294257    1.448485    2.055456
H      2.735399    1.667242    0.339961
H     -0.107065   -1.406048    2.232427
H      1.049329   -2.708607    1.809659
H     -0.820671   -2.814746    0.242428
H      0.633759   -2.299398   -0.642873
H      0.759681   -0.090070   -1.647225
H     -0.392800    1.964516   -2.372111
H     -2.636115    2.519503   -1.480085
H     -3.732662    1.014904    0.146492
