24

C     -2.454830   -1.330382   -1.551449
O     -1.952061   -0.593267   -0.444272
C     -1.566273   -1.202681    0.753074
O     -1.675388   -2.450089    0.905597
C     -0.965215   -0.369253    1.842530
C      0.565745   -0.341603    1.749528
C      1.040750    0.354433    0.494106
C      1.367744   -0.408910   -0.640846
C      1.772158    0.217032   -1.822770
C      1.850752    1.609477   -1.886011
C      1.521909    2.380040   -0.768290
C      1.113733    1.761997    0.419902
N      0.773109    2.571644    1.543229
H     -1.691256   -2.057356   -1.900884
H     -2.689014   -0.629999   -2.379109
H     -3.381846   -1.868616   -1.261054
H     -1.370266    0.664122    1.786480
H     -1.260387   -0.790591    2.827811
H      0.960239   -1.381109    1.790908
H      0.972500    0.181033    2.641949
H      1.301852   -1.489617   -0.612679
H      2.021513   -0.378272   -2.691621
H      2.163455    2.092288   -2.802848
H      1.581079    3.459679   -0.827231
