24

C      3.654698    0.928096    0.018569
O      2.799550   -0.016880   -0.612658
C      1.811169   -0.718591    0.083133
O      1.643042   -0.537764    1.320259
C      0.916170   -1.661679   -0.659747
C     -0.165029   -0.911747   -1.447755
C     -1.141694   -0.207870   -0.532553
C     -2.177577   -0.947336    0.064924
C     -3.077314   -0.329681    0.937526
C     -2.949393    1.029730    1.228008
C     -1.919985    1.774804    0.648340
C     -1.013428    1.165293   -0.227502
N      0.032352    1.949221   -0.797786
H      4.349864    1.351148   -0.735211
H      4.246770    0.431788    0.816420
H      3.052366    1.752661    0.455537
H      1.535001   -2.251179   -1.369553
H      0.444497   -2.378832    0.047507
H      0.309140   -0.198460   -2.156083
H     -0.719053   -1.645402   -2.073207
H     -2.286105   -2.004523   -0.144275
H     -3.872913   -0.906553    1.391118
H     -3.646696    1.505936    1.905133
H     -1.825434    2.827817    0.882537
