24

C      2.566568   -0.497164    1.787895
O      2.004654   -0.131036    0.534037
C      1.802930   -1.051795   -0.498130
O      2.141285   -2.259108   -0.359901
C      1.126285   -0.607907   -1.758250
C     -0.387835   -0.846637   -1.697434
C     -1.050477    0.009187   -0.641662
C     -1.300555   -0.530800    0.632547
C     -1.877144    0.254822    1.633868
C     -2.206306    1.586841    1.376075
C     -1.956690    2.137902    0.117018
C     -1.377451    1.359154   -0.892151
N     -1.122914    1.948577   -2.165417
H      2.624323    0.400388    2.437099
H      3.589788   -0.903643    1.642354
H      1.926130   -1.257985    2.282497
H      1.336665    0.469154   -1.933613
H      1.547814   -1.174508   -2.616567
H     -0.829477   -0.620234   -2.691772
H     -0.587593   -1.924343   -1.506234
H     -1.041479   -1.559060    0.853060
H     -2.065684   -0.168844    2.611840
H     -2.652099    2.193823    2.153457
H     -2.210739    3.173216   -0.073193
