24

C      2.587372    1.732831    0.391758
O      2.007453    0.488464    0.021352
C      1.866692   -0.573454    0.919335
O      2.279344   -0.472005    2.107031
C      1.167424   -1.822176    0.478307
C     -0.329022   -1.776510    0.812697
C     -1.046926   -0.697381    0.034060
C     -1.266622    0.557761    0.629110
C     -1.894098    1.580664   -0.086600
C     -2.304971    1.363703   -1.403107
C     -2.086470    0.124055   -2.008692
C     -1.456755   -0.906461   -1.300254
N     -1.235692   -2.159066   -1.944869
H      3.634402    1.579542    0.728826
H      2.587038    2.410529   -0.486379
H      1.994202    2.199790    1.206460
H      1.310700   -1.962163   -0.614830
H      1.626047   -2.695964    0.989767
H     -0.461704   -1.620655    1.906322
H     -0.780964   -2.765334    0.582506
H     -0.944544    0.746767    1.645774
H     -2.058752    2.543724    0.379094
H     -2.790093    2.157756   -1.955934
H     -2.404063   -0.034416   -3.031735
