24

C      2.849187    1.200989    0.525396
O      2.061666    0.132930    0.014500
C      1.744943   -0.998191    0.772198
O      2.175249   -1.125257    1.951132
C      0.838730   -2.040937    0.194056
C     -0.625684   -1.785816    0.573077
C     -1.151182   -0.507562   -0.040193
C     -1.148264    0.677475    0.717045
C     -1.594038    1.877175    0.156417
C     -2.043171    1.908041   -1.165099
C     -2.044650    0.739723   -1.930759
C     -1.598025   -0.466839   -1.378379
N     -1.599430   -1.643122   -2.184462
H      2.960865    1.978248   -0.258056
H      3.855966    0.828988    0.810696
H      2.349661    1.650903    1.409529
H      0.949907   -2.058451   -0.911567
H      1.142757   -3.039471    0.576062
H     -0.723690   -1.754669    1.680928
H     -1.242386   -2.644474    0.230443
H     -0.793012    0.673785    1.740201
H     -1.587892    2.784582    0.746369
H     -2.387252    2.838640   -1.597621
H     -2.390256    0.773311   -2.956441
