24

C      2.659987   -0.751850    1.384653
O      2.026808   -0.113950    0.282781
C      1.718530    1.249426    0.277759
O      2.018930    1.981620    1.260026
C      0.973539    1.831024   -0.883930
C     -0.540764    1.828701   -0.638707
C     -1.094952    0.424457   -0.554103
C     -1.276479   -0.174957    0.705056
C     -1.751373   -1.485317    0.803696
C     -2.046090   -2.211913   -0.351414
C     -1.863541   -1.631143   -1.608628
C     -1.386284   -0.319380   -1.717676
N     -1.198335    0.246589   -3.012963
H      2.797239   -1.827868    1.152819
H      3.654204   -0.293057    1.570196
H      2.026650   -0.657580    2.292198
H      1.312242    2.877113   -1.046433
H      1.212563    1.255931   -1.804369
H     -1.041400    2.377686   -1.465140
H     -0.768123    2.393340    0.292637
H     -1.042514    0.370434    1.611076
H     -1.887667   -1.938941    1.776896
H     -2.413055   -3.227108   -0.272685
H     -2.090116   -2.203258   -2.499662
