      -----------------------------------------------------------      
     |                   =====================                   |     
     |                           x T B                           |     
     |                   =====================                   |     
     |                         S. Grimme                         |     
     |          Mulliken Center for Theoretical Chemistry        |     
     |                    University of Bonn                     |     
      -----------------------------------------------------------      

   * xtb version 6.7.1 (edcfbbe) compiled by 'runner@sat12-gn217-0cbadaec-b866-44ae-a866-732403219ae3-6E01A8DFFD18.local' on 2026-06-10

   xtb is free software: you can redistribute it and/or modify it under
   the terms of the GNU Lesser General Public License as published by
   the Free Software Foundation, either version 3 of the License, or
   (at your option) any later version.
   
   xtb is distributed in the hope that it will be useful,
   but WITHOUT ANY WARRANTY; without even the implied warranty of
   MERCHANTABILITY or FITNESS FOR A PARTICULAR PURPOSE.  See the
   GNU Lesser General Public License for more details.
   
   Cite this work as:
   * C. Bannwarth, E. Caldeweyher, S. Ehlert, A. Hansen, P. Pracht,
     J. Seibert, S. Spicher, S. Grimme, WIREs Comput. Mol. Sci., 2020, 11,
     e01493. DOI: 10.1002/wcms.1493
   
   for GFN2-xTB:
   * C. Bannwarth, S. Ehlert and S. Grimme., J. Chem. Theory Comput., 2019,
     15, 1652-1671. DOI: 10.1021/acs.jctc.8b01176
   for GFN1-xTB:
   * S. Grimme, C. Bannwarth, P. Shushkov, J. Chem. Theory Comput., 2017,
     13, 1989-2009. DOI: 10.1021/acs.jctc.7b00118
   for GFN0-xTB:
   * P. Pracht, E. Caldeweyher, S. Ehlert, S. Grimme, ChemRxiv, 2019, preprint.
     DOI: 10.26434/chemrxiv.8326202.v1
   for GFN-FF:
   * S. Spicher and S. Grimme, Angew. Chem. Int. Ed., 2020, 59, 15665-15673.
     DOI: 10.1002/anie.202004239
   
   for ALPB and GBSA implicit solvation:
   * S. Ehlert, M. Stahn, S. Spicher, S. Grimme, J. Chem. Theory Comput.,
     2021, 17, 4250-4261. DOI: 10.1021/acs.jctc.1c00471
   
   for ddCOSMO and CPCM-X implicit solvation:
   * M. Stahn, S. Ehlert, S. Grimme, J. Phys. Chem. A,
     2023, XX, XXXX-XXXX. DOI: 10.1021/acs.jpca.3c04382
   
   for DFT-D4:
   * E. Caldeweyher, C. Bannwarth and S. Grimme, J. Chem. Phys., 2017,
     147, 034112. DOI: 10.1063/1.4993215
   * E. Caldeweyher, S. Ehlert, A. Hansen, H. Neugebauer, S. Spicher,
     C. Bannwarth and S. Grimme, J. Chem. Phys., 2019, 150, 154122.
     DOI: 10.1063/1.5090222
   * E. Caldeweyher, J.-M. Mewes, S. Ehlert and S. Grimme, Phys. Chem. Chem. Phys.
     2020, 22, 8499-8512. DOI: 10.1039/D0CP00502A
   
   for sTDA-xTB:
   * S. Grimme and C. Bannwarth, J. Chem. Phys., 2016, 145, 054103.
     DOI: 10.1063/1.4959605
   
   in the mass-spec context:
   * V. Asgeirsson, C. Bauer and S. Grimme, Chem. Sci., 2017, 8, 4879.
     DOI: 10.1039/c7sc00601b
   * J. Koopman and S. Grimme, ACS Omega 2019, 4, 12, 15120-15133.
     DOI: 10.1021/acsomega.9b02011
   
   for metadynamics refer to:
   * S. Grimme, J. Chem. Theory Comput., 2019, 155, 2847-2862
     DOI: 10.1021/acs.jctc.9b00143
   
   for SPH calculations refer to:
   * S. Spicher and S. Grimme, J. Chem. Theory Comput., 2021, 17, 1701-1714
     DOI: 10.1021/acs.jctc.0c01306
   
   for ONIOM refer to:
   * C. Plett, A. Katbashev, S. Ehlert, S. Grimme, M. Bursch,
     Phys. Chem. Chem. Phys., 2023, 25, 17860-17868. DOI: 10.1039/D3CP02178E
   
   for DIPRO refer to:
   * J. Kohn, N. Gildemeister, S. Grimme, D. Fazzi, A. Hansen,
     J. Chem. Phys., 2023, just accepted.
   
   for PTB refer to:
   * S. Grimme, M. Mueller, A. Hansen, J. Chem. Phys., 2023, 158, 124111.
     DOI: 10.1063/5.0137838
   
   with help from (in alphabetical order)
   P. Atkinson, C. Bannwarth, F. Bohle, G. Brandenburg, E. Caldeweyher
   M. Checinski, S. Dohm, S. Ehlert, S. Ehrlich, I. Gerasimov, C. Hölzer
   A. Katbashev, J. Kohn, J. Koopman, C. Lavigne, S. Lehtola, F. März, M. Müller,
   F. Musil, H. Neugebauer, J. Pisarek, C. Plett, P. Pracht, F. Pultar,
   J. Seibert, P. Shushkov, S. Spicher, M. Stahn, M. Steiner, T. Strunk,
   J. Stückrath, T. Rose, and J. Unsleber
   
 * started run on 2026/09/07 at 18:21:32.516     
   ID    Z sym.   atoms
    1    7 N      1, 2, 24, 25, 53, 55, 110, 112, 215
    2    6 C      3-5, 7, 9-12, 14, 16-20, 22, 23, 26-28, 30, 32-35, 37,
                  39-43, 45, 46, 49-52, 54, 57, 58, 61, 65, 67, 68, 70, 71,
                  73, 77, 81, 86-89, 91, 92, 106-109, 111, 114, 115, 118,
                  122, 124, 125, 127, 128, 130, 134, 138, 143-146, 148, 149,
                  171-174, 176, 178, 182-185, 187, 189, 193-196, 198, 200,
                  204-207, 209, 211, 216-229
    3    1 H      6, 8, 13, 15, 21, 29, 31, 36, 38, 44, 56, 59, 60, 62, 63,
                  69, 72, 74-76, 78-80, 90, 93-105, 113, 116, 117, 119, 120,
                  126, 129, 131-133, 135-137, 147, 150-166, 175, 177,
                  179-181, 186, 188, 190-192, 197, 199, 201-203, 208, 210,
                  212-214, 230-242
    4   26 Fe     47
    5   17 Cl     48
    6    8 O      64, 66, 82-85, 121, 123, 139-142, 167-170

           -------------------------------------------------
          |                Calculation Setup                |
           -------------------------------------------------

          program call               : /Users/haywoodau3/Documents/genaisubstrate/.chem-env/bin/xtb input.xyz --gfn 2 --alpb ether --opt --input xcontrol --chrg 0 --uhf 1
          coordinate file            : input.xyz
          omp threads                :                     1


           -------------------------------------------------
          |                 G F N 2 - x T B                 |
           -------------------------------------------------

        Reference                      10.1021/acs.jctc.8b01176
      * Hamiltonian:
        H0-scaling (s, p, d)           1.850000    2.230000    2.230000
        zeta-weighting                 0.500000
      * Dispersion:
        s8                             2.700000
        a1                             0.520000
        a2                             5.000000
        s9                             5.000000
      * Repulsion:
        kExp                           1.500000    1.000000
        rExp                           1.000000
      * Coulomb:
        alpha                          2.000000
        third order                    shell-resolved
        anisotropic                    true
        a3                             3.000000
        a5                             4.000000
        cn-shift                       1.200000
        cn-exp                         4.000000
        max-rad                        5.000000

      * Solvation model:               ALPB
        Solvent                        ether
        Parameter file                 internal GFN2-xTB/ALPB
        Dielectric constant                4.3300E+00
        Reference state                gsolv [1 M gas/solution]
        Free energy shift                  4.9534E-03 Eh       3.1083E+00 kcal/mol
        Temperature                        2.9815E+02 K
        Density                            7.1300E-01 kg/L
        Solvent mass                       7.4120E+01 g/mol
        Interaction kernel             P16
        Born radius scaling (c1)           1.5847E+00
        Born radii integrator          GBOBC
        Born offset                        0.0000E+00 a0       0.0000E+00 AA
        H-bond correction              true
        Ion screening                  false
        Surface tension                    1.0000E-05 Eh       1.5569E+01 dyn/cm
        Grid points                               230 per atom

          ...................................................
          :                      SETUP                      :
          :.................................................:
          :  # basis functions                 677          :
          :  # atomic orbitals                 675          :
          :  # shells                          385          :
          :  # electrons                       713          :
          :  max. iterations                   250          :
          :  Hamiltonian                  GFN2-xTB          :
          :  restarted?                      false          :
          :  GBSA solvation                   true          :
          :  PC potential                    false          :
          :  electronic temp.          300.0000000     K    :
          :  accuracy                    1.0000000          :
          :  -> integral cutoff          0.2500000E+02      :
          :  -> integral neglect         0.1000000E-07      :
          :  -> SCF convergence          0.1000000E-05 Eh   :
          :  -> wf. convergence          0.1000000E-03 e    :
          :  Broyden damping             0.4000000          :
          :  net charge                          0          :
          :  unpaired electrons                  1          :
          ...................................................

 iter      E             dE          RMSdq      gap      omega  full diag
   1   -396.7355421 -0.396736E+03  0.467E+00    0.05       0.0  T
   2   -381.3567427  0.153788E+02  0.558E+00    0.08       1.0  T
   3   -390.6425887 -0.928585E+01  0.452E+00    0.06       1.0  T
   4   -396.7053478 -0.606276E+01  0.224E+00    0.35       1.0  T
   5   -398.6707963 -0.196545E+01  0.164E+00    0.59       1.0  T
   6   -399.1815670 -0.510771E+00  0.101E+00    0.11       1.0  T
   7   -399.2670271 -0.854601E-01  0.655E-01    0.09       1.0  T
   8   -399.1488244  0.118203E+00  0.910E-01    0.14       1.0  T
   9   -399.2910247 -0.142200E+00  0.614E-01    0.09       1.0  T
  10   -399.3398137 -0.487890E-01  0.392E-01    0.10       1.0  T
  11   -399.3806605 -0.408468E-01  0.195E-01    0.05       1.0  T
  12   -399.3888541 -0.819352E-02  0.675E-02    0.05       1.0  T
  13   -399.3729877  0.158664E-01  0.211E-01    0.07       1.0  T
  14   -399.3863579 -0.133703E-01  0.105E-01    0.06       1.0  T
  15   -399.3881343 -0.177634E-02  0.716E-02    0.05       1.0  T
  16   -399.3893692 -0.123492E-02  0.360E-02    0.05       1.0  T
  17   -399.3897931 -0.423883E-03  0.111E-02    0.05       1.0  T
  18   -399.3898200 -0.268684E-04  0.614E-03    0.05       1.0  T
  19   -399.3898049  0.150416E-04  0.881E-03    0.05       1.0  T
  20   -399.3898265 -0.215361E-04  0.329E-03    0.05       2.0  T
  21   -399.3898297 -0.320123E-05  0.177E-03    0.05       3.6  T
  22   -399.3898251  0.451954E-05  0.384E-03    0.05       1.7  T
  23   -399.3898270 -0.188205E-05  0.266E-03    0.05       2.4  T
  24   -399.3898301 -0.312445E-05  0.282E-04    0.05      22.8  T
  25   -399.3898302 -0.514621E-08  0.174E-04    0.05      36.9  T
  26   -399.3898302  0.226021E-08  0.159E-04    0.05      40.4  T

   *** convergence criteria satisfied after 26 iterations ***

         #    Occupation            Energy/Eh            Energy/eV
      -------------------------------------------------------------
         1        2.0000           -0.9875928             -26.8738
       ...           ...                  ...                  ...
       351        2.0000           -0.3452341              -9.3943
       352        2.0000           -0.3406350              -9.2692
       353        2.0000           -0.3311044              -9.0098
       354        2.0000           -0.3274691              -8.9109
       355        2.0000           -0.3112230              -8.4688
       356        1.8114           -0.2995454              -8.1510
       357        0.8693           -0.2964055              -8.0656 (HOMO)
       358        0.3178           -0.2946556              -8.0180 (LUMO)
       359        0.0016           -0.2893000              -7.8723
       360        0.0000           -0.2831691              -7.7054
       361        0.0000           -0.2805891              -7.6352
       362                         -0.2587000              -7.0396
       ...                                ...                  ...
       675                          2.4073152              65.5064
      -------------------------------------------------------------
                  HL-Gap            0.0017500 Eh            0.0476 eV
             Fermi-level           -0.2967857 Eh           -8.0759 eV

 SCC (total)                   0 d,  0 h,  0 min,  2.891 sec
 SCC setup                      ...        0 min,  0.007 sec (  0.258%)
 Dispersion                     ...        0 min,  0.007 sec (  0.229%)
 classical contributions        ...        0 min,  0.001 sec (  0.047%)
 integral evaluation            ...        0 min,  0.056 sec (  1.937%)
 iterations                     ...        0 min,  2.278 sec ( 78.808%)
 molecular gradient             ...        0 min,  0.487 sec ( 16.843%)
 printout                       ...        0 min,  0.054 sec (  1.877%)

         :::::::::::::::::::::::::::::::::::::::::::::::::::::
         ::                     SUMMARY                     ::
         :::::::::::::::::::::::::::::::::::::::::::::::::::::
         :: total energy            -393.997591992530 Eh    ::
         :: total w/o Gsasa/hb      -393.884573056793 Eh    ::
         :: gradient norm              1.220857378669 Eh/a0 ::
         :: HOMO-LUMO gap              0.047619125664 eV    ::
         ::.................................................::
         :: SCC energy              -399.368287311863 Eh    ::
         :: -> isotropic ES            0.577904928597 Eh    ::
         :: -> anisotropic ES          0.001543146689 Eh    ::
         :: -> anisotropic XC          0.166385767986 Eh    ::
         :: -> dispersion             -0.352580184991 Eh    ::
         :: -> Gsolv                  -0.199575589507 Eh    ::
         ::    -> Gelec               -0.086556653769 Eh    ::
         ::    -> Gsasa               -0.110880901118 Eh    ::
         ::    -> Ghb                 -0.007091472197 Eh    ::
         ::    -> Gshift               0.004953437577 Eh    ::
         :: repulsion energy           5.370695319332 Eh    ::
         :: add. restraining           0.000000000000 Eh    ::
         :: total charge               0.000000000001 e     ::
         :::::::::::::::::::::::::::::::::::::::::::::::::::::

      ----------------------------------------------------------- 
     |                   =====================                   |
     |                        A N C O P T                        |
     |                   =====================                   |
     |               Approximate Normal Coordinate               |
     |                Rational Function Optimizer                |
      ----------------------------------------------------------- 
      ----------------------------------------------------------- 
     |                   =====================                   |
     |                        A N C O P T                        |
     |                   =====================                   |
     |               Approximate Normal Coordinate               |
     |                Rational Function Optimizer                |
      ----------------------------------------------------------- 

          ...................................................
          :                      SETUP                      :
          :.................................................:
          :   optimization level            normal          :
          :   max. optcycles                   726          :
          :   ANC micro-cycles                  20          :
          :   degrees of freedom                81          :
          :.................................................:
          :   RF solver                   davidson          :
          :   write xtbopt.log                true          :
          :   linear?                        false          :
          :   energy convergence         0.5000000E-05 Eh   :
          :   grad. convergence          0.1000000E-02 Eh/α :
          :   maxmium RF displ.          1.0000000          :
          :   Hlow (freq-cutoff)         0.1000000E-01      :
          :   Hmax (freq-cutoff)         5.0000000          :
          :   S6 in model hess.         20.0000000          :
          ...................................................

generating ANC from exact Hessian ...
Using Lindh-Hessian (1995)
 Shifting diagonal of input Hessian by    1.0029319339691539E-002
 Lowest  eigenvalues of input Hessian
    0.010000    0.010009    0.000000    0.000000    0.000000    0.000000
    0.000000    0.000000    0.010042    0.010051    0.010058    0.010079
    0.010089    0.010110    0.010133    0.010149    0.010156    0.010172
 Highest eigenvalues
    2.266047    2.267004    2.271027    2.271324    2.832427    3.210081


........................................................................
.............................. CYCLE    1 ..............................
........................................................................

 iter      E             dE          RMSdq      gap      omega  full diag
   1   -399.3898302 -0.399390E+03  0.752E-05    0.05       0.0  T
   2   -399.3898299  0.275279E-06  0.787E-04    0.05       8.2  T
   3   -399.3898302 -0.274910E-06  0.806E-05    0.05      79.8  T
     SCC iter.                  ...        0 min,  0.264 sec
     gradient                   ...        0 min,  0.487 sec
 * total energy  :  -393.9975920 Eh     change       -0.4550657E-08 Eh
   gradient norm :     0.4368818 Eh/α   predicted     0.0000000E+00 (-100.00%)
   displ. norm   :     0.1651570 α      lambda       -0.6437744E-01
   maximum displ.:     0.0973573 α      in ANC's #80, #81, #1, ...

........................................................................
.............................. CYCLE    2 ..............................
........................................................................

 iter      E             dE          RMSdq      gap      omega  full diag
   1   -399.3479196 -0.399348E+03  0.404E-01    0.09       0.0  T
   2   -398.3924396  0.955480E+00  0.149E+00    0.02       1.0  T
   3   -399.2181894 -0.825750E+00  0.680E-01    0.12       1.0  T
   4   -399.2814499 -0.632605E-01  0.518E-01    0.18       1.0  T
   5   -399.3811216 -0.996717E-01  0.233E-01    0.07       1.0  T
   6   -399.4002913 -0.191697E-01  0.130E-01    0.06       1.0  T
   7   -399.4034947 -0.320345E-02  0.800E-02    0.06       1.0  T
   8   -399.4010717  0.242305E-02  0.986E-02    0.05       1.0  T
   9   -399.4035003 -0.242863E-02  0.634E-02    0.05       1.0  T
  10   -399.4053740 -0.187374E-02  0.126E-02    0.05       1.0  T
  11   -399.4054037 -0.297010E-04  0.552E-03    0.05       1.2  T
  12   -399.4053770  0.266900E-04  0.820E-03    0.05       1.0  T
  13   -399.4054047 -0.276615E-04  0.336E-03    0.05       1.9  T
  14   -399.4054069 -0.216551E-05  0.187E-03    0.05       3.4  T
  15   -399.4054052  0.171978E-05  0.246E-03    0.05       2.6  T
  16   -399.4054074 -0.223846E-05  0.758E-04    0.05       8.5  T
  17   -399.4054073  0.454934E-07  0.850E-04    0.05       7.6  T
  18   -399.4054076 -0.258028E-06  0.307E-04    0.05      21.0  T
     SCC iter.                  ...        0 min,  1.541 sec
     gradient                   ...        0 min,  0.502 sec
 * total energy  :  -394.1016457 Eh     change       -0.1040537E+00 Eh
   gradient norm :     0.1753872 Eh/α   predicted    -0.3603179E-01 ( -65.37%)
   displ. norm   :     0.1262478 α      lambda       -0.2161637E-01
   maximum displ.:     0.0694698 α      in ANC's #80, #81, #10, ...

........................................................................
.............................. CYCLE    3 ..............................
........................................................................

 iter      E             dE          RMSdq      gap      omega  full diag
   1   -399.4004314 -0.399400E+03  0.275E-01    0.07       0.0  T
   2   -398.7217641  0.678667E+00  0.126E+00    0.26       1.0  T
   3   -399.3690840 -0.647320E+00  0.426E-01    0.08       1.0  T
   4   -399.3653306  0.375335E-02  0.364E-01    0.09       1.0  T
   5   -399.4234739 -0.581433E-01  0.103E-01    0.06       1.0  T
   6   -399.4236462 -0.172269E-03  0.813E-02    0.05       1.0  T
   7   -399.4252997 -0.165351E-02  0.404E-02    0.05       1.0  T
   8   -399.4255483 -0.248618E-03  0.118E-02    0.05       1.0  T
   9   -399.4248647  0.683564E-03  0.386E-02    0.05       1.0  T
  10   -399.4255039 -0.639198E-03  0.134E-02    0.05       1.0  T
  11   -399.4255741 -0.701188E-04  0.320E-03    0.05       2.0  T
  12   -399.4255746 -0.517145E-06  0.269E-03    0.05       2.4  T
  13   -399.4255764 -0.181868E-05  0.158E-03    0.05       4.1  T
  14   -399.4255768 -0.421749E-06  0.734E-04    0.05       8.8  T
  15   -399.4255768  0.472995E-07  0.581E-04    0.05      11.1  T
     SCC iter.                  ...        0 min,  1.290 sec
     gradient                   ...        0 min,  0.497 sec
 * total energy  :  -394.1431952 Eh     change       -0.4154945E-01 Eh
   gradient norm :     0.0966619 Eh/α   predicted    -0.1098236E-01 ( -73.57%)
   displ. norm   :     0.1485625 α      lambda       -0.1396664E-01
   maximum displ.:     0.0817056 α      in ANC's #80, #10, #81, ...

........................................................................
.............................. CYCLE    4 ..............................
........................................................................

 iter      E             dE          RMSdq      gap      omega  full diag
   1   -399.4270173 -0.399427E+03  0.269E-01    0.07       0.0  T
   2   -398.7607623  0.666255E+00  0.123E+00    0.25       1.0  T
   3   -399.4253630 -0.664601E+00  0.353E-01    0.06       1.0  T
   4   -399.4315740 -0.621098E-02  0.220E-01    0.05       1.0  T
   5   -399.4419934 -0.104194E-01  0.149E-01    0.06       1.0  T
   6   -399.4478125 -0.581913E-02  0.940E-02    0.05       1.0  T
   7   -399.4502052 -0.239269E-02  0.299E-02    0.05       1.0  T
   8   -399.4503409 -0.135734E-03  0.199E-02    0.05       1.0  T
   9   -399.4500626  0.278358E-03  0.290E-02    0.05       1.0  T
  10   -399.4504378 -0.375234E-03  0.707E-03    0.05       1.0  T
  11   -399.4504315  0.634205E-05  0.554E-03    0.05       1.2  T
  12   -399.4504458 -0.143735E-04  0.114E-03    0.05       5.6  T
  13   -399.4504435  0.237055E-05  0.233E-03    0.05       2.8  T
  14   -399.4504460 -0.253678E-05  0.691E-04    0.05       9.3  T
  15   -399.4504455  0.507986E-06  0.120E-03    0.05       5.4  T
  16   -399.4504460 -0.504736E-06  0.496E-04    0.05      13.0  T
  17   -399.4504461 -0.839066E-07  0.235E-04    0.05      27.3  T
     SCC iter.                  ...        0 min,  1.485 sec
     gradient                   ...        0 min,  0.519 sec
 * total energy  :  -394.1706526 Eh     change       -0.2745739E-01 Eh
   gradient norm :     0.0675749 Eh/α   predicted    -0.7137852E-02 ( -74.00%)
   displ. norm   :     0.1212540 α      lambda       -0.6357568E-02
   maximum displ.:     0.0673347 α      in ANC's #80, #1, #72, ...

........................................................................
.............................. CYCLE    5 ..............................
........................................................................

 iter      E             dE          RMSdq      gap      omega  full diag
   1   -399.4537312 -0.399454E+03  0.196E-01    0.06       0.0  T
   2   -398.8132007  0.640531E+00  0.117E+00    0.33       1.0  T
   3   -399.4622065 -0.649006E+00  0.169E-01    0.05       1.0  T
   4   -399.4661166 -0.391010E-02  0.775E-02    0.05       1.0  T
   5   -399.4665433 -0.426752E-03  0.568E-02    0.05       1.0  T
   6   -399.4627738  0.376955E-02  0.914E-02    0.06       1.0  T
   7   -399.4666510 -0.387725E-02  0.389E-02    0.04       1.0  T
   8   -399.4670164 -0.365388E-03  0.149E-02    0.05       1.0  T
   9   -399.4671005 -0.840303E-04  0.790E-03    0.05       1.0  T
  10   -399.4670673  0.331319E-04  0.953E-03    0.05       1.0  T
  11   -399.4671115 -0.441713E-04  0.155E-03    0.05       4.1  T
  12   -399.4671117 -0.220315E-06  0.904E-04    0.05       7.1  T
  13   -399.4671118 -0.729128E-07  0.495E-04    0.05      13.0  T
     SCC iter.                  ...        0 min,  1.143 sec
     gradient                   ...        0 min,  0.523 sec
 * total energy  :  -394.1794540 Eh     change       -0.8801436E-02 Eh
   gradient norm :     0.0711400 Eh/α   predicted    -0.3225544E-02 ( -63.35%)
   displ. norm   :     0.2043044 α      lambda       -0.9103894E-02
   maximum displ.:     0.1087194 α      in ANC's #80, #1, #72, ...

........................................................................
.............................. CYCLE    6 ..............................
........................................................................

 iter      E             dE          RMSdq      gap      omega  full diag
   1   -399.4579180 -0.399458E+03  0.281E-01    0.07       0.0  T
   2   -398.6396470  0.818271E+00  0.131E+00    0.44       1.0  T
   3   -399.4779606 -0.838314E+00  0.183E-01    0.04       1.0  T
   4   -399.4714577  0.650284E-02  0.166E-01    0.06       1.0  T
   5   -399.4629967  0.846103E-02  0.211E-01    0.03       1.0  T
   6   -399.4798205 -0.168238E-01  0.102E-01    0.06       1.0  T
   7   -399.4835301 -0.370961E-02  0.325E-02    0.04       1.0  T
   8   -399.4835826 -0.525362E-04  0.240E-02    0.04       1.0  T
   9   -399.4836345 -0.518441E-04  0.224E-02    0.04       1.0  T
  10   -399.4836896 -0.551450E-04  0.162E-02    0.04       1.0  T
  11   -399.4838117 -0.122061E-03  0.329E-03    0.04       2.0  T
  12   -399.4838127 -0.104741E-05  0.173E-03    0.04       3.7  T
  13   -399.4838112  0.149290E-05  0.206E-03    0.04       3.1  T
  14   -399.4838115 -0.281077E-06  0.190E-03    0.04       3.4  T
  15   -399.4838129 -0.139887E-05  0.965E-04    0.04       6.7  T
  16   -399.4838132 -0.260182E-06  0.524E-04    0.04      12.3  T
  17   -399.4838133 -0.101823E-06  0.159E-04    0.04      40.5  T
     SCC iter.                  ...        0 min,  1.519 sec
     gradient                   ...        0 min,  0.536 sec
 * total energy  :  -394.1665171 Eh     change        0.1293690E-01 Eh
   gradient norm :     0.0703379 Eh/α   predicted    -0.4742174E-02 (-136.66%)
   displ. norm   :     0.2486360 α      lambda       -0.8945871E-02
   maximum displ.:     0.1368796 α      in ANC's #1, #80, #72, ...

........................................................................
.............................. CYCLE    7 ..............................
........................................................................

 iter      E             dE          RMSdq      gap      omega  full diag
   1   -399.4513974 -0.399451E+03  0.339E-01    0.07       0.0  T
   2   -398.4817729  0.969625E+00  0.142E+00    0.49       1.0  T
   3   -399.4743660 -0.992593E+00  0.236E-01    0.08       1.0  T
   4   -399.4655395  0.882647E-02  0.218E-01    0.02       1.0  T
   5   -399.4621853  0.335419E-02  0.218E-01    0.07       1.0  T
   6   -399.4841494 -0.219640E-01  0.856E-02    0.05       1.0  T
   7   -399.4841339  0.154230E-04  0.644E-02    0.05       1.0  T
   8   -399.4857116 -0.157765E-02  0.254E-02    0.04       1.0  T
   9   -399.4857239 -0.122631E-04  0.207E-02    0.04       1.0  T
  10   -399.4858394 -0.115555E-03  0.114E-02    0.04       1.0  T
  11   -399.4858934 -0.539430E-04  0.323E-03    0.04       2.0  T
  12   -399.4858937 -0.369123E-06  0.221E-03    0.04       2.9  T
  13   -399.4858945 -0.803563E-06  0.103E-03    0.04       6.3  T
  14   -399.4858939  0.614650E-06  0.142E-03    0.04       4.5  T
  15   -399.4858946 -0.703621E-06  0.578E-04    0.04      11.1  T
  16   -399.4858946 -0.303538E-07  0.368E-04    0.04      17.5  T
     SCC iter.                  ...        0 min,  1.438 sec
     gradient                   ...        0 min,  0.541 sec
 * total energy  :  -394.1034711 Eh     change        0.6304598E-01 Eh
   gradient norm :     0.0498679 Eh/α   predicted    -0.4749531E-02 (-107.53%)
   displ. norm   :     0.1511096 α      lambda       -0.3527174E-02
   maximum displ.:     0.0877082 α      in ANC's #1, #72, #80, ...

........................................................................
.............................. CYCLE    8 ..............................
........................................................................

 iter      E             dE          RMSdq      gap      omega  full diag
   1   -399.4639421 -0.399464E+03  0.215E-01    0.07       0.0  T
   2   -399.0483895  0.415553E+00  0.995E-01    0.60       1.0  T
   3   -399.4656796 -0.417290E+00  0.209E-01    0.09       1.0  T
   4   -399.4660006 -0.321042E-03  0.157E-01    0.03       1.0  T
   5   -399.4683817 -0.238105E-02  0.135E-01    0.06       1.0  T
   6   -399.4765153 -0.813369E-02  0.505E-02    0.05       1.0  T
   7   -399.4769338 -0.418498E-03  0.280E-02    0.05       1.0  T
   8   -399.4771000 -0.166127E-03  0.925E-03    0.05       1.0  T
   9   -399.4771097 -0.975691E-05  0.589E-03    0.05       1.1  T
  10   -399.4771174 -0.767886E-05  0.238E-03    0.05       2.7  T
  11   -399.4771179 -0.542133E-06  0.147E-03    0.05       4.4  T
  12   -399.4771181 -0.203067E-06  0.843E-04    0.05       7.6  T
  13   -399.4771181  0.936504E-07  0.832E-04    0.05       7.7  T
     SCC iter.                  ...        0 min,  1.185 sec
     gradient                   ...        0 min,  0.535 sec
 * total energy  :  -394.0408119 Eh     change        0.6265920E-01 Eh
   gradient norm :     0.0316437 Eh/α   predicted    -0.1803935E-02 (-102.88%)
   displ. norm   :     0.0449436 α      lambda       -0.8936320E-03
   maximum displ.:     0.0233001 α      in ANC's #1, #72, #80, ...

........................................................................
.............................. CYCLE    9 ..............................
........................................................................

 iter      E             dE          RMSdq      gap      omega  full diag
   1   -399.4713498 -0.399471E+03  0.615E-02    0.05       0.0  T
   2   -399.2947575  0.176592E+00  0.597E-01    0.09       1.0  T
   3   -399.4638513 -0.169094E+00  0.138E-01    0.07       1.0  T
   4   -399.4721724 -0.832104E-02  0.309E-02    0.05       1.0  T
   5   -399.4717618  0.410522E-03  0.348E-02    0.05       1.0  T
   6   -399.4722885 -0.526718E-03  0.122E-02    0.05       1.0  T
   7   -399.4723023 -0.137050E-04  0.615E-03    0.05       1.0  T
   8   -399.4722741  0.281239E-04  0.820E-03    0.05       1.0  T
   9   -399.4723051 -0.310071E-04  0.299E-03    0.05       2.1  T
  10   -399.4723087 -0.357561E-05  0.106E-03    0.05       6.0  T
  11   -399.4723090 -0.273652E-06  0.681E-04    0.05       9.4  T
  12   -399.4723089  0.364781E-07  0.545E-04    0.05      11.8  T
     SCC iter.                  ...        0 min,  1.102 sec
     gradient                   ...        0 min,  0.546 sec
 * total energy  :  -394.0244792 Eh     change        0.1633269E-01 Eh
   gradient norm :     0.0275693 Eh/α   predicted    -0.4478680E-03 (-102.74%)
   displ. norm   :     0.0563041 α      lambda       -0.1175188E-02
   maximum displ.:     0.0211917 α      in ANC's #42, #81, #72, ...

........................................................................
.............................. CYCLE   10 ..............................
........................................................................

 iter      E             dE          RMSdq      gap      omega  full diag
   1   -399.4668102 -0.399467E+03  0.558E-02    0.05       0.0  T
   2   -399.4581071  0.870307E-02  0.153E-01    0.03       1.0  T
   3   -399.4452789  0.128282E-01  0.206E-01    0.08       1.0  T
   4   -399.4671664 -0.218875E-01  0.279E-02    0.05       1.0  T
   5   -399.4671362  0.302123E-04  0.205E-02    0.05       1.0  T
   6   -399.4672011 -0.648382E-04  0.150E-02    0.05       1.0  T
   7   -399.4672317 -0.306558E-04  0.710E-03    0.05       1.0  T
   8   -399.4672371 -0.533315E-05  0.563E-03    0.05       1.1  T
   9   -399.4672497 -0.126618E-04  0.238E-03    0.05       2.7  T
  10   -399.4672522 -0.245360E-05  0.526E-04    0.05      12.2  T
  11   -399.4672522 -0.260542E-07  0.347E-04    0.05      18.5  T
  12   -399.4672522 -0.319955E-08  0.272E-04    0.05      23.7  T
     SCC iter.                  ...        0 min,  1.104 sec
     gradient                   ...        0 min,  0.548 sec
 * total energy  :  -394.0162678 Eh     change        0.8211423E-02 Eh
   gradient norm :     0.0305456 Eh/α   predicted    -0.5895115E-03 (-107.18%)
   displ. norm   :     0.0865525 α      lambda       -0.1533502E-02
   maximum displ.:     0.0341313 α      in ANC's #81, #42, #50, ...

........................................................................
.............................. CYCLE   11 ..............................
........................................................................

 iter      E             dE          RMSdq      gap      omega  full diag
   1   -399.4615091 -0.399462E+03  0.927E-02    0.04       0.0  T
   2   -399.4355394  0.259697E-01  0.243E-01    0.08       1.0  T
   3   -399.3232190  0.112320E+00  0.519E-01    0.07       1.0  T
   4   -399.4624946 -0.139276E+00  0.540E-02    0.05       1.0  T
   5   -399.4615839  0.910676E-03  0.505E-02    0.05       1.0  T
   6   -399.4626980 -0.111407E-02  0.251E-02    0.05       1.0  T
   7   -399.4627594 -0.614292E-04  0.122E-02    0.05       1.0  T
   8   -399.4627418  0.176281E-04  0.109E-02    0.05       1.0  T
   9   -399.4627587 -0.168599E-04  0.699E-03    0.05       1.0  T
  10   -399.4627773 -0.186120E-04  0.309E-03    0.05       2.1  T
  11   -399.4627810 -0.371241E-05  0.128E-03    0.05       5.0  T
  12   -399.4627813 -0.318107E-06  0.549E-04    0.05      11.7  T
  13   -399.4627814 -0.779001E-07  0.193E-04    0.05      33.4  T
     SCC iter.                  ...        0 min,  1.224 sec
     gradient                   ...        0 min,  0.542 sec
 * total energy  :  -394.0073797 Eh     change        0.8888124E-02 Eh
   gradient norm :     0.0392530 Eh/α   predicted    -0.7727375E-03 (-108.69%)
   displ. norm   :     0.1816975 α      lambda       -0.2962708E-02
   maximum displ.:     0.0735103 α      in ANC's #50, #42, #13, ...

........................................................................
.............................. CYCLE   12 ..............................
........................................................................

 iter      E             dE          RMSdq      gap      omega  full diag
   1   -399.4497713 -0.399450E+03  0.249E-01    0.04       0.0  T
   2   -399.3893694  0.604018E-01  0.462E-01    0.09       1.0  T
   3   -399.2012754  0.188094E+00  0.715E-01    0.22       1.0  T
   4   -399.4555633 -0.254288E+00  0.138E-01    0.05       1.0  T
   5   -399.4545124  0.105089E-02  0.100E-01    0.06       1.0  T
   6   -399.4578491 -0.333675E-02  0.528E-02    0.05       1.0  T
   7   -399.4580836 -0.234512E-03  0.272E-02    0.05       1.0  T
   8   -399.4577208  0.362834E-03  0.351E-02    0.05       1.0  T
   9   -399.4582068 -0.485997E-03  0.879E-03    0.05       1.0  T
  10   -399.4581790  0.277963E-04  0.862E-03    0.05       1.0  T
  11   -399.4582125 -0.335067E-04  0.227E-03    0.05       2.8  T
  12   -399.4582130 -0.458898E-06  0.100E-03    0.05       6.4  T
  13   -399.4582131 -0.137413E-06  0.662E-04    0.05       9.7  T
  14   -399.4582132 -0.771286E-07  0.439E-04    0.05      14.7  T
     SCC iter.                  ...        0 min,  1.330 sec
     gradient                   ...        0 min,  0.553 sec
 * total energy  :  -393.9673824 Eh     change        0.3999731E-01 Eh
   gradient norm :     0.0542815 Eh/α   predicted    -0.1530306E-02 (-103.83%)
   displ. norm   :     0.3428808 α      lambda       -0.5373013E-02
   maximum displ.:     0.1481727 α      in ANC's #50, #13, #42, ...

........................................................................
.............................. CYCLE   13 ..............................
........................................................................

 iter      E             dE          RMSdq      gap      omega  full diag
   1   -399.4222821 -0.399422E+03  0.487E-01    0.05       0.0  T
   2   -398.8233518  0.598930E+00  0.121E+00    0.42       1.0  T
   3   -399.1043844 -0.281033E+00  0.882E-01    0.13       1.0  T
   4   -399.4390547 -0.334670E+00  0.323E-01    0.05       1.0  T
   5   -399.4215933  0.174613E-01  0.300E-01    0.08       1.0  T
   6   -399.4453849 -0.237916E-01  0.174E-01    0.03       1.0  T
   7   -399.4504446 -0.505968E-02  0.125E-01    0.06       1.0  T
   8   -399.4556021 -0.515746E-02  0.486E-02    0.04       1.0  T
   9   -399.4537951  0.180697E-02  0.658E-02    0.03       1.0  T
  10   -399.4555000 -0.170493E-02  0.290E-02    0.05       1.0  T
  11   -399.4558776 -0.377548E-03  0.114E-02    0.04       1.0  T
  12   -399.4558787 -0.113505E-05  0.576E-03    0.04       1.1  T
  13   -399.4558749  0.382923E-05  0.596E-03    0.04       1.1  T
  14   -399.4558859 -0.109761E-04  0.324E-03    0.04       2.0  T
  15   -399.4558898 -0.391864E-05  0.128E-03    0.04       5.0  T
  16   -399.4558904 -0.602305E-06  0.389E-04    0.04      16.5  T
  17   -399.4558904 -0.140619E-07  0.242E-04    0.04      26.5  T
     SCC iter.                  ...        0 min,  1.614 sec
     gradient                   ...        0 min,  0.556 sec
 * total energy  :  -393.7852139 Eh     change        0.1821685E+00 Eh
   gradient norm :     0.0719155 Eh/α   predicted    -0.3002513E-02 (-101.65%)
   displ. norm   :     0.4038040 α      lambda       -0.6542888E-02
   maximum displ.:     0.1825598 α      in ANC's #50, #13, #80, ...

........................................................................
.............................. CYCLE   14 ..............................
........................................................................

 iter      E             dE          RMSdq      gap      omega  full diag
   1   -399.4271878 -0.399427E+03  0.474E-01    0.05       0.0  T
   2   -398.8099628  0.617225E+00  0.125E+00    0.50       1.0  T
   3   -399.3249476 -0.514985E+00  0.652E-01    0.09       1.0  T
   4   -399.3887262 -0.637786E-01  0.481E-01    0.09       1.0  T
   5   -399.4299271 -0.412009E-01  0.358E-01    0.08       1.0  T
   6   -399.4433165 -0.133894E-01  0.217E-01    0.07       1.0  T
   7   -399.4559918 -0.126753E-01  0.777E-02    0.04       1.0  T
   8   -399.4562527 -0.260865E-03  0.571E-02    0.05       1.0  T
   9   -399.4551980  0.105471E-02  0.660E-02    0.03       1.0  T
  10   -399.4539218  0.127618E-02  0.853E-02    0.05       1.0  T
  11   -399.4565907 -0.266887E-02  0.363E-02    0.04       1.0  T
  12   -399.4571504 -0.559720E-03  0.495E-03    0.04       1.3  T
  13   -399.4571481  0.225737E-05  0.474E-03    0.04       1.4  T
  14   -399.4571559 -0.774737E-05  0.158E-03    0.04       4.1  T
  15   -399.4571551  0.778413E-06  0.185E-03    0.04       3.5  T
  16   -399.4571561 -0.100327E-05  0.108E-03    0.04       5.9  T
  17   -399.4571565 -0.376049E-06  0.501E-04    0.04      12.8  T
  18   -399.4571564  0.101106E-06  0.679E-04    0.04       9.5  T
     SCC iter.                  ...        0 min,  1.712 sec
     gradient                   ...        0 min,  0.568 sec
 * total energy  :  -393.2605730 Eh     change        0.5246408E+00 Eh
   gradient norm :     0.0892431 Eh/α   predicted    -0.3804981E-02 (-100.73%)
   displ. norm   :     0.3571027 α      lambda       -0.7721442E-02
   maximum displ.:     0.1621257 α      in ANC's #50, #80, #13, ...

........................................................................
.............................. CYCLE   15 ..............................
........................................................................

 iter      E             dE          RMSdq      gap      omega  full diag
   1   -399.4499252 -0.399450E+03  0.369E-01    0.04       0.0  T
   2   -399.4278882  0.220370E-01  0.360E-01    0.01       1.0  T
   3   -399.3453041  0.825842E-01  0.619E-01    0.07       1.0  T
   4   -399.4437933 -0.984892E-01  0.290E-01    0.05       1.0  T
   5   -399.4490147 -0.522142E-02  0.208E-01    0.03       1.0  T
   6   -399.4346243  0.143904E-01  0.301E-01    0.06       1.0  T
   7   -399.4479787 -0.133544E-01  0.212E-01    0.02       1.0  T
   8   -399.4613169 -0.133383E-01  0.962E-02    0.05       1.0  T
   9   -399.4643385 -0.302155E-02  0.369E-02    0.03       1.0  T
  10   -399.4648558 -0.517332E-03  0.124E-02    0.04       1.0  T
  11   -399.4648955 -0.396943E-04  0.679E-03    0.04       1.0  T
  12   -399.4648497  0.457608E-04  0.115E-02    0.04       1.0  T
  13   -399.4649037 -0.539431E-04  0.135E-03    0.04       4.8  T
  14   -399.4649040 -0.324975E-06  0.961E-04    0.04       6.7  T
  15   -399.4649038  0.187227E-06  0.103E-03    0.04       6.2  T
  16   -399.4649042 -0.342785E-06  0.275E-04    0.04      23.4  T
     SCC iter.                  ...        0 min,  1.534 sec
     gradient                   ...        0 min,  0.563 sec
 * total energy  :  -392.2082645 Eh     change        0.1052309E+01 Eh
   gradient norm :     0.1038354 Eh/α   predicted    -0.4353074E-02 (-100.41%)
   displ. norm   :     0.4312801 α      lambda       -0.1527851E-01
   maximum displ.:     0.2201221 α      in ANC's #80, #50, #1, ...

........................................................................
.............................. CYCLE   16 ..............................
........................................................................

 iter      E             dE          RMSdq      gap      omega  full diag
   1   -399.4688945 -0.399469E+03  0.475E-01    0.03       0.0  T
   2   -399.3929463  0.759482E-01  0.637E-01    0.08       1.0  T
   3   -399.0774820  0.315464E+00  0.100E+00    0.32       1.0  T
   4   -399.3725808 -0.295099E+00  0.653E-01    0.11       1.0  T
   5   -399.4479892 -0.754085E-01  0.403E-01    0.10       1.0  T
   6   -399.4681643 -0.201751E-01  0.277E-01    0.08       1.0  T
   7   -399.4707485 -0.258416E-02  0.237E-01    0.08       1.0  T
   8   -399.4912294 -0.204809E-01  0.605E-02    0.04       1.0  T
   9   -399.4884157  0.281361E-02  0.923E-02    0.05       1.0  T
  10   -399.4909927 -0.257695E-02  0.615E-02    0.04       1.0  T
  11   -399.4916540 -0.661291E-03  0.225E-02    0.04       1.0  T
  12   -399.4917830 -0.129045E-03  0.104E-02    0.04       1.0  T
  13   -399.4917835 -0.504618E-06  0.927E-03    0.04       1.0  T
  14   -399.4918172 -0.336886E-04  0.287E-03    0.04       2.2  T
  15   -399.4918192 -0.193572E-05  0.137E-03    0.04       4.7  T
  16   -399.4918184  0.742547E-06  0.183E-03    0.04       3.5  T
  17   -399.4918199 -0.145280E-05  0.376E-04    0.04      17.1  T
  18   -399.4918196  0.217010E-06  0.766E-04    0.04       8.4  T
  19   -399.4918197 -0.168218E-07  0.750E-04    0.04       8.6  T
     SCC iter.                  ...        0 min,  1.822 sec
     gradient                   ...        0 min,  0.570 sec
 * total energy  :  -389.3793365 Eh     change        0.2828928E+01 Eh
   gradient norm :     0.1109752 Eh/α   predicted    -0.9060875E-02 (-100.32%)
   displ. norm   :     0.3699478 α      lambda       -0.1278730E-01
   maximum displ.:     0.2093118 α      in ANC's #80, #50, #1, ...

........................................................................
.............................. CYCLE   17 ..............................
........................................................................

 iter      E             dE          RMSdq      gap      omega  full diag
   1   -399.4988632 -0.399499E+03  0.523E-01    0.06       0.0  T
   2   -399.2585956  0.240268E+00  0.832E-01    0.28       1.0  T
   3   -399.1970267  0.615689E-01  0.894E-01    0.15       1.0  T
   4   -399.4071910 -0.210164E+00  0.606E-01    0.04       1.0  T
   5   -399.4860159 -0.788249E-01  0.329E-01    0.08       1.0  T
   6   -399.5170474 -0.310315E-01  0.153E-01    0.04       1.0  T
   7   -399.5037560  0.132914E-01  0.240E-01    0.05       1.0  T
   8   -399.5176807 -0.139247E-01  0.127E-01    0.06       1.0  T
   9   -399.5215505 -0.386976E-02  0.672E-02    0.05       1.0  T
  10   -399.5220763 -0.525815E-03  0.391E-02    0.04       1.0  T
  11   -399.5222517 -0.175417E-03  0.198E-02    0.05       1.0  T
  12   -399.5222513  0.383599E-06  0.155E-02    0.05       1.0  T
  13   -399.5223244 -0.730914E-04  0.671E-03    0.05       1.0  T
  14   -399.5223286 -0.417457E-05  0.343E-03    0.05       1.9  T
  15   -399.5223291 -0.458128E-06  0.183E-03    0.05       3.5  T
  16   -399.5223277  0.138317E-05  0.243E-03    0.05       2.7  T
  17   -399.5223296 -0.188878E-05  0.951E-04    0.05       6.8  T
  18   -399.5223292  0.370782E-06  0.118E-03    0.05       5.4  T
  19   -399.5223296 -0.351760E-06  0.673E-04    0.05       9.5  T
  20   -399.5223297 -0.107299E-06  0.385E-04    0.05      16.7  T
     SCC iter.                  ...        0 min,  1.922 sec
     gradient                   ...        0 min,  0.579 sec
 * total energy  :  -384.0734368 Eh     change        0.5305900E+01 Eh
   gradient norm :     0.0940457 Eh/α   predicted    -0.7268746E-02 (-100.14%)
   displ. norm   :     0.4062107 α      lambda       -0.9512456E-02
   maximum displ.:     0.1940424 α      in ANC's #80, #50, #13, ...

........................................................................
.............................. CYCLE   18 ..............................
........................................................................

 iter      E             dE          RMSdq      gap      omega  full diag
   1   -399.5165523 -0.399517E+03  0.772E-01    0.10       0.0  T
   2   -398.9423114  0.574241E+00  0.133E+00    0.45       1.0  T
   3   -398.7734426  0.168869E+00  0.153E+00    0.35       1.0  T
   4   -399.4755865 -0.702144E+00  0.555E-01    0.07       1.0  T
   5   -399.3927153  0.828711E-01  0.756E-01    0.05       1.0  T
   6   -399.5432146 -0.150499E+00  0.290E-01    0.07       1.0  T
   7   -399.5258178  0.173967E-01  0.346E-01    0.03       1.0  T
   8   -399.5533535 -0.275357E-01  0.136E-01    0.05       1.0  T
   9   -399.5460019  0.735159E-02  0.184E-01    0.05       1.0  T
  10   -399.5444931  0.150878E-02  0.175E-01    0.06       1.0  T
  11   -399.5568483 -0.123552E-01  0.373E-02    0.06       1.0  T
  12   -399.5571000 -0.251635E-03  0.215E-02    0.07       1.0  T
  13   -399.5563268  0.773146E-03  0.442E-02    0.07       1.0  T
  14   -399.5571370 -0.810234E-03  0.124E-02    0.07       1.0  T
  15   -399.5571496 -0.125525E-04  0.113E-02    0.07       1.0  T
  16   -399.5571826 -0.330094E-04  0.574E-03    0.07       1.1  T
  17   -399.5571918 -0.923216E-05  0.223E-03    0.07       2.9  T
  18   -399.5571924 -0.597463E-06  0.186E-03    0.07       3.5  T
  19   -399.5571922  0.241060E-06  0.191E-03    0.07       3.4  T
  20   -399.5571906  0.160441E-05  0.257E-03    0.07       2.5  T
  21   -399.5571907 -0.109173E-06  0.252E-03    0.07       2.6  T
  22   -399.5571924 -0.173502E-05  0.133E-03    0.07       4.8  T
  23   -399.5571931 -0.668170E-06  0.265E-04    0.07      24.3  T
  24   -399.5571929  0.202037E-06  0.772E-04    0.07       8.3  T
     SCC iter.                  ...        0 min,  2.313 sec
     gradient                   ...        0 min,  0.576 sec
 * total energy  :  -370.1048135 Eh     change        0.1396862E+02 Eh
   gradient norm :     0.0702426 Eh/α   predicted    -0.5541086E-02 (-100.04%)
   displ. norm   :     0.4425325 α      lambda       -0.9190674E-02
   maximum displ.:     0.1685200 α      in ANC's #50, #80, #41, ...

........................................................................
.............................. CYCLE   19 ..............................
........................................................................

 iter      E             dE          RMSdq      gap      omega  full diag
   1   -399.5587379 -0.399559E+03  0.889E-01    0.09       0.0  T
   2   -399.3279269  0.230811E+00  0.113E+00    0.07       1.0  T
   3   -399.0236778  0.304249E+00  0.111E+00    0.07       1.0  T
   4   -398.8817814  0.141896E+00  0.134E+00    0.24       1.0  T
   5   -399.3570696 -0.475288E+00  0.814E-01    0.10       1.0  T
   6   -399.4664887 -0.109419E+00  0.602E-01    0.01       1.0  T
   7   -399.5166064 -0.501178E-01  0.613E-01    0.04       1.0  T
   8   -399.5441463 -0.275399E-01  0.550E-01    0.07       1.0  T
   9   -399.5671998 -0.230534E-01  0.381E-01    0.04       1.0  T
  10   -399.5391721  0.280276E-01  0.655E-01    0.06       1.0  T
  11   -399.4834173  0.557549E-01  0.532E-01    0.08       1.0  T
  12   -399.4979867 -0.145695E-01  0.496E-01    0.07       1.0  T
  13   -399.5506703 -0.526835E-01  0.371E-01    0.05       1.0  T
  14   -399.6032380 -0.525677E-01  0.136E-01    0.05       1.0  T
  15   -399.6062506 -0.301262E-02  0.867E-02    0.04       1.0  T
  16   -399.6044055  0.184510E-02  0.990E-02    0.05       1.0  T
  17   -399.6086077 -0.420221E-02  0.379E-02    0.05       1.0  T
  18   -399.6088516 -0.243942E-03  0.233E-02    0.05       1.0  T
  19   -399.6082198  0.631813E-03  0.429E-02    0.04       1.0  T
  20   -399.6084361 -0.216231E-03  0.387E-02    0.05       1.0  T
  21   -399.6080699  0.366113E-03  0.465E-02    0.05       1.0  T
  22   -399.6089719 -0.901992E-03  0.169E-02    0.05       1.0  T
  23   -399.6090208 -0.488863E-04  0.126E-02    0.05       1.0  T
  24   -399.6090659 -0.451125E-04  0.825E-03    0.05       1.0  T
  25   -399.6090473  0.186300E-04  0.107E-02    0.05       1.0  T
  26   -399.6090966 -0.493194E-04  0.114E-03    0.05       5.6  T
  27   -399.6090952  0.144879E-05  0.207E-03    0.05       3.1  T
  28   -399.6090961 -0.901476E-06  0.139E-03    0.05       4.6  T
  29   -399.6090965 -0.419473E-06  0.851E-04    0.05       7.6  T
  30   -399.6090968 -0.319763E-06  0.376E-04    0.05      17.1  T
     SCC iter.                  ...        0 min,  2.914 sec
     gradient                   ...        0 min,  0.575 sec
 * total energy  :  -328.9610329 Eh     change        0.4114378E+02 Eh
   gradient norm :     0.0432429 Eh/α   predicted    -0.5495445E-02 (-100.01%)
   displ. norm   :     0.2986560 α      lambda       -0.3109236E-02
   maximum displ.:     0.1206460 α      in ANC's #50, #41, #13, ...

........................................................................
.............................. CYCLE   20 ..............................
........................................................................

 iter      E             dE          RMSdq      gap      omega  full diag
   1   -399.5047621 -0.399505E+03  0.702E-01    0.04       0.0  T
   2   -397.3612469  0.214352E+01  0.216E+00    0.05       1.0  T
   3   -399.2502377 -0.188899E+01  0.122E+00    0.01       1.0  T
   4   -399.3097390 -0.595013E-01  0.868E-01    0.02       1.0  T
   5   -399.3730046 -0.632656E-01  0.833E-01    0.07       1.0  T
   6   -399.5801693 -0.207165E+00  0.407E-01    0.02       1.0  T
   7   -399.5908378 -0.106685E-01  0.338E-01    0.05       1.0  T
   8   -399.5949900 -0.415225E-02  0.358E-01    0.03       1.0  T
   9   -399.6080661 -0.130761E-01  0.190E-01    0.04       1.0  T
  10   -399.5965958  0.114704E-01  0.235E-01    0.03       1.0  T
  11   -399.6218672 -0.252714E-01  0.785E-02    0.02       1.0  T
  12   -399.6223836 -0.516454E-03  0.914E-02    0.03       1.0  T
  13   -399.6238623 -0.147867E-02  0.622E-02    0.03       1.0  T
  14   -399.6254582 -0.159595E-02  0.287E-02    0.03       1.0  T
  15   -399.6256546 -0.196375E-03  0.124E-02    0.03       1.0  T
  16   -399.6256603 -0.563309E-05  0.104E-02    0.03       1.0  T
  17   -399.6256808 -0.205779E-04  0.447E-03    0.03       1.4  T
  18   -399.6256819 -0.108449E-05  0.320E-03    0.03       2.0  T
  19   -399.6256802  0.167916E-05  0.309E-03    0.03       2.1  T
  20   -399.6256830 -0.272808E-05  0.189E-03    0.03       3.4  T
  21   -399.6256842 -0.120207E-05  0.124E-03    0.03       5.2  T
  22   -399.6256842 -0.753358E-07  0.111E-03    0.03       5.8  T
  23   -399.6256844 -0.154131E-06  0.662E-04    0.03       9.7  T
  24   -399.6256845 -0.985896E-07  0.460E-04    0.03      14.0  T
     SCC iter.                  ...        0 min,  2.341 sec
     gradient                   ...        0 min,  0.577 sec
 * total energy  :  -317.1736546 Eh     change        0.1178738E+02 Eh
   gradient norm :     0.0438099 Eh/α   predicted    -0.1694050E-02 (-100.01%)
   displ. norm   :     0.2537530 α      lambda       -0.2283801E-02
   maximum displ.:     0.1111461 α      in ANC's #50, #13, #41, ...
 * RMSD in coord.:     0.2419019 α      energy gain   0.7682394E+02 Eh

generating ANC from exact Hessian ...
Using Lindh-Hessian (1995)
 Shifting diagonal of input Hessian by    1.0033941800478421E-002
 Lowest  eigenvalues of input Hessian
    0.010000    0.010006    0.010011    0.000000    0.000000    0.000000
    0.000000    0.000000    0.000000    0.010045    0.010054    0.010066
    0.010087    0.010104    0.010114    0.010131    0.010145    0.010161
 Highest eigenvalues
    7.730678    8.002202    9.305748   10.374474   21.783863   30.069697


........................................................................
.............................. CYCLE   21 ..............................
........................................................................

 iter      E             dE          RMSdq      gap      omega  full diag
   1   -399.5452362 -0.399545E+03  0.505E-01    0.04       0.0  T
   2   -398.3698787  0.117536E+01  0.165E+00    0.10       1.0  T
   3   -399.3928073 -0.102293E+01  0.107E+00    0.01       1.0  T
   4   -399.1773388  0.215468E+00  0.975E-01    0.12       1.0  T
   5   -399.5163641 -0.339025E+00  0.672E-01    0.06       1.0  T
   6   -399.5822364 -0.658723E-01  0.408E-01    0.03       1.0  T
   7   -399.5118657  0.703707E-01  0.541E-01    0.06       1.0  T
   8   -399.5058103  0.605540E-02  0.525E-01    0.03       1.0  T
   9   -399.6048983 -0.990880E-01  0.283E-01    0.02       1.0  T
  10   -399.6113984 -0.650007E-02  0.208E-01    0.02       1.0  T
  11   -399.6200298 -0.863143E-02  0.820E-02    0.01       1.0  T
  12   -399.6190712  0.958580E-03  0.741E-02    0.02       1.0  T
  13   -399.6213236 -0.225245E-02  0.252E-02    0.02       1.0  T
  14   -399.6210971  0.226505E-03  0.298E-02    0.02       1.0  T
  15   -399.6212346 -0.137433E-03  0.206E-02    0.02       1.0  T
  16   -399.6214044 -0.169859E-03  0.165E-02    0.02       1.0  T
  17   -399.6214413 -0.368812E-04  0.107E-02    0.02       1.0  T
  18   -399.6214724 -0.310832E-04  0.581E-03    0.02       1.1  T
  19   -399.6214758 -0.337080E-05  0.346E-03    0.02       1.9  T
  20   -399.6214783 -0.248521E-05  0.181E-03    0.02       3.5  T
  21   -399.6214792 -0.979188E-06  0.810E-04    0.02       7.9  T
  22   -399.6214794 -0.169598E-06  0.342E-04    0.02      18.8  T
     SCC iter.                  ...        0 min,  2.171 sec
     gradient                   ...        0 min,  0.569 sec
 * total energy  :  -336.1071734 Eh     change       -0.1893352E+02 Eh
   gradient norm :     0.0372949 Eh/α   predicted     0.0000000E+00 (-100.00%)
   displ. norm   :     0.0204387 α      lambda       -0.7544471E-03
   maximum displ.:     0.0108446 α      in ANC's #35, #28, #6, ...

........................................................................
.............................. CYCLE   22 ..............................
........................................................................

 iter      E             dE          RMSdq      gap      omega  full diag
   1   -399.6223811 -0.399622E+03  0.548E-02    0.02       0.0  T
   2   -399.5461624  0.762187E-01  0.553E-01    0.03       1.0  T
   3   -399.5626344 -0.164720E-01  0.361E-01    0.03       1.0  T
   4   -399.6091375 -0.465031E-01  0.195E-01    0.02       1.0  T
   5   -399.6200551 -0.109176E-01  0.804E-02    0.02       1.0  T
   6   -399.6227315 -0.267636E-02  0.204E-02    0.02       1.0  T
   7   -399.6227560 -0.245426E-04  0.148E-02    0.02       1.0  T
   8   -399.6225995  0.156471E-03  0.181E-02    0.02       1.0  T
   9   -399.6227809 -0.181339E-03  0.524E-03    0.02       1.2  T
  10   -399.6227903 -0.939057E-05  0.352E-03    0.02       1.8  T
  11   -399.6227934 -0.315095E-05  0.103E-03    0.02       6.3  T
  12   -399.6227934  0.149870E-07  0.108E-03    0.02       5.9  T
  13   -399.6227937 -0.341440E-06  0.592E-04    0.02      10.9  T
  14   -399.6227932  0.506886E-06  0.105E-03    0.02       6.1  T
  15   -399.6227937 -0.495149E-06  0.484E-04    0.02      13.3  T
     SCC iter.                  ...        0 min,  1.468 sec
     gradient                   ...        0 min,  0.572 sec
 * total energy  :  -336.0983354 Eh     change        0.8837982E-02 Eh
   gradient norm :     0.0220373 Eh/α   predicted    -0.3799656E-03 (-104.30%)
   displ. norm   :     0.0293563 α      lambda       -0.6442529E-03
   maximum displ.:     0.0165971 α      in ANC's #35, #28, #50, ...

........................................................................
.............................. CYCLE   23 ..............................
........................................................................

 iter      E             dE          RMSdq      gap      omega  full diag
   1   -399.6244347 -0.399624E+03  0.816E-02    0.02       0.0  T
   2   -399.5163706  0.108064E+00  0.719E-01    0.03       1.0  T
   3   -399.5225663 -0.619577E-02  0.486E-01    0.03       1.0  T
   4   -399.5985930 -0.760267E-01  0.273E-01    0.03       1.0  T
   5   -399.6165846 -0.179916E-01  0.137E-01    0.02       1.0  T
   6   -399.6251604 -0.857574E-02  0.336E-02    0.01       1.0  T
   7   -399.6252676 -0.107215E-03  0.225E-02    0.01       1.0  T
   8   -399.6248642  0.403400E-03  0.287E-02    0.01       1.0  T
   9   -399.6253204 -0.456261E-03  0.698E-03    0.01       1.0  T
  10   -399.6253279 -0.742599E-05  0.634E-03    0.01       1.0  T
  11   -399.6253422 -0.143480E-04  0.116E-03    0.01       5.5  T
  12   -399.6253420  0.232982E-06  0.139E-03    0.01       4.6  T
  13   -399.6253424 -0.445355E-06  0.698E-04    0.01       9.2  T
  14   -399.6253415  0.955668E-06  0.141E-03    0.01       4.5  T
  15   -399.6253424 -0.924700E-06  0.639E-04    0.01      10.1  T
     SCC iter.                  ...        0 min,  1.473 sec
     gradient                   ...        0 min,  0.583 sec
 * total energy  :  -336.0758221 Eh     change        0.2251328E-01 Eh
   gradient norm :     0.0059251 Eh/α   predicted    -0.3225574E-03 (-101.43%)
   displ. norm   :     0.0031262 α      lambda       -0.1508784E-04
   maximum displ.:     0.0016950 α      in ANC's #27, #6, #50, ...

........................................................................
.............................. CYCLE   24 ..............................
........................................................................

 iter      E             dE          RMSdq      gap      omega  full diag
   1   -399.6256720 -0.399626E+03  0.782E-03    0.01       0.0  T
   2   -399.6210851  0.458693E-02  0.105E-01    0.02       1.0  T
   3   -399.6240630 -0.297791E-02  0.555E-02    0.02       1.0  T
   4   -399.6256530 -0.159002E-02  0.118E-02    0.01       1.0  T
   5   -399.6256164  0.366638E-04  0.164E-02    0.01       1.0  T
   6   -399.6256531 -0.367440E-04  0.800E-03    0.01       1.0  T
   7   -399.6256827 -0.295834E-04  0.178E-03    0.01       3.6  T
   8   -399.6256804  0.229259E-05  0.268E-03    0.01       2.4  T
   9   -399.6256842 -0.379250E-05  0.685E-04    0.01       9.4  T
  10   -399.6256837  0.498229E-06  0.970E-04    0.01       6.6  T
  11   -399.6256843 -0.609683E-06  0.292E-04    0.01      22.0  T
     SCC iter.                  ...        0 min,  1.084 sec
     gradient                   ...        0 min,  0.583 sec
 * total energy  :  -336.0658363 Eh     change        0.9985856E-02 Eh
   gradient norm :     0.0044061 Eh/α   predicted    -0.8780022E-05 (-100.09%)
   displ. norm   :     0.0085276 α      lambda       -0.3541225E-04
   maximum displ.:     0.0060406 α      in ANC's #27, #6, #50, ...

........................................................................
.............................. CYCLE   25 ..............................
........................................................................

 iter      E             dE          RMSdq      gap      omega  full diag
   1   -399.6262829 -0.399626E+03  0.236E-02    0.01       0.0  T
   2   -399.5710740  0.552089E-01  0.364E-01    0.04       1.0  T
   3   -399.6198234 -0.487494E-01  0.120E-01    0.02       1.0  T
   4   -399.6254524 -0.562898E-02  0.663E-02    0.02       1.0  T
   5   -399.6259275 -0.475082E-03  0.360E-02    0.01       1.0  T
   6   -399.6261390 -0.211527E-03  0.241E-02    0.01       1.0  T
   7   -399.6264190 -0.280053E-03  0.478E-03    0.01       1.3  T
   8   -399.6263710  0.480499E-04  0.101E-02    0.01       1.0  T
   9   -399.6264242 -0.531993E-04  0.241E-03    0.01       2.7  T
  10   -399.6264208  0.334308E-05  0.297E-03    0.01       2.2  T
  11   -399.6264263 -0.541444E-05  0.883E-04    0.01       7.3  T
  12   -399.6264263 -0.752920E-07  0.471E-04    0.01      13.7  T
  13   -399.6264262  0.130139E-06  0.618E-04    0.01      10.4  T
     SCC iter.                  ...        0 min,  1.280 sec
     gradient                   ...        0 min,  0.590 sec
 * total energy  :  -336.0297404 Eh     change        0.3609590E-01 Eh
   gradient norm :     0.0045858 Eh/α   predicted    -0.1776592E-04 (-100.05%)
   displ. norm   :     0.0075078 α      lambda       -0.1955446E-04
   maximum displ.:     0.0062999 α      in ANC's #27, #71, #72, ...

........................................................................
.............................. CYCLE   26 ..............................
........................................................................

 iter      E             dE          RMSdq      gap      omega  full diag
   1   -399.6266960 -0.399627E+03  0.245E-02    0.01       0.0  T
   2   -399.5537289  0.729671E-01  0.419E-01    0.04       1.0  T
   3   -399.6229185 -0.691897E-01  0.107E-01    0.02       1.0  T
   4   -399.6261036 -0.318506E-02  0.592E-02    0.01       1.0  T
   5   -399.6267794 -0.675793E-03  0.185E-02    0.01       1.0  T
   6   -399.6263575  0.421836E-03  0.312E-02    0.01       1.0  T
   7   -399.6268729 -0.515321E-03  0.515E-03    0.01       1.2  T
   8   -399.6267904  0.824356E-04  0.126E-02    0.01       1.0  T
   9   -399.6268781 -0.877066E-04  0.230E-03    0.01       2.8  T
  10   -399.6268747  0.341161E-05  0.282E-03    0.01       2.3  T
  11   -399.6268793 -0.459723E-05  0.897E-04    0.01       7.2  T
  12   -399.6268793  0.510768E-07  0.711E-04    0.01       9.0  T
  13   -399.6268794 -0.164913E-06  0.427E-04    0.01      15.1  T
     SCC iter.                  ...        0 min,  1.280 sec
     gradient                   ...        0 min,  0.613 sec
 * total energy  :  -335.9922207 Eh     change        0.3751972E-01 Eh
   gradient norm :     0.0058964 Eh/α   predicted    -0.9829898E-05 (-100.03%)
   displ. norm   :     0.0394258 α      lambda       -0.1050639E-03
   maximum displ.:     0.0341447 α      in ANC's #27, #71, #72, ...

........................................................................
.............................. CYCLE   27 ..............................
........................................................................

 iter      E             dE          RMSdq      gap      omega  full diag
   1   -399.6227824 -0.399623E+03  0.134E-01    0.01       0.0  T
   2   -399.2711464  0.351636E+00  0.961E-01    0.04       1.0  T
   3   -399.5733052 -0.302159E+00  0.429E-01    0.03       1.0  T
   4   -399.6020046 -0.286994E-01  0.302E-01    0.02       1.0  T
   5   -399.6275078 -0.255032E-01  0.785E-02    0.01       1.0  T
   6   -399.6270913  0.416478E-03  0.701E-02    0.01       1.0  T
   7   -399.6280651 -0.973751E-03  0.523E-02    0.01       1.0  T
   8   -399.6260642  0.200089E-02  0.645E-02    0.01       1.0  T
   9   -399.6281575 -0.209332E-02  0.328E-02    0.01       1.0  T
  10   -399.6286409 -0.483414E-03  0.140E-02    0.01       1.0  T
  11   -399.6287063 -0.654118E-04  0.530E-03    0.01       1.2  T
  12   -399.6287082 -0.186621E-05  0.324E-03    0.01       2.0  T
  13   -399.6287083 -0.158104E-06  0.285E-03    0.01       2.3  T
  14   -399.6287116 -0.331723E-05  0.155E-03    0.01       4.1  T
  15   -399.6287121 -0.488418E-06  0.113E-03    0.01       5.7  T
  16   -399.6287125 -0.363215E-06  0.750E-04    0.01       8.6  T
  17   -399.6287124  0.107808E-06  0.881E-04    0.01       7.3  T
     SCC iter.                  ...        0 min,  1.677 sec
     gradient                   ...        0 min,  0.604 sec
 * total energy  :  -335.7965915 Eh     change        0.1956291E+00 Eh
   gradient norm :     0.0107593 Eh/α   predicted    -0.5265094E-04 (-100.03%)
   displ. norm   :     0.0990295 α      lambda       -0.2340263E-03
   maximum displ.:     0.0866701 α      in ANC's #27, #71, #72, ...

........................................................................
.............................. CYCLE   28 ..............................
........................................................................

 iter      E             dE          RMSdq      gap      omega  full diag
   1   -399.5948316 -0.399595E+03  0.324E-01    0.02       0.0  T
   2   -398.5097067  0.108512E+01  0.167E+00    0.46       1.0  T
   3   -399.5465678 -0.103686E+01  0.617E-01    0.05       1.0  T
   4   -399.5291407  0.174271E-01  0.523E-01    0.02       1.0  T
   5   -399.5339487 -0.480797E-02  0.525E-01    0.04       1.0  T
   6   -399.5902754 -0.563268E-01  0.280E-01    0.01       1.0  T
   7   -399.6038016 -0.135261E-01  0.265E-01    0.02       1.0  T
   8   -399.6284473 -0.246457E-01  0.119E-01    0.00       1.0  T
   9   -399.6313274 -0.288012E-02  0.615E-02    0.00       1.0  T
  10   -399.6132963  0.180311E-01  0.192E-01    0.02       1.0  T
  11   -399.6276503 -0.143540E-01  0.101E-01    0.01       1.0  T
  12   -399.6304923 -0.284198E-02  0.634E-02    0.01       1.0  T
  13   -399.6315756 -0.108331E-02  0.369E-02    0.00       1.0  T
  14   -399.6321211 -0.545460E-03  0.128E-02    0.00       1.0  T
  15   -399.6321533 -0.322822E-04  0.853E-03    0.00       1.0  T
  16   -399.6321486  0.477400E-05  0.880E-03    0.00       1.0  T
  17   -399.6321706 -0.219918E-04  0.423E-03    0.00       1.5  T
  18   -399.6321775 -0.690016E-05  0.245E-03    0.00       2.6  T
  19   -399.6321800 -0.255024E-05  0.111E-03    0.00       5.8  T
  20   -399.6321803 -0.326698E-06  0.889E-04    0.00       7.2  T
  21   -399.6321807 -0.323500E-06  0.279E-04    0.00      23.0  T
     SCC iter.                  ...        0 min,  2.091 sec
     gradient                   ...        0 min,  0.601 sec
 * total energy  :  -335.3660669 Eh     change        0.4305247E+00 Eh
   gradient norm :     0.0177626 Eh/α   predicted    -0.1181897E-03 (-100.03%)
   displ. norm   :     0.3680143 α      lambda       -0.8404467E-03
   maximum displ.:     0.3230156 α      in ANC's #27, #71, #72, ...

........................................................................
.............................. CYCLE   29 ..............................
........................................................................

 iter      E             dE          RMSdq      gap      omega  full diag
   1   -399.4070112 -0.399407E+03  0.825E-01    0.06       0.0  T
   2   -393.2343151  0.617270E+01  0.392E+00    0.13       1.0  T
   3   -399.3241214 -0.608981E+01  0.111E+00    0.06       1.0  T
   4   -399.3189451  0.517634E-02  0.905E-01    0.09       1.0  T
   5   -399.4914331 -0.172488E+00  0.643E-01    0.01       1.0  T
   6   -399.4737222  0.177109E-01  0.682E-01    0.12       1.0  T
   7   -399.4936845 -0.199623E-01  0.498E-01    0.02       1.0  T
   8   -399.5483402 -0.546557E-01  0.437E-01    0.03       1.0  T
   9   -399.4909538  0.573864E-01  0.572E-01    0.03       1.0  T
  10   -399.6107390 -0.119785E+00  0.273E-01    0.03       1.0  T
  11   -399.6268373 -0.160983E-01  0.164E-01    0.04       1.0  T
  12   -399.6306482 -0.381087E-02  0.947E-02    0.04       1.0  T
  13   -399.6246817  0.596651E-02  0.146E-01    0.03       1.0  T
  14   -399.6216633  0.301833E-02  0.173E-01    0.03       1.0  T
  15   -399.6239030 -0.223968E-02  0.140E-01    0.03       1.0  T
  16   -399.6299802 -0.607719E-02  0.720E-02    0.04       1.0  T
  17   -399.6310428 -0.106256E-02  0.486E-02    0.04       1.0  T
  18   -399.6315743 -0.531553E-03  0.264E-02    0.04       1.0  T
  19   -399.6317396 -0.165330E-03  0.175E-02    0.04       1.0  T
  20   -399.6318411 -0.101444E-03  0.802E-03    0.04       1.0  T
  21   -399.6318498 -0.871025E-05  0.367E-03    0.04       1.8  T
  22   -399.6318524 -0.258921E-05  0.101E-03    0.04       6.4  T
  23   -399.6318523  0.513585E-07  0.746E-04    0.04       8.6  T
  24   -399.6318524 -0.581255E-07  0.737E-04    0.04       8.7  T
     SCC iter.                  ...        0 min,  2.404 sec
     gradient                   ...        0 min,  0.592 sec
 * total energy  :  -334.7332121 Eh     change        0.6328548E+00 Eh
   gradient norm :     0.0353575 Eh/α   predicted    -0.4771864E-03 (-100.08%)
   displ. norm   :     0.1712789 α      lambda       -0.4619825E-03
   maximum displ.:     0.1505473 α      in ANC's #27, #71, #72, ...

........................................................................
.............................. CYCLE   30 ..............................
........................................................................

 iter      E             dE          RMSdq      gap      omega  full diag
   1   -399.5991065 -0.399599E+03  0.296E-01    0.04       0.0  T
   2   -398.8525634  0.746543E+00  0.129E+00    0.12       1.0  T
   3   -399.5401115 -0.687548E+00  0.549E-01    0.13       1.0  T
   4   -399.4912145  0.488970E-01  0.708E-01    0.03       1.0  T
   5   -399.6021333 -0.110919E+00  0.283E-01    0.08       1.0  T
   6   -399.6032049 -0.107164E-02  0.257E-01    0.07       1.0  T
   7   -399.5989286  0.427637E-02  0.225E-01    0.05       1.0  T
   8   -399.6234933 -0.245648E-01  0.807E-02    0.05       1.0  T
   9   -399.6233070  0.186369E-03  0.787E-02    0.05       1.0  T
  10   -399.6250216 -0.171461E-02  0.377E-02    0.05       1.0  T
  11   -399.6250690 -0.473893E-04  0.336E-02    0.05       1.0  T
  12   -399.6249971  0.718697E-04  0.355E-02    0.05       1.0  T
  13   -399.6250963 -0.992149E-04  0.278E-02    0.05       1.0  T
  14   -399.6252515 -0.155129E-03  0.122E-02    0.05       1.0  T
  15   -399.6252951 -0.436576E-04  0.670E-03    0.05       1.0  T
  16   -399.6253046 -0.949556E-05  0.430E-03    0.05       1.5  T
  17   -399.6253065 -0.187491E-05  0.355E-03    0.05       1.8  T
  18   -399.6253085 -0.198267E-05  0.189E-03    0.05       3.4  T
  19   -399.6253087 -0.241208E-06  0.112E-03    0.05       5.7  T
  20   -399.6253086  0.859159E-07  0.847E-04    0.05       7.6  T
  21   -399.6253087 -0.129354E-06  0.555E-04    0.05      11.6  T
     SCC iter.                  ...        0 min,  2.114 sec
     gradient                   ...        0 min,  0.598 sec
 * total energy  :  -335.0186726 Eh     change       -0.2854605E+00 Eh
   gradient norm :     0.0360199 Eh/α   predicted    -0.2378041E-03 ( -99.92%)
   displ. norm   :     0.4054944 α      lambda       -0.2024754E-02
   maximum displ.:     0.3553581 α      in ANC's #27, #71, #72, ...

........................................................................
.............................. CYCLE   31 ..............................
........................................................................

 iter      E             dE          RMSdq      gap      omega  full diag
   1   -399.5308821 -0.399531E+03  0.579E-01    0.04       0.0  T
   2   -398.5428043  0.988078E+00  0.154E+00    0.13       1.0  T
   3   -399.4223969 -0.879593E+00  0.794E-01    0.27       1.0  T
   4   -399.3948172  0.275797E-01  0.935E-01    0.08       1.0  T
   5   -399.5326944 -0.137877E+00  0.536E-01    0.20       1.0  T
   6   -399.5442953 -0.116009E-01  0.453E-01    0.08       1.0  T
   7   -399.5878608 -0.435655E-01  0.229E-01    0.06       1.0  T
   8   -399.5778949  0.996596E-02  0.357E-01    0.05       1.0  T
   9   -399.6012794 -0.233845E-01  0.170E-01    0.05       1.0  T
  10   -399.5985521  0.272728E-02  0.185E-01    0.05       1.0  T
  11   -399.5966523  0.189983E-02  0.145E-01    0.05       1.0  T
  12   -399.5944788  0.217343E-02  0.189E-01    0.06       1.0  T
  13   -399.5904316  0.404728E-02  0.277E-01    0.06       1.0  T
  14   -399.6042845 -0.138530E-01  0.199E-01    0.05       1.0  T
  15   -399.6168522 -0.125677E-01  0.244E-01    0.05       1.0  T
  16   -399.6199934 -0.314117E-02  0.260E-01    0.04       1.0  T
  17   -399.6152593  0.473410E-02  0.324E-01    0.02       1.0  T
  18   -399.5979766  0.172826E-01  0.410E-01    0.02       1.0  T
  19   -399.5362121  0.617645E-01  0.563E-01    0.03       1.0  T
  20   -399.5543820 -0.181699E-01  0.504E-01    0.03       1.0  T
  21   -399.5623460 -0.796399E-02  0.477E-01    0.03       1.0  T
  22   -399.5891296 -0.267836E-01  0.275E-01    0.03       1.0  T
  23   -399.5888276  0.302040E-03  0.245E-01    0.04       1.0  T
  24   -399.5911179 -0.229029E-02  0.235E-01    0.04       1.0  T
  25   -399.5868877  0.423014E-02  0.297E-01    0.03       1.0  T
  26   -399.5875094 -0.621642E-03  0.285E-01    0.03       1.0  T
  27   -399.5901617 -0.265229E-02  0.232E-01    0.03       1.0  T
  28   -399.5865296  0.363212E-02  0.246E-01    0.03       1.0  T
  29   -399.5651253  0.214043E-01  0.390E-01    0.02       1.0  T
  30   -399.5906727 -0.255474E-01  0.215E-01    0.04       1.0  T
  31   -399.5941990 -0.352631E-02  0.188E-01    0.04       1.0  T
  32   -399.5988846 -0.468559E-02  0.249E-01    0.03       1.0  T
  33   -399.6008269 -0.194233E-02  0.309E-01    0.02       1.0  T
  34   -399.6003327  0.494276E-03  0.301E-01    0.02       1.0  T
  35   -399.5963058  0.402688E-02  0.287E-01    0.03       1.0  T
  36   -399.5908127  0.549312E-02  0.221E-01    0.04       1.0  T
  37   -399.5818092  0.900351E-02  0.293E-01    0.03       1.0  T
  38   -399.5445440  0.372652E-01  0.515E-01    0.03       1.0  T
  39   -399.4501425  0.944015E-01  0.850E-01    0.04       1.0  T
  40   -399.4337108  0.164317E-01  0.903E-01    0.04       1.0  T
  41   -399.4399386 -0.622785E-02  0.896E-01    0.04       1.0  T
  42   -399.4439425 -0.400389E-02  0.880E-01    0.04       1.0  T
  43   -399.4397093  0.423326E-02  0.893E-01    0.04       1.0  T
  44   -399.4750020 -0.352927E-01  0.788E-01    0.04       1.0  T
  45   -399.5292649 -0.542629E-01  0.587E-01    0.03       1.0  T
  46   -399.5379898 -0.872482E-02  0.539E-01    0.03       1.0  T
  47   -399.5612266 -0.232368E-01  0.426E-01    0.02       1.0  T
  48   -399.5806637 -0.194371E-01  0.292E-01    0.03       1.0  T
  49   -399.5909761 -0.103124E-01  0.199E-01    0.04       1.0  T
  50   -399.5951457 -0.416964E-02  0.182E-01    0.04       1.0  T
  51   -399.5953886 -0.242828E-03  0.210E-01    0.04       1.0  T
  52   -399.5940945  0.129403E-02  0.269E-01    0.03       1.0  T
  53   -399.5923660  0.172858E-02  0.363E-01    0.02       1.0  T
  54   -399.5826662  0.969972E-02  0.443E-01    0.03       1.0  T
  55   -399.5827064 -0.401406E-04  0.443E-01    0.03       1.0  T
  56   -399.5812796  0.142679E-02  0.446E-01    0.03       1.0  T
  57   -399.5784336  0.284599E-02  0.453E-01    0.03       1.0  T
  58   -399.5780854  0.348169E-03  0.453E-01    0.03       1.0  T
  59   -399.5760747  0.201069E-02  0.455E-01    0.03       1.0  T
  60   -399.5800928 -0.401807E-02  0.430E-01    0.02       1.0  T
  61   -399.5811404 -0.104758E-02  0.418E-01    0.02       1.0  T
  62   -399.5805402  0.600233E-03  0.423E-01    0.02       1.0  T
  63   -399.5876249 -0.708477E-02  0.415E-01    0.02       1.0  T
  64   -399.5915569 -0.393200E-02  0.387E-01    0.02       1.0  T
  65   -399.5926124 -0.105544E-02  0.381E-01    0.02       1.0  T
  66   -399.5932844 -0.672063E-03  0.370E-01    0.02       1.0  T
  67   -399.5947510 -0.146656E-02  0.344E-01    0.02       1.0  T
  68   -399.5984486 -0.369765E-02  0.317E-01    0.02       1.0  T
  69   -399.5984863 -0.376311E-04  0.316E-01    0.02       1.0  T
  70   -399.5980749  0.411370E-03  0.317E-01    0.02       1.0  T
  71   -399.6022143 -0.413941E-02  0.286E-01    0.02       1.0  T
  72   -399.6078269 -0.561257E-02  0.248E-01    0.02       1.0  T
  73   -399.6077753  0.516268E-04  0.249E-01    0.02       1.0  T
  74   -399.6083731 -0.597868E-03  0.244E-01    0.02       1.0  T
  75   -399.6084352 -0.620608E-04  0.244E-01    0.02       1.0  T
  76   -399.6159161 -0.748091E-02  0.196E-01    0.02       1.0  T
  77   -399.6243912 -0.847510E-02  0.137E-01    0.03       1.0  T
  78   -399.6279028 -0.351165E-02  0.109E-01    0.03       1.0  T
  79   -399.6269010  0.100185E-02  0.118E-01    0.03       1.0  T
  80   -399.6255628  0.133822E-02  0.128E-01    0.03       1.0  T
  81   -399.6312326 -0.566982E-02  0.701E-02    0.03       1.0  T
  82   -399.6333443 -0.211169E-02  0.331E-02    0.04       1.0  T
  83   -399.6335720 -0.227770E-03  0.268E-02    0.04       1.0  T
  84   -399.6285800  0.499206E-02  0.105E-01    0.05       1.0  T
  85   -399.6299107 -0.133069E-02  0.888E-02    0.05       1.0  T
  86   -399.6329725 -0.306186E-02  0.418E-02    0.05       1.0  T
  87   -399.6315909  0.138159E-02  0.746E-02    0.04       1.0  T
  88   -399.6338281 -0.223712E-02  0.169E-02    0.04       1.0  T
  89   -399.6334334  0.394656E-03  0.312E-02    0.05       1.0  T
  90   -399.6329128  0.520617E-03  0.460E-02    0.04       1.0  T
  91   -399.6338456 -0.932765E-03  0.111E-02    0.05       1.0  T
  92   -399.6338427  0.287951E-05  0.119E-02    0.05       1.0  T
  93   -399.6338504 -0.771015E-05  0.119E-02    0.05       1.0  T
  94   -399.6338410  0.936206E-05  0.118E-02    0.05       1.0  T
  95   -399.6338860 -0.450113E-04  0.809E-03    0.05       1.0  T
  96   -399.6338915 -0.545910E-05  0.676E-03    0.05       1.0  T
  97   -399.6339108 -0.193301E-04  0.352E-03    0.05       1.8  T
  98   -399.6339147 -0.391827E-05  0.162E-03    0.05       4.0  T
  99   -399.6339163 -0.152566E-05  0.363E-04    0.05      17.7  T
 100   -399.6339162  0.384257E-07  0.451E-04    0.05      14.3  T
 101   -399.6339159  0.359333E-06  0.905E-04    0.05       7.1  T
     SCC iter.                  ...        0 min, 10.384 sec
     gradient                   ...        0 min,  0.606 sec
 * total energy  :  -337.1573543 Eh     change       -0.2138682E+01 Eh
   gradient norm :     0.0613961 Eh/α   predicted    -0.1179357E-02 ( -99.94%)
   displ. norm   :     0.1309328 α      lambda       -0.2571651E-02
   maximum displ.:     0.1042495 α      in ANC's #27, #71, #72, ...

........................................................................
.............................. CYCLE   32 ..............................
........................................................................

 iter      E             dE          RMSdq      gap      omega  full diag
   1   -399.5670313 -0.399567E+03  0.425E-01    0.03       0.0  T
   2   -397.6352906  0.193174E+01  0.199E+00    0.13       1.0  T
   3   -399.5792849 -0.194399E+01  0.466E-01    0.06       1.0  T
   4   -399.5458474  0.334375E-01  0.511E-01    0.13       1.0  T
   5   -399.5484645 -0.261715E-02  0.677E-01    0.05       1.0  T
   6   -399.6249171 -0.764526E-01  0.178E-01    0.06       1.0  T
   7   -399.6238081  0.110891E-02  0.171E-01    0.03       1.0  T
   8   -399.6352756 -0.114674E-01  0.856E-02    0.05       1.0  T
   9   -399.6249965  0.102791E-01  0.167E-01    0.03       1.0  T
  10   -399.6361550 -0.111585E-01  0.540E-02    0.05       1.0  T
  11   -399.6369644 -0.809448E-03  0.135E-02    0.04       1.0  T
  12   -399.6368335  0.130950E-03  0.237E-02    0.05       1.0  T
  13   -399.6369357 -0.102235E-03  0.152E-02    0.05       1.0  T
  14   -399.6369776 -0.419145E-04  0.928E-03    0.05       1.0  T
  15   -399.6369958 -0.181594E-04  0.369E-03    0.05       1.7  T
  16   -399.6369973 -0.153846E-05  0.272E-03    0.05       2.4  T
  17   -399.6369982 -0.904464E-06  0.110E-03    0.05       5.8  T
  18   -399.6369985 -0.225798E-06  0.837E-04    0.05       7.7  T
  19   -399.6369982  0.258067E-06  0.106E-03    0.05       6.1  T
  20   -399.6369986 -0.383937E-06  0.220E-04    0.05      29.2  T
     SCC iter.                  ...        0 min,  2.030 sec
     gradient                   ...        0 min,  0.615 sec
 * total energy  :  -336.3220183 Eh     change        0.8353360E+00 Eh
   gradient norm :     0.0469771 Eh/α   predicted    -0.1308457E-02 (-100.16%)
   displ. norm   :     0.0327957 α      lambda       -0.1415150E-02
   maximum displ.:     0.0256405 α      in ANC's #35, #6, #50, ...

........................................................................
.............................. CYCLE   33 ..............................
........................................................................

 iter      E             dE          RMSdq      gap      omega  full diag
   1   -399.6356189 -0.399636E+03  0.325E-02    0.05       0.0  T
   2   -399.5951856  0.404333E-01  0.306E-01    0.03       1.0  T
   3   -399.6327135 -0.375279E-01  0.891E-02    0.05       1.0  T
   4   -399.6313532  0.136037E-02  0.138E-01    0.04       1.0  T
   5   -399.6355348 -0.418162E-02  0.325E-02    0.04       1.0  T
   6   -399.6348814  0.653398E-03  0.426E-02    0.04       1.0  T
   7   -399.6356913 -0.809934E-03  0.158E-02    0.05       1.0  T
   8   -399.6357323 -0.410368E-04  0.650E-03    0.05       1.0  T
   9   -399.6357443 -0.119756E-04  0.313E-03    0.05       2.1  T
  10   -399.6357478 -0.343018E-05  0.143E-03    0.05       4.5  T
  11   -399.6357479 -0.128621E-06  0.943E-04    0.05       6.8  T
  12   -399.6357480 -0.922183E-07  0.756E-04    0.05       8.5  T
     SCC iter.                  ...        0 min,  1.234 sec
     gradient                   ...        0 min,  0.592 sec
 * total energy  :  -336.3650747 Eh     change       -0.4305636E-01 Eh
   gradient norm :     0.0246045 Eh/α   predicted    -0.7084572E-03 ( -98.35%)
   displ. norm   :     0.0659381 α      lambda       -0.6949297E-03
   maximum displ.:     0.0534433 α      in ANC's #27, #71, #35, ...

........................................................................
.............................. CYCLE   34 ..............................
........................................................................

 iter      E             dE          RMSdq      gap      omega  full diag
   1   -399.6264344 -0.399626E+03  0.124E-01    0.05       0.0  T
   2   -399.2663663  0.360068E+00  0.938E-01    0.08       1.0  T
   3   -399.6023302 -0.335964E+00  0.325E-01    0.04       1.0  T
   4   -399.6209154 -0.185852E-01  0.198E-01    0.04       1.0  T
   5   -399.6288369 -0.792147E-02  0.933E-02    0.04       1.0  T
   6   -399.6267952  0.204173E-02  0.106E-01    0.05       1.0  T
   7   -399.6298207 -0.302551E-02  0.494E-02    0.05       1.0  T
   8   -399.6307680 -0.947298E-03  0.136E-02    0.04       1.0  T
   9   -399.6307725 -0.450611E-05  0.121E-02    0.05       1.0  T
  10   -399.6308183 -0.458420E-04  0.405E-03    0.05       1.6  T
  11   -399.6308237 -0.543227E-05  0.158E-03    0.05       4.1  T
  12   -399.6308238 -0.411277E-07  0.119E-03    0.05       5.4  T
  13   -399.6308243 -0.473527E-06  0.492E-04    0.05      13.1  T
  14   -399.6308243 -0.555402E-07  0.251E-04    0.05      25.6  T
     SCC iter.                  ...        0 min,  1.440 sec
     gradient                   ...        0 min,  0.615 sec
 * total energy  :  -336.7442853 Eh     change       -0.3792106E+00 Eh
   gradient norm :     0.0113818 Eh/α   predicted    -0.3493199E-03 ( -99.91%)
   displ. norm   :     0.0481384 α      lambda       -0.1436222E-03
   maximum displ.:     0.0410918 α      in ANC's #27, #71, #72, ...

........................................................................
.............................. CYCLE   35 ..............................
........................................................................

 iter      E             dE          RMSdq      gap      omega  full diag
   1   -399.6244862 -0.399624E+03  0.930E-02    0.05       0.0  T
   2   -399.3067966  0.317690E+00  0.874E-01    0.06       1.0  T
   3   -399.6086777 -0.301881E+00  0.257E-01    0.05       1.0  T
   4   -399.6182722 -0.959455E-02  0.183E-01    0.04       1.0  T
   5   -399.6260209 -0.774868E-02  0.624E-02    0.04       1.0  T
   6   -399.6256963  0.324627E-03  0.615E-02    0.05       1.0  T
   7   -399.6263446 -0.648293E-03  0.383E-02    0.05       1.0  T
   8   -399.6269555 -0.610918E-03  0.641E-03    0.04       1.0  T
   9   -399.6269380  0.175528E-04  0.888E-03    0.05       1.0  T
  10   -399.6269598 -0.218559E-04  0.300E-03    0.05       2.1  T
  11   -399.6269614 -0.157366E-05  0.182E-03    0.05       3.5  T
  12   -399.6269621 -0.754632E-06  0.921E-04    0.04       7.0  T
  13   -399.6269624 -0.223390E-06  0.394E-04    0.04      16.3  T
     SCC iter.                  ...        0 min,  1.315 sec
     gradient                   ...        0 min,  0.612 sec
 * total energy  :  -337.0497903 Eh     change       -0.3055050E+00 Eh
   gradient norm :     0.0071200 Eh/α   predicted    -0.7198608E-04 ( -99.98%)
   displ. norm   :     0.0190265 α      lambda       -0.4541962E-04
   maximum displ.:     0.0155522 α      in ANC's #27, #71, #72, ...

........................................................................
.............................. CYCLE   36 ..............................
........................................................................

 iter      E             dE          RMSdq      gap      omega  full diag
   1   -399.6250514 -0.399625E+03  0.377E-02    0.05       0.0  T
   2   -399.4538259  0.171226E+00  0.632E-01    0.04       1.0  T
   3   -399.6224901 -0.168664E+00  0.103E-01    0.05       1.0  T
   4   -399.6232246 -0.734466E-03  0.931E-02    0.04       1.0  T
   5   -399.6253477 -0.212308E-02  0.223E-02    0.04       1.0  T
   6   -399.6254269 -0.792034E-04  0.141E-02    0.05       1.0  T
   7   -399.6254447 -0.177896E-04  0.103E-02    0.05       1.0  T
   8   -399.6254797 -0.350278E-04  0.323E-03    0.04       2.0  T
   9   -399.6254717  0.803620E-05  0.517E-03    0.05       1.2  T
  10   -399.6254801 -0.845630E-05  0.235E-03    0.05       2.7  T
  11   -399.6254811 -0.101510E-05  0.169E-03    0.04       3.8  T
  12   -399.6254822 -0.106259E-05  0.334E-04    0.04      19.2  T
  13   -399.6254822 -0.464092E-08  0.228E-04    0.04      28.3  T
  14   -399.6254822 -0.346671E-08  0.172E-04    0.04      37.5  T
     SCC iter.                  ...        0 min,  1.429 sec
     gradient                   ...        0 min,  0.614 sec
 * total energy  :  -337.1411403 Eh     change       -0.9135005E-01 Eh
   gradient norm :     0.0033395 Eh/α   predicted    -0.2273729E-04 ( -99.98%)
   displ. norm   :     0.0072628 α      lambda       -0.7658931E-05
   maximum displ.:     0.0060187 α      in ANC's #27, #71, #72, ...

........................................................................
.............................. CYCLE   37 ..............................
........................................................................

 iter      E             dE          RMSdq      gap      omega  full diag
   1   -399.6250013 -0.399625E+03  0.149E-02    0.05       0.0  T
   2   -399.6003101  0.246911E-01  0.242E-01    0.02       1.0  T
   3   -399.6241917 -0.238815E-01  0.549E-02    0.05       1.0  T
   4   -399.6247082 -0.516525E-03  0.356E-02    0.04       1.0  T
   5   -399.6250327 -0.324510E-03  0.995E-03    0.05       1.0  T
   6   -399.6250488 -0.160885E-04  0.770E-03    0.04       1.0  T
   7   -399.6250488 -0.705955E-08  0.595E-03    0.05       1.1  T
   8   -399.6250639 -0.151504E-04  0.173E-03    0.04       3.7  T
   9   -399.6250638  0.170606E-06  0.169E-03    0.04       3.8  T
  10   -399.6250642 -0.424491E-06  0.104E-03    0.04       6.2  T
  11   -399.6250645 -0.285384E-06  0.603E-04    0.04      10.7  T
  12   -399.6250646 -0.139265E-06  0.140E-04    0.04      46.0  T
     SCC iter.                  ...        0 min,  1.226 sec
     gradient                   ...        0 min,  0.616 sec
 * total energy  :  -337.1563323 Eh     change       -0.1519192E-01 Eh
   gradient norm :     0.0019465 Eh/α   predicted    -0.3884379E-05 ( -99.97%)
   displ. norm   :     0.0030056 α      lambda       -0.2599303E-05
   maximum displ.:     0.0016720 α      in ANC's #52, #27, #35, ...

........................................................................
.............................. CYCLE   38 ..............................
........................................................................

 iter      E             dE          RMSdq      gap      omega  full diag
   1   -399.6254922 -0.399625E+03  0.415E-03    0.04       0.0  T
   2   -399.6243728  0.111935E-02  0.505E-02    0.05       1.0  T
   3   -399.6254366 -0.106376E-02  0.152E-02    0.04       1.0  T
   4   -399.6254894 -0.527873E-04  0.549E-03    0.04       1.2  T
   5   -399.6254922 -0.278274E-05  0.391E-03    0.05       1.6  T
   6   -399.6254954 -0.320429E-05  0.145E-03    0.04       4.4  T
   7   -399.6254955 -0.742405E-07  0.120E-03    0.04       5.4  T
   8   -399.6254960 -0.505784E-06  0.475E-04    0.04      13.5  T
   9   -399.6254960 -0.630355E-07  0.274E-04    0.04      23.4  T
     SCC iter.                  ...        0 min,  0.924 sec
     gradient                   ...        0 min,  0.620 sec
 * total energy  :  -337.0670222 Eh     change        0.8931003E-01 Eh
   gradient norm :     0.0019502 Eh/α   predicted    -0.1306576E-05 (-100.00%)
   displ. norm   :     0.0011500 α      lambda       -0.1163469E-05
   maximum displ.:     0.0005229 α      in ANC's #6, #17, #75, ...

........................................................................
.............................. CYCLE   39 ..............................
........................................................................

 iter      E             dE          RMSdq      gap      omega  full diag
   1   -399.6257357 -0.399626E+03  0.154E-03    0.04       0.0  T
   2   -399.6255122  0.223511E-03  0.227E-02    0.05       1.0  T
   3   -399.6257290 -0.216804E-03  0.554E-03    0.04       1.2  T
   4   -399.6257351 -0.610610E-05  0.227E-03    0.04       2.8  T
   5   -399.6257349  0.196951E-06  0.190E-03    0.04       3.4  T
   6   -399.6257363 -0.132396E-05  0.632E-04    0.04      10.2  T
   7   -399.6257363 -0.360369E-07  0.479E-04    0.04      13.4  T
   8   -399.6257363 -0.374694E-07  0.278E-04    0.04      23.1  T
     SCC iter.                  ...        0 min,  0.855 sec
     gradient                   ...        0 min,  0.603 sec
 * total energy  :  -337.0135058 Eh     change        0.5351645E-01 Eh
   gradient norm :     0.0017111 Eh/α   predicted    -0.6006692E-06 (-100.00%)
   displ. norm   :     0.0045615 α      lambda       -0.4134353E-05
   maximum displ.:     0.0026017 α      in ANC's #17, #75, #80, ...

........................................................................
.............................. CYCLE   40 ..............................
........................................................................

 iter      E             dE          RMSdq      gap      omega  full diag
   1   -399.6268677 -0.399627E+03  0.537E-03    0.04       0.0  T
   2   -399.6256788  0.118889E-02  0.535E-02    0.05       1.0  T
   3   -399.6267849 -0.110606E-02  0.176E-02    0.04       1.0  T
   4   -399.6268324 -0.475558E-04  0.124E-02    0.04       1.0  T
   5   -399.6268433 -0.109213E-04  0.817E-03    0.05       1.0  T
   6   -399.6268707 -0.273479E-04  0.285E-03    0.04       2.3  T
   7   -399.6268720 -0.130209E-05  0.154E-03    0.04       4.2  T
   8   -399.6268720  0.274738E-07  0.130E-03    0.04       4.9  T
   9   -399.6268726 -0.688425E-06  0.450E-04    0.04      14.3  T
  10   -399.6268727 -0.433265E-07  0.197E-04    0.04      32.7  T
     SCC iter.                  ...        0 min,  1.056 sec
     gradient                   ...        0 min,  0.614 sec
 * total energy  :  -336.7243558 Eh     change        0.2891500E+00 Eh
   gradient norm :     0.0021837 Eh/α   predicted    -0.2083615E-05 (-100.00%)
   displ. norm   :     0.0119865 α      lambda       -0.1370907E-04
   maximum displ.:     0.0070631 α      in ANC's #17, #75, #80, ...

........................................................................
.............................. CYCLE   41 ..............................
........................................................................

 iter      E             dE          RMSdq      gap      omega  full diag
   1   -399.6297780 -0.399630E+03  0.134E-02    0.04       0.0  T
   2   -399.6257284  0.404959E-02  0.995E-02    0.05       1.0  T
   3   -399.6292476 -0.351917E-02  0.419E-02    0.04       1.0  T
   4   -399.6294705 -0.222910E-03  0.365E-02    0.04       1.0  T
   5   -399.6295116 -0.410279E-04  0.252E-02    0.05       1.0  T
   6   -399.6297761 -0.264554E-03  0.969E-03    0.04       1.0  T
   7   -399.6297982 -0.221442E-04  0.291E-03    0.04       2.2  T
   8   -399.6297963  0.194759E-05  0.324E-03    0.04       2.0  T
   9   -399.6298007 -0.444646E-05  0.808E-04    0.04       8.0  T
  10   -399.6298009 -0.112821E-06  0.510E-04    0.04      12.6  T
  11   -399.6298009 -0.125087E-07  0.460E-04    0.04      14.0  T
     SCC iter.                  ...        0 min,  1.145 sec
     gradient                   ...        0 min,  0.615 sec
 * total energy  :  -335.9427126 Eh     change        0.7816432E+00 Eh
   gradient norm :     0.0040046 Eh/α   predicted    -0.6871393E-05 (-100.00%)
   displ. norm   :     0.0445116 α      lambda       -0.4487097E-04
   maximum displ.:     0.0264477 α      in ANC's #17, #75, #80, ...

........................................................................
.............................. CYCLE   42 ..............................
........................................................................

 iter      E             dE          RMSdq      gap      omega  full diag
   1   -399.6394875 -0.399639E+03  0.485E-02    0.04       0.0  T
   2   -399.6209460  0.185415E-01  0.220E-01    0.05       1.0  T
   3   -399.6284800 -0.753396E-02  0.187E-01    0.03       1.0  T
   4   -399.6372862 -0.880621E-02  0.103E-01    0.04       1.0  T
   5   -399.6352388  0.204734E-02  0.989E-02    0.05       1.0  T
   6   -399.6393632 -0.412439E-02  0.374E-02    0.04       1.0  T
   7   -399.6397222 -0.358947E-03  0.822E-03    0.04       1.0  T
   8   -399.6396960  0.261391E-04  0.104E-02    0.04       1.0  T
   9   -399.6397383 -0.422374E-04  0.238E-03    0.05       2.7  T
  10   -399.6397392 -0.879559E-06  0.129E-03    0.04       5.0  T
  11   -399.6397389  0.283849E-06  0.133E-03    0.04       4.8  T
  12   -399.6397394 -0.562509E-06  0.465E-04    0.05      13.8  T
  13   -399.6397395 -0.548986E-07  0.264E-04    0.05      24.4  T
     SCC iter.                  ...        0 min,  1.365 sec
     gradient                   ...        0 min,  0.615 sec
 * total energy  :  -333.0961814 Eh     change        0.2846531E+01 Eh
   gradient norm :     0.0096743 Eh/α   predicted    -0.2250607E-04 (-100.00%)
   displ. norm   :     0.0626102 α      lambda       -0.5428302E-04
   maximum displ.:     0.0373845 α      in ANC's #17, #75, #80, ...
 * RMSD in coord.:     0.0729273 α      energy gain  -0.1592253E+02 Eh

generating ANC from exact Hessian ...
Using Lindh-Hessian (1995)
 Shifting diagonal of input Hessian by    1.0033676108175883E-002
 Lowest  eigenvalues of input Hessian
    0.010000    0.010006    0.010011    0.000000    0.000000    0.000000
    0.000000    0.000000    0.000000    0.010049    0.010053    0.010068
    0.010085    0.010099    0.010116    0.010125    0.010144    0.010159
 Highest eigenvalues
    6.450496    7.591754    8.274088   12.922864   13.451021   55.778412


........................................................................
.............................. CYCLE   43 ..............................
........................................................................

 iter      E             dE          RMSdq      gap      omega  full diag
   1   -399.6508376 -0.399651E+03  0.660E-02    0.04       0.0  T
   2   -399.6299567  0.208809E-01  0.239E-01    0.06       1.0  T
   3   -399.6273010  0.265570E-02  0.257E-01    0.03       1.0  T
   4   -399.6454012 -0.181002E-01  0.157E-01    0.04       1.0  T
   5   -399.6426608  0.274040E-02  0.137E-01    0.06       1.0  T
   6   -399.6499332 -0.727242E-02  0.632E-02    0.05       1.0  T
   7   -399.6510186 -0.108535E-02  0.214E-02    0.05       1.0  T
   8   -399.6511773 -0.158699E-03  0.110E-02    0.04       1.0  T
   9   -399.6512040 -0.267432E-04  0.551E-03    0.05       1.2  T
  10   -399.6512133 -0.933402E-05  0.167E-03    0.05       3.8  T
  11   -399.6512132  0.128151E-06  0.166E-03    0.05       3.9  T
  12   -399.6512137 -0.451687E-06  0.614E-04    0.05      10.5  T
  13   -399.6512137 -0.469257E-07  0.437E-04    0.05      14.7  T
     SCC iter.                  ...        0 min,  1.362 sec
     gradient                   ...        0 min,  0.627 sec
 * total energy  :  -329.5135133 Eh     change        0.3582668E+01 Eh
   gradient norm :     0.0201121 Eh/α   predicted     0.0000000E+00 (-100.00%)
   displ. norm   :     0.0109951 α      lambda       -0.2139310E-03
   maximum displ.:     0.0068640 α      in ANC's #5, #57, #19, ...

........................................................................
.............................. CYCLE   44 ..............................
........................................................................

 iter      E             dE          RMSdq      gap      omega  full diag
   1   -399.6507662 -0.399651E+03  0.159E-02    0.05       0.0  T
   2   -399.6031890  0.475772E-01  0.330E-01    0.03       1.0  T
   3   -399.6502473 -0.470583E-01  0.466E-02    0.05       1.0  T
   4   -399.6507541 -0.506847E-03  0.210E-02    0.05       1.0  T
   5   -399.6508211 -0.669889E-04  0.979E-03    0.05       1.0  T
   6   -399.6508386 -0.174751E-04  0.691E-03    0.05       1.0  T
   7   -399.6508559 -0.172867E-04  0.252E-03    0.05       2.6  T
   8   -399.6508561 -0.197577E-06  0.186E-03    0.05       3.5  T
   9   -399.6508574 -0.130384E-05  0.630E-04    0.05      10.2  T
  10   -399.6508573  0.501784E-07  0.612E-04    0.05      10.5  T
  11   -399.6508574 -0.114278E-06  0.338E-04    0.05      19.0  T
     SCC iter.                  ...        0 min,  1.156 sec
     gradient                   ...        0 min,  0.617 sec
 * total energy  :  -329.5019273 Eh     change        0.1158609E-01 Eh
   gradient norm :     0.0095563 Eh/α   predicted    -0.1093990E-03 (-100.94%)
   displ. norm   :     0.0108745 α      lambda       -0.1000295E-03
   maximum displ.:     0.0056249 α      in ANC's #5, #1, #19, ...

........................................................................
.............................. CYCLE   45 ..............................
........................................................................

 iter      E             dE          RMSdq      gap      omega  full diag
   1   -399.6506642 -0.399651E+03  0.144E-02    0.05       0.0  T
   2   -399.6136113  0.370530E-01  0.291E-01    0.03       1.0  T
   3   -399.6502677 -0.366565E-01  0.411E-02    0.05       1.0  T
   4   -399.6506316 -0.363806E-03  0.212E-02    0.05       1.0  T
   5   -399.6507068 -0.752920E-04  0.935E-03    0.05       1.0  T
   6   -399.6507169 -0.100604E-04  0.705E-03    0.05       1.0  T
   7   -399.6507351 -0.181566E-04  0.234E-03    0.05       2.7  T
   8   -399.6507353 -0.210302E-06  0.182E-03    0.05       3.5  T
   9   -399.6507366 -0.130200E-05  0.567E-04    0.05      11.3  T
  10   -399.6507366 -0.233839E-07  0.445E-04    0.05      14.4  T
  11   -399.6507367 -0.695986E-07  0.225E-04    0.05      28.5  T
     SCC iter.                  ...        0 min,  1.164 sec
     gradient                   ...        0 min,  0.624 sec
 * total energy  :  -329.4794522 Eh     change        0.2247502E-01 Eh
   gradient norm :     0.0050149 Eh/α   predicted    -0.5134386E-04 (-100.23%)
   displ. norm   :     0.0051113 α      lambda       -0.2032048E-04
   maximum displ.:     0.0041659 α      in ANC's #1, #2, #19, ...

........................................................................
.............................. CYCLE   46 ..............................
........................................................................

 iter      E             dE          RMSdq      gap      omega  full diag
   1   -399.6508850 -0.399651E+03  0.403E-03    0.05       0.0  T
   2   -399.6494697  0.141531E-02  0.568E-02    0.04       1.0  T
   3   -399.6508537 -0.138397E-02  0.115E-02    0.05       1.0  T
   4   -399.6508658 -0.120903E-04  0.975E-03    0.05       1.0  T
   5   -399.6508871 -0.213719E-04  0.272E-03    0.05       2.4  T
   6   -399.6508879 -0.776496E-06  0.200E-03    0.05       3.2  T
   7   -399.6508886 -0.715860E-06  0.101E-03    0.05       6.4  T
   8   -399.6508888 -0.159991E-06  0.782E-04    0.05       8.2  T
   9   -399.6508889 -0.119696E-06  0.400E-04    0.05      16.1  T
     SCC iter.                  ...        0 min,  0.949 sec
     gradient                   ...        0 min,  0.629 sec
 * total energy  :  -329.4607663 Eh     change        0.1868598E-01 Eh
   gradient norm :     0.0055072 Eh/α   predicted    -0.1032944E-04 (-100.06%)
   displ. norm   :     0.0395663 α      lambda       -0.1582871E-03
   maximum displ.:     0.0340413 α      in ANC's #1, #2, #19, ...

........................................................................
.............................. CYCLE   47 ..............................
........................................................................

 iter      E             dE          RMSdq      gap      omega  full diag
   1   -399.6520146 -0.399652E+03  0.247E-02    0.05       0.0  T
   2   -399.6262922  0.257223E-01  0.243E-01    0.02       1.0  T
   3   -399.6510425 -0.247503E-01  0.558E-02    0.05       1.0  T
   4   -399.6490700  0.197253E-02  0.115E-01    0.05       1.0  T
   5   -399.6520461 -0.297618E-02  0.168E-02    0.05       1.0  T
   6   -399.6520550 -0.882590E-05  0.152E-02    0.05       1.0  T
   7   -399.6520677 -0.127104E-04  0.101E-02    0.05       1.0  T
   8   -399.6520956 -0.279678E-04  0.640E-03    0.05       1.0  T
   9   -399.6521030 -0.737533E-05  0.287E-03    0.05       2.2  T
  10   -399.6521066 -0.358842E-05  0.897E-04    0.05       7.2  T
  11   -399.6521068 -0.197562E-06  0.277E-04    0.05      23.2  T
  12   -399.6521068  0.484857E-08  0.300E-04    0.05      21.4  T
     SCC iter.                  ...        0 min,  1.253 sec
     gradient                   ...        0 min,  0.635 sec
 * total energy  :  -329.3090925 Eh     change        0.1516738E+00 Eh
   gradient norm :     0.0107561 Eh/α   predicted    -0.7938214E-04 (-100.05%)
   displ. norm   :     0.0602250 α      lambda       -0.1886279E-03
   maximum displ.:     0.0528894 α      in ANC's #1, #2, #19, ...

........................................................................
.............................. CYCLE   48 ..............................
........................................................................

 iter      E             dE          RMSdq      gap      omega  full diag
   1   -399.6531440 -0.399653E+03  0.341E-02    0.05       0.0  T
   2   -399.6428978  0.102462E-01  0.156E-01    0.03       1.0  T
   3   -399.6482520 -0.535419E-02  0.115E-01    0.06       1.0  T
   4   -399.6480162  0.235850E-03  0.148E-01    0.05       1.0  T
   5   -399.6531874 -0.517128E-02  0.205E-02    0.05       1.0  T
   6   -399.6531343  0.531853E-04  0.240E-02    0.05       1.0  T
   7   -399.6531953 -0.610433E-04  0.141E-02    0.05       1.0  T
   8   -399.6532432 -0.478753E-04  0.924E-03    0.05       1.0  T
   9   -399.6532598 -0.166639E-04  0.369E-03    0.05       1.7  T
  10   -399.6532648 -0.493660E-05  0.162E-03    0.05       4.0  T
  11   -399.6532653 -0.505491E-06  0.563E-04    0.05      11.4  T
  12   -399.6532654 -0.781410E-07  0.366E-04    0.05      17.6  T
     SCC iter.                  ...        0 min,  1.263 sec
     gradient                   ...        0 min,  0.635 sec
 * total energy  :  -329.0788013 Eh     change        0.2302912E+00 Eh
   gradient norm :     0.0157252 Eh/α   predicted    -0.9471961E-04 (-100.04%)
   displ. norm   :     0.1405124 α      lambda       -0.4208260E-03
   maximum displ.:     0.1241055 α      in ANC's #1, #2, #77, ...

........................................................................
.............................. CYCLE   49 ..............................
........................................................................

 iter      E             dE          RMSdq      gap      omega  full diag
   1   -399.6517169 -0.399652E+03  0.777E-02    0.05       0.0  T
   2   -399.6499630  0.175388E-02  0.913E-02    0.04       1.0  T
   3   -399.5830347  0.669283E-01  0.437E-01    0.11       1.0  T
   4   -399.6502054 -0.671707E-01  0.790E-02    0.06       1.0  T
   5   -399.6301882  0.200172E-01  0.245E-01    0.02       1.0  T
   6   -399.6514422 -0.212540E-01  0.622E-02    0.05       1.0  T
   7   -399.6520442 -0.601969E-03  0.271E-02    0.05       1.0  T
   8   -399.6522473 -0.203077E-03  0.146E-02    0.05       1.0  T
   9   -399.6522525 -0.522150E-05  0.901E-03    0.05       1.0  T
  10   -399.6522797 -0.271654E-04  0.378E-03    0.05       1.7  T
  11   -399.6522816 -0.197601E-05  0.130E-03    0.05       4.9  T
  12   -399.6522818 -0.164447E-06  0.108E-03    0.05       6.0  T
  13   -399.6522818 -0.722537E-09  0.979E-04    0.05       6.6  T
  14   -399.6522821 -0.327736E-06  0.386E-04    0.05      16.6  T
     SCC iter.                  ...        0 min,  1.476 sec
     gradient                   ...        0 min,  0.630 sec
 * total energy  :  -328.5689865 Eh     change        0.5098148E+00 Eh
   gradient norm :     0.0211351 Eh/α   predicted    -0.2162710E-03 (-100.04%)
   displ. norm   :     0.1987415 α      lambda       -0.5614499E-03
   maximum displ.:     0.1757227 α      in ANC's #1, #2, #77, ...

........................................................................
.............................. CYCLE   50 ..............................
........................................................................

 iter      E             dE          RMSdq      gap      omega  full diag
   1   -399.6409070 -0.399641E+03  0.112E-01    0.05       0.0  T
   2   -399.6262188  0.146881E-01  0.206E-01    0.07       1.0  T
   3   -399.4478136  0.178405E+00  0.693E-01    0.09       1.0  T
   4   -399.6401514 -0.192338E+00  0.102E-01    0.05       1.0  T
   5   -399.6318077  0.834368E-02  0.227E-01    0.06       1.0  T
   6   -399.6300557  0.175203E-02  0.200E-01    0.02       1.0  T
   7   -399.6406156 -0.105600E-01  0.636E-02    0.06       1.0  T
   8   -399.6419844 -0.136872E-02  0.246E-02    0.05       1.0  T
   9   -399.6421699 -0.185533E-03  0.908E-03    0.05       1.0  T
  10   -399.6421831 -0.131574E-04  0.593E-03    0.05       1.1  T
  11   -399.6421866 -0.353358E-05  0.238E-03    0.05       2.7  T
  12   -399.6421839  0.270166E-05  0.313E-03    0.05       2.1  T
  13   -399.6421875 -0.363712E-05  0.124E-03    0.05       5.2  T
  14   -399.6421879 -0.398916E-06  0.696E-04    0.05       9.2  T
  15   -399.6421880 -0.421315E-07  0.494E-04    0.05      13.0  T
     SCC iter.                  ...        0 min,  1.586 sec
     gradient                   ...        0 min,  0.607 sec
 * total energy  :  -327.9265577 Eh     change        0.6424287E+00 Eh
   gradient norm :     0.0211681 Eh/α   predicted    -0.2923081E-03 (-100.05%)
   displ. norm   :     0.1859782 α      lambda       -0.5117603E-03
   maximum displ.:     0.1639853 α      in ANC's #1, #2, #77, ...

........................................................................
.............................. CYCLE   51 ..............................
........................................................................

 iter      E             dE          RMSdq      gap      omega  full diag
   1   -399.6220498 -0.399622E+03  0.111E-01    0.04       0.0  T
   2   -399.5746054  0.474445E-01  0.359E-01    0.09       1.0  T
   3   -399.5410266  0.335788E-01  0.527E-01    0.03       1.0  T
   4   -399.5731770 -0.321504E-01  0.380E-01    0.03       1.0  T
   5   -399.6161907 -0.430136E-01  0.141E-01    0.07       1.0  T
   6   -399.6223996 -0.620898E-02  0.790E-02    0.05       1.0  T
   7   -399.6215745  0.825102E-03  0.707E-02    0.06       1.0  T
   8   -399.6233966 -0.182207E-02  0.292E-02    0.05       1.0  T
   9   -399.6235555 -0.158865E-03  0.107E-02    0.05       1.0  T
  10   -399.6235707 -0.152751E-04  0.774E-03    0.05       1.0  T
  11   -399.6235806 -0.981614E-05  0.183E-03    0.05       3.5  T
  12   -399.6235755  0.502773E-05  0.359E-03    0.05       1.8  T
  13   -399.6235804 -0.489948E-05  0.142E-03    0.05       4.5  T
  14   -399.6235805 -0.591538E-07  0.125E-03    0.05       5.1  T
  15   -399.6235810 -0.550854E-06  0.587E-04    0.05      10.9  T
  16   -399.6235811 -0.927693E-07  0.314E-04    0.05      20.4  T
     SCC iter.                  ...        0 min,  1.711 sec
     gradient                   ...        0 min,  0.643 sec
 * total energy  :  -327.4157680 Eh     change        0.5107897E+00 Eh
   gradient norm :     0.0133304 Eh/α   predicted    -0.2647602E-03 (-100.05%)
   displ. norm   :     0.0605919 α      lambda       -0.1764981E-03
   maximum displ.:     0.0522284 α      in ANC's #1, #2, #19, ...

........................................................................
.............................. CYCLE   52 ..............................
........................................................................

 iter      E             dE          RMSdq      gap      omega  full diag
   1   -399.6151325 -0.399615E+03  0.411E-02    0.05       0.0  T
   2   -399.5858245  0.293080E-01  0.271E-01    0.08       1.0  T
   3   -399.6094767 -0.236522E-01  0.157E-01    0.05       1.0  T
   4   -399.6103931 -0.916423E-03  0.121E-01    0.03       1.0  T
   5   -399.6148875 -0.449431E-02  0.395E-02    0.06       1.0  T
   6   -399.6152848 -0.397349E-03  0.226E-02    0.05       1.0  T
   7   -399.6153047 -0.199036E-04  0.182E-02    0.05       1.0  T
   8   -399.6153853 -0.806159E-04  0.113E-02    0.05       1.0  T
   9   -399.6154200 -0.347172E-04  0.317E-03    0.05       2.0  T
  10   -399.6154211 -0.108812E-05  0.217E-03    0.05       3.0  T
  11   -399.6154224 -0.126522E-05  0.605E-04    0.05      10.6  T
  12   -399.6154225 -0.595663E-07  0.394E-04    0.05      16.3  T
  13   -399.6154224  0.684179E-08  0.389E-04    0.05      16.5  T
     SCC iter.                  ...        0 min,  1.384 sec
     gradient                   ...        0 min,  0.644 sec
 * total energy  :  -327.2674813 Eh     change        0.1482867E+00 Eh
   gradient norm :     0.0050460 Eh/α   predicted    -0.8894553E-04 (-100.06%)
   displ. norm   :     0.0112948 α      lambda       -0.2401721E-04
   maximum displ.:     0.0090554 α      in ANC's #1, #2, #13, ...

........................................................................
.............................. CYCLE   53 ..............................
........................................................................

 iter      E             dE          RMSdq      gap      omega  full diag
   1   -399.6164490 -0.399616E+03  0.881E-03    0.05       0.0  T
   2   -399.6136572  0.279181E-02  0.807E-02    0.07       1.0  T
   3   -399.6161598 -0.250259E-02  0.321E-02    0.05       1.0  T
   4   -399.6163064 -0.146591E-03  0.246E-02    0.05       1.0  T
   5   -399.6164599 -0.153593E-03  0.550E-03    0.05       1.2  T
   6   -399.6164606 -0.642797E-06  0.383E-03    0.05       1.7  T
   7   -399.6164633 -0.268335E-05  0.145E-03    0.05       4.4  T
   8   -399.6164623  0.993489E-06  0.214E-03    0.05       3.0  T
   9   -399.6164638 -0.148697E-05  0.731E-04    0.05       8.8  T
  10   -399.6164639 -0.173376E-06  0.190E-04    0.05      33.7  T
  11   -399.6164639  0.121694E-07  0.243E-04    0.05      26.5  T
     SCC iter.                  ...        0 min,  1.143 sec
     gradient                   ...        0 min,  0.564 sec
 * total energy  :  -327.2842976 Eh     change       -0.1681635E-01 Eh
   gradient norm :     0.0021376 Eh/α   predicted    -0.1225874E-04 ( -99.93%)
   displ. norm   :     0.0084774 α      lambda       -0.3143532E-05
   maximum displ.:     0.0074408 α      in ANC's #1, #2, #13, ...

........................................................................
.............................. CYCLE   54 ..............................
........................................................................

 iter      E             dE          RMSdq      gap      omega  full diag
   1   -399.6174915 -0.399617E+03  0.515E-03    0.05       0.0  T
   2   -399.6174531  0.383822E-04  0.114E-02    0.05       1.0  T
   3   -399.6172651  0.188011E-03  0.242E-02    0.04       1.0  T
   4   -399.6172576  0.751400E-05  0.273E-02    0.05       1.0  T
   5   -399.6174924 -0.234840E-03  0.328E-03    0.05       2.0  T
   6   -399.6174927 -0.277454E-06  0.300E-03    0.05       2.1  T
   7   -399.6174937 -0.102391E-05  0.150E-03    0.05       4.3  T
   8   -399.6174940 -0.280315E-06  0.127E-03    0.05       5.1  T
   9   -399.6174945 -0.522105E-06  0.347E-04    0.05      18.5  T
  10   -399.6174946 -0.311772E-07  0.129E-04    0.05      49.7  T
     SCC iter.                  ...        0 min,  0.947 sec
     gradient                   ...        0 min,  0.551 sec
 * total energy  :  -327.2964992 Eh     change       -0.1220156E-01 Eh
   gradient norm :     0.0016013 Eh/α   predicted    -0.1588897E-05 ( -99.99%)
   displ. norm   :     0.0127161 α      lambda        0.0000000E+00
   maximum displ.:     0.0111612 α      in ANC's #1, #2, #13, ...

........................................................................
.............................. CYCLE   55 ..............................
........................................................................

 iter      E             dE          RMSdq      gap      omega  full diag
   1   -399.6190042 -0.399619E+03  0.770E-03    0.05       0.0  T
   2   -399.6189256  0.786329E-04  0.170E-02    0.05       1.0  T
   3   -399.6186033  0.322272E-03  0.338E-02    0.04       1.0  T
   4   -399.6185444  0.589750E-04  0.368E-02    0.05       1.0  T
   5   -399.6190025 -0.458118E-03  0.585E-03    0.05       1.1  T
   6   -399.6190066 -0.415608E-05  0.453E-03    0.05       1.4  T
   7   -399.6190089 -0.225112E-05  0.238E-03    0.05       2.7  T
   8   -399.6190097 -0.829470E-06  0.193E-03    0.05       3.3  T
   9   -399.6190110 -0.126192E-05  0.474E-04    0.05      13.6  T
  10   -399.6190110 -0.468773E-07  0.224E-04    0.05      28.8  T
  11   -399.6190110 -0.506020E-09  0.197E-04    0.05      32.7  T
     SCC iter.                  ...        0 min,  1.051 sec
     gradient                   ...        0 min,  0.568 sec
 * total energy  :  -327.3148002 Eh     change       -0.1830104E-01 Eh
   gradient norm :     0.0022338 Eh/α   predicted    -0.8721598E-09 (-100.00%)
   displ. norm   :     0.0067342 α      lambda       -0.2350447E-05
   maximum displ.:     0.0058736 α      in ANC's #1, #2, #67, ...

........................................................................
.............................. CYCLE   56 ..............................
........................................................................

 iter      E             dE          RMSdq      gap      omega  full diag
   1   -399.6182516 -0.399618E+03  0.405E-03    0.05       0.0  T
   2   -399.6182445  0.710629E-05  0.515E-03    0.05       1.2  T
   3   -399.6178472  0.397265E-03  0.313E-02    0.05       1.0  T
   4   -399.6182415 -0.394333E-03  0.699E-03    0.05       1.0  T
   5   -399.6182441 -0.259578E-05  0.609E-03    0.05       1.1  T
   6   -399.6182516 -0.746437E-05  0.283E-03    0.05       2.3  T
   7   -399.6182527 -0.112954E-05  0.127E-03    0.05       5.1  T
   8   -399.6182530 -0.303145E-06  0.105E-03    0.05       6.1  T
   9   -399.6182533 -0.290577E-06  0.238E-04    0.05      27.0  T
  10   -399.6182533 -0.714374E-08  0.167E-04    0.05      38.5  T
     SCC iter.                  ...        0 min,  0.916 sec
     gradient                   ...        0 min,  0.568 sec
 * total energy  :  -327.2972566 Eh     change        0.1754361E-01 Eh
   gradient norm :     0.0016870 Eh/α   predicted    -0.1194969E-05 (-100.01%)
   displ. norm   :     0.0114007 α      lambda       -0.2383656E-05
   maximum displ.:     0.0097566 α      in ANC's #1, #2, #67, ...

........................................................................
.............................. CYCLE   57 ..............................
........................................................................

 iter      E             dE          RMSdq      gap      omega  full diag
   1   -399.6170465 -0.399617E+03  0.710E-03    0.05       0.0  T
   2   -399.6170272  0.192684E-04  0.107E-02    0.05       1.0  T
   3   -399.6168055  0.221721E-03  0.309E-02    0.04       1.0  T
   4   -399.6170381 -0.232611E-03  0.645E-03    0.05       1.0  T
   5   -399.6167153  0.322788E-03  0.287E-02    0.04       1.0  T
   6   -399.6170231 -0.307754E-03  0.985E-03    0.05       1.0  T
   7   -399.6170503 -0.271961E-04  0.202E-03    0.05       3.2  T
   8   -399.6170510 -0.767019E-06  0.157E-03    0.05       4.1  T
   9   -399.6170515 -0.501814E-06  0.503E-04    0.05      12.8  T
  10   -399.6170516 -0.186290E-07  0.372E-04    0.05      17.3  T
     SCC iter.                  ...        0 min,  0.954 sec
     gradient                   ...        0 min,  0.563 sec
 * total energy  :  -327.2543061 Eh     change        0.4295050E-01 Eh
   gradient norm :     0.0015995 Eh/α   predicted    -0.1200468E-05 (-100.00%)
   displ. norm   :     0.0062146 α      lambda       -0.1378908E-05
   maximum displ.:     0.0050387 α      in ANC's #1, #2, #67, ...

........................................................................
.............................. CYCLE   58 ..............................
........................................................................

 iter      E             dE          RMSdq      gap      omega  full diag
   1   -399.6164156 -0.399616E+03  0.442E-03    0.05       0.0  T
   2   -399.6162169  0.198727E-03  0.227E-02    0.05       1.0  T
   3   -399.6163295 -0.112619E-03  0.148E-02    0.05       1.0  T
   4   -399.6163231  0.638483E-05  0.193E-02    0.05       1.0  T
   5   -399.6164098 -0.866465E-04  0.459E-03    0.05       1.4  T
   6   -399.6164141 -0.428428E-05  0.351E-03    0.05       1.8  T
   7   -399.6164175 -0.346741E-05  0.109E-03    0.05       5.9  T
   8   -399.6164177 -0.124139E-06  0.875E-04    0.05       7.3  T
   9   -399.6164179 -0.212345E-06  0.302E-04    0.05      21.3  T
     SCC iter.                  ...        0 min,  0.833 sec
     gradient                   ...        0 min,  0.562 sec
 * total energy  :  -327.2187721 Eh     change        0.3553397E-01 Eh
   gradient norm :     0.0016161 Eh/α   predicted    -0.7370963E-06 (-100.00%)
   displ. norm   :     0.0521587 α      lambda       -0.2316741E-04
   maximum displ.:     0.0346888 α      in ANC's #1, #67, #2, ...

........................................................................
.............................. CYCLE   59 ..............................
........................................................................

 iter      E             dE          RMSdq      gap      omega  full diag
   1   -399.6124673 -0.399612E+03  0.447E-02    0.05       0.0  T
   2   -399.6028654  0.960188E-02  0.184E-01    0.06       1.0  T
   3   -399.6094483 -0.658291E-02  0.880E-02    0.03       1.0  T
   4   -399.5910679  0.183805E-01  0.243E-01    0.09       1.0  T
   5   -399.6109890 -0.199212E-01  0.658E-02    0.06       1.0  T
   6   -399.6124274 -0.143834E-02  0.324E-02    0.05       1.0  T
   7   -399.6126223 -0.194980E-03  0.109E-02    0.05       1.0  T
   8   -399.6126474 -0.250656E-04  0.593E-03    0.05       1.1  T
   9   -399.6126571 -0.968786E-05  0.256E-03    0.05       2.5  T
  10   -399.6126577 -0.635460E-06  0.196E-03    0.05       3.3  T
  11   -399.6126582 -0.503114E-06  0.119E-03    0.05       5.4  T
  12   -399.6126587 -0.427911E-06  0.473E-04    0.05      13.6  T
  13   -399.6126587 -0.200022E-07  0.349E-04    0.05      18.4  T
     SCC iter.                  ...        0 min,  1.220 sec
     gradient                   ...        0 min,  0.564 sec
 * total energy  :  -326.8817453 Eh     change        0.3370268E+00 Eh
   gradient norm :     0.0029336 Eh/α   predicted    -0.1167446E-04 (-100.00%)
   displ. norm   :     0.0599598 α      lambda       -0.4565522E-04
   maximum displ.:     0.0297080 α      in ANC's #67, #1, #77, ...

........................................................................
.............................. CYCLE   60 ..............................
........................................................................

 iter      E             dE          RMSdq      gap      omega  full diag
   1   -399.6088733 -0.399609E+03  0.587E-02    0.05       0.0  T
   2   -399.5950037  0.138696E-01  0.232E-01    0.07       1.0  T
   3   -399.6066496 -0.116458E-01  0.868E-02    0.03       1.0  T
   4   -399.5946638  0.119858E-01  0.186E-01    0.08       1.0  T
   5   -399.6052935 -0.106297E-01  0.124E-01    0.06       1.0  T
   6   -399.6084669 -0.317336E-02  0.498E-02    0.05       1.0  T
   7   -399.6091070 -0.640124E-03  0.132E-02    0.05       1.0  T
   8   -399.6091563 -0.492489E-04  0.560E-03    0.05       1.1  T
   9   -399.6091643 -0.807262E-05  0.275E-03    0.05       2.3  T
  10   -399.6091649 -0.590203E-06  0.222E-03    0.05       2.9  T
  11   -399.6091653 -0.419670E-06  0.159E-03    0.05       4.0  T
  12   -399.6091661 -0.789411E-06  0.427E-04    0.05      15.1  T
  13   -399.6091661  0.319351E-07  0.431E-04    0.05      14.9  T
     SCC iter.                  ...        0 min,  1.211 sec
     gradient                   ...        0 min,  0.555 sec
 * total energy  :  -326.8443397 Eh     change        0.3740562E-01 Eh
   gradient norm :     0.0046675 Eh/α   predicted    -0.2319664E-04 (-100.06%)
   displ. norm   :     0.2421808 α      lambda       -0.1953159E-03
   maximum displ.:     0.1292431 α      in ANC's #67, #77, #1, ...

........................................................................
.............................. CYCLE   61 ..............................
........................................................................

 iter      E             dE          RMSdq      gap      omega  full diag
   1   -399.5722684 -0.399572E+03  0.256E-01    0.03       0.0  T
   2   -399.4637130  0.108555E+00  0.597E-01    0.08       1.0  T
   3   -399.4382810  0.254321E-01  0.840E-01    0.03       1.0  T
   4   -399.5763230 -0.138042E+00  0.157E-01    0.05       1.0  T
   5   -399.4123600  0.163963E+00  0.636E-01    0.03       1.0  T
   6   -399.5550780 -0.142718E+00  0.248E-01    0.08       1.0  T
   7   -399.5727608 -0.176827E-01  0.143E-01    0.08       1.0  T
   8   -399.5760062 -0.324545E-02  0.911E-02    0.07       1.0  T
   9   -399.5791597 -0.315346E-02  0.260E-02    0.05       1.0  T
  10   -399.5788505  0.309201E-03  0.370E-02    0.06       1.0  T
  11   -399.5793096 -0.459076E-03  0.943E-03    0.05       1.0  T
  12   -399.5792595  0.500661E-04  0.144E-02    0.05       1.0  T
  13   -399.5793220 -0.625055E-04  0.721E-03    0.05       1.0  T
  14   -399.5793374 -0.154120E-04  0.305E-03    0.05       2.1  T
  15   -399.5793400 -0.259405E-05  0.990E-04    0.05       6.5  T
  16   -399.5793400 -0.257643E-08  0.957E-04    0.05       6.7  T
  17   -399.5793400 -0.263600E-08  0.826E-04    0.05       7.8  T
     SCC iter.                  ...        0 min,  1.605 sec
     gradient                   ...        0 min,  0.554 sec
 * total energy  :  -332.5087500 Eh     change       -0.5664410E+01 Eh
   gradient norm :     0.0107943 Eh/α   predicted    -0.1037524E-03 (-100.00%)
   displ. norm   :     0.2775366 α      lambda       -0.2155896E-03
   maximum displ.:     0.1569731 α      in ANC's #67, #77, #75, ...

........................................................................
.............................. CYCLE   62 ..............................
........................................................................

 iter      E             dE          RMSdq      gap      omega  full diag
   1   -399.4859268 -0.399486E+03  0.429E-01    0.02       0.0  T
   2   -398.6178971  0.868030E+00  0.145E+00    0.07       1.0  T
   3   -399.3819664 -0.764069E+00  0.849E-01    0.03       1.0  T
   4   -399.4751249 -0.931585E-01  0.427E-01    0.08       1.0  T
   5   -399.4683830  0.674187E-02  0.380E-01    0.03       1.0  T
   6   -399.4775476 -0.916464E-02  0.353E-01    0.13       1.0  T
   7   -399.4978925 -0.203449E-01  0.266E-01    0.12       1.0  T
   8   -399.5090888 -0.111963E-01  0.195E-01    0.10       1.0  T
   9   -399.5208882 -0.117994E-01  0.505E-02    0.04       1.0  T
  10   -399.5214134 -0.525251E-03  0.414E-02    0.05       1.0  T
  11   -399.5215459 -0.132450E-03  0.306E-02    0.04       1.0  T
  12   -399.5216453 -0.994719E-04  0.220E-02    0.05       1.0  T
  13   -399.5218160 -0.170701E-03  0.843E-03    0.04       1.0  T
  14   -399.5218355 -0.194101E-04  0.389E-03    0.05       1.7  T
  15   -399.5217907  0.447815E-04  0.113E-02    0.04       1.0  T
  16   -399.5218384 -0.477672E-04  0.244E-03    0.04       2.6  T
  17   -399.5218396 -0.117717E-05  0.780E-04    0.04       8.2  T
  18   -399.5218396  0.151322E-07  0.700E-04    0.04       9.2  T
  19   -399.5218397 -0.115005E-06  0.347E-04    0.04      18.5  T
     SCC iter.                  ...        0 min,  1.808 sec
     gradient                   ...        0 min,  0.548 sec
 * total energy  :  -346.5640877 Eh     change       -0.1405534E+02 Eh
   gradient norm :     0.0160797 Eh/α   predicted    -0.1168379E-03 (-100.00%)
   displ. norm   :     0.5918806 α      lambda       -0.5948101E-03
   maximum displ.:     0.3440282 α      in ANC's #67, #77, #75, ...

........................................................................
.............................. CYCLE   63 ..............................
........................................................................

 iter      E             dE          RMSdq      gap      omega  full diag
   1   -398.9577098 -0.398958E+03  0.142E+00    0.11       0.0  T
   2   -396.9708419  0.198687E+01  0.226E+00    0.11       1.0  T
   3   -398.7858635 -0.181502E+01  0.126E+00    0.15       1.0  T
   4   -399.1031515 -0.317288E+00  0.988E-01    0.18       1.0  T
   5   -399.3015134 -0.198362E+00  0.553E-01    0.11       1.0  T
   6   -399.3079987 -0.648531E-02  0.520E-01    0.02       1.0  T
   7   -399.3296990 -0.217003E-01  0.419E-01    0.09       1.0  T
   8   -399.3364815 -0.678251E-02  0.364E-01    0.03       1.0  T
   9   -399.3035139  0.329676E-01  0.460E-01    0.13       1.0  T
  10   -399.3728817 -0.693678E-01  0.134E-01    0.04       1.0  T
  11   -399.3756245 -0.274277E-02  0.720E-02    0.02       1.0  T
  12   -399.3709043  0.472016E-02  0.123E-01    0.01       1.0  T
  13   -399.3750434 -0.413907E-02  0.731E-02    0.04       1.0  T
  14   -399.3768266 -0.178323E-02  0.219E-02    0.03       1.0  T
  15   -399.3769211 -0.944606E-04  0.974E-03    0.03       1.0  T
  16   -399.3769207  0.365193E-06  0.936E-03    0.03       1.0  T
  17   -399.3769492 -0.284688E-04  0.334E-03    0.03       1.9  T
  18   -399.3769511 -0.186060E-05  0.204E-03    0.03       3.2  T
  19   -399.3769510  0.223525E-07  0.205E-03    0.03       3.1  T
  20   -399.3769479  0.312035E-05  0.354E-03    0.03       1.8  T
  21   -399.3769508 -0.283164E-05  0.201E-03    0.03       3.2  T
  22   -399.3769520 -0.125108E-05  0.411E-04    0.03      15.6  T
  23   -399.3769520 -0.165862E-07  0.344E-04    0.03      18.7  T
  24   -399.3769520 -0.184242E-07  0.196E-04    0.03      32.8  T
     SCC iter.                  ...        0 min,  2.294 sec
     gradient                   ...        0 min,  0.545 sec
 * total energy  :  -371.7359374 Eh     change       -0.2517185E+02 Eh
   gradient norm :     0.0270075 Eh/α   predicted    -0.4069130E-03 (-100.00%)
   displ. norm   :     0.7603078 α      lambda       -0.1129907E-02
   maximum displ.:     0.4461955 α      in ANC's #67, #77, #75, ...

........................................................................
.............................. CYCLE   64 ..............................
........................................................................

 iter      E             dE          RMSdq      gap      omega  full diag
   1   -398.5213423 -0.398521E+03  0.152E+00    0.05       0.0  T
   2   -396.5869938  0.193435E+01  0.229E+00    0.17       1.0  T
   3   -396.8384329 -0.251439E+00  0.288E+00    0.26       1.0  T
   4   -398.6255005 -0.178707E+01  0.120E+00    0.12       1.0  T
   5   -398.7336445 -0.108144E+00  0.112E+00    0.05       1.0  T
   6   -399.0482459 -0.314601E+00  0.462E-01    0.10       1.0  T
   7   -398.8998188  0.148427E+00  0.803E-01    0.13       1.0  T
   8   -399.0484170 -0.148598E+00  0.385E-01    0.03       1.0  T
   9   -399.0257961  0.226210E-01  0.446E-01    0.07       1.0  T
  10   -399.0475033 -0.217072E-01  0.349E-01    0.03       1.0  T
  11   -399.0953387 -0.478354E-01  0.116E-01    0.08       1.0  T
  12   -399.0930587  0.228007E-02  0.136E-01    0.04       1.0  T
  13   -399.0982042 -0.514552E-02  0.738E-02    0.06       1.0  T
  14   -399.0989581 -0.753928E-03  0.546E-02    0.08       1.0  T
  15   -399.0995859 -0.627804E-03  0.320E-02    0.06       1.0  T
  16   -399.0993708  0.215174E-03  0.383E-02    0.06       1.0  T
  17   -399.0997017 -0.330916E-03  0.223E-02    0.06       1.0  T
  18   -399.0998002 -0.984969E-04  0.160E-02    0.07       1.0  T
  19   -399.0998709 -0.706933E-04  0.823E-03    0.07       1.0  T
  20   -399.0998872 -0.162870E-04  0.463E-03    0.07       1.4  T
  21   -399.0998938 -0.664431E-05  0.198E-03    0.07       3.2  T
  22   -399.0998947 -0.937823E-06  0.115E-03    0.07       5.6  T
  23   -399.0998945  0.203202E-06  0.131E-03    0.07       4.9  T
  24   -399.0998951 -0.566550E-06  0.362E-04    0.07      17.8  T
  25   -399.0998951  0.839304E-08  0.357E-04    0.07      18.0  T
     SCC iter.                  ...        0 min,  2.384 sec
     gradient                   ...        0 min,  0.560 sec
 * total energy  :  -384.6725809 Eh     change       -0.1293664E+02 Eh
   gradient norm :     0.0353814 Eh/α   predicted    -0.9079804E-03 ( -99.99%)
   displ. norm   :     0.7620532 α      lambda       -0.1314596E-02
   maximum displ.:     0.4465455 α      in ANC's #67, #77, #75, ...

........................................................................
.............................. CYCLE   65 ..............................
........................................................................

 iter      E             dE          RMSdq      gap      omega  full diag
   1   -398.4822930 -0.398482E+03  0.114E+00    0.05       0.0  T
   2   -392.9251220  0.555717E+01  0.387E+00    0.08       1.0  T
   3   -398.1433989 -0.521828E+01  0.130E+00    0.24       1.0  T
   4   -398.4556101 -0.312211E+00  0.997E-01    0.05       1.0  T
   5   -398.3715282  0.840819E-01  0.983E-01    0.08       1.0  T
   6   -398.6932308 -0.321703E+00  0.555E-01    0.11       1.0  T
   7   -398.7495784 -0.563476E-01  0.421E-01    0.10       1.0  T
   8   -398.7691246 -0.195461E-01  0.268E-01    0.10       1.0  T
   9   -398.7660719  0.305270E-02  0.297E-01    0.05       1.0  T
  10   -398.7524224  0.136495E-01  0.261E-01    0.04       1.0  T
  11   -398.7762418 -0.238194E-01  0.159E-01    0.07       1.0  T
  12   -398.7779844 -0.174263E-02  0.130E-01    0.07       1.0  T
  13   -398.7820596 -0.407525E-02  0.675E-02    0.07       1.0  T
  14   -398.7831169 -0.105722E-02  0.387E-02    0.08       1.0  T
  15   -398.7835027 -0.385802E-03  0.264E-02    0.08       1.0  T
  16   -398.7835973 -0.946906E-04  0.217E-02    0.08       1.0  T
  17   -398.7837516 -0.154270E-03  0.924E-03    0.08       1.0  T
  18   -398.7837791 -0.274955E-04  0.241E-03    0.08       2.7  T
  19   -398.7837793 -0.142959E-06  0.214E-03    0.08       3.0  T
  20   -398.7837811 -0.182374E-05  0.827E-04    0.08       7.8  T
  21   -398.7837810  0.467073E-07  0.855E-04    0.08       7.5  T
  22   -398.7837809  0.103250E-06  0.983E-04    0.08       6.5  T
     SCC iter.                  ...        0 min,  2.078 sec
     gradient                   ...        0 min,  0.556 sec
 * total energy  :  -388.4991325 Eh     change       -0.3826552E+01 Eh
   gradient norm :     0.0493487 Eh/α   predicted    -0.1058116E-02 ( -99.97%)
   displ. norm   :     0.7119717 α      lambda       -0.1919112E-02
   maximum displ.:     0.4174428 α      in ANC's #67, #77, #75, ...

........................................................................
.............................. CYCLE   66 ..............................
........................................................................

 iter      E             dE          RMSdq      gap      omega  full diag
   1   -398.3105706 -0.398311E+03  0.914E-01    0.09       0.0  T
   2   -396.3653592  0.194521E+01  0.262E+00    0.06       1.0  T
   3   -398.1698911 -0.180453E+01  0.116E+00    0.09       1.0  T
   4   -398.4057894 -0.235898E+00  0.754E-01    0.02       1.0  T
   5   -398.3592071  0.465823E-01  0.680E-01    0.02       1.0  T
   6   -398.3520907  0.711640E-02  0.790E-01    0.22       1.0  T
   7   -398.5281820 -0.176091E+00  0.495E-01    0.09       1.0  T
   8   -398.4950362  0.331458E-01  0.527E-01    0.04       1.0  T
   9   -398.5263948 -0.313586E-01  0.471E-01    0.02       1.0  T
  10   -398.5190549  0.733994E-02  0.491E-01    0.02       1.0  T
  11   -398.5199026 -0.847753E-03  0.487E-01    0.04       1.0  T
  12   -398.5131580  0.674458E-02  0.396E-01    0.11       1.0  T
  13   -398.5174181 -0.426008E-02  0.412E-01    0.04       1.0  T
  14   -398.4707500  0.466681E-01  0.713E-01    0.03       1.0  T
  15   -398.5571397 -0.863897E-01  0.323E-01    0.02       1.0  T
  16   -398.5482354  0.890424E-02  0.346E-01    0.04       1.0  T
  17   -398.5652129 -0.169775E-01  0.255E-01    0.03       1.0  T
  18   -398.5595294  0.568348E-02  0.252E-01    0.04       1.0  T
  19   -398.5615629 -0.203350E-02  0.240E-01    0.04       1.0  T
  20   -398.5603110  0.125199E-02  0.254E-01    0.04       1.0  T
  21   -398.5603661 -0.551382E-04  0.251E-01    0.04       1.0  T
  22   -398.5658472 -0.548112E-02  0.226E-01    0.03       1.0  T
  23   -398.5641459  0.170128E-02  0.246E-01    0.02       1.0  T
  24   -398.5696625 -0.551655E-02  0.245E-01    0.03       1.0  T
  25   -398.5685096  0.115283E-02  0.245E-01    0.04       1.0  T
  26   -398.5696900 -0.118032E-02  0.239E-01    0.04       1.0  T
  27   -398.5688756  0.814364E-03  0.240E-01    0.04       1.0  T
  28   -398.5708902 -0.201460E-02  0.188E-01    0.04       1.0  T
  29   -398.5724512 -0.156099E-02  0.182E-01    0.03       1.0  T
  30   -398.5747124 -0.226125E-02  0.151E-01    0.03       1.0  T
  31   -398.5752658 -0.553402E-03  0.134E-01    0.03       1.0  T
  32   -398.5770815 -0.181567E-02  0.967E-02    0.02       1.0  T
  33   -398.5780726 -0.991077E-03  0.607E-02    0.02       1.0  T
  34   -398.5782559 -0.183289E-03  0.325E-02    0.02       1.0  T
  35   -398.5782994 -0.435319E-04  0.130E-02    0.02       1.0  T
  36   -398.5783082 -0.875756E-05  0.836E-03    0.02       1.0  T
  37   -398.5782716  0.365191E-04  0.136E-02    0.02       1.0  T
  38   -398.5782754 -0.379509E-05  0.122E-02    0.02       1.0  T
  39   -398.5783086 -0.331958E-04  0.401E-03    0.02       1.6  T
  40   -398.5783122 -0.356222E-05  0.137E-03    0.02       4.7  T
  41   -398.5783124 -0.242310E-06  0.743E-04    0.02       8.6  T
  42   -398.5783124  0.265667E-07  0.714E-04    0.02       9.0  T
     SCC iter.                  ...        0 min,  3.977 sec
     gradient                   ...        0 min,  0.557 sec
 * total energy  :  -389.3103462 Eh     change       -0.8112137E+00 Eh
   gradient norm :     0.0485615 Eh/α   predicted    -0.1470043E-02 ( -99.82%)
   displ. norm   :     0.6816633 α      lambda       -0.2291488E-02
   maximum displ.:     0.3997328 α      in ANC's #67, #77, #75, ...
 * RMSD in coord.:     0.2769406 α      energy gain  -0.5621416E+02 Eh

generating ANC from exact Hessian ...
Using Lindh-Hessian (1995)
 Shifting diagonal of input Hessian by    1.0588087735799296E-002
 Lowest  eigenvalues of input Hessian
    0.010000    0.010555    0.010560    0.010564    0.000000    0.000000
    0.000000    0.000000    0.000000    0.000000    0.010603    0.010605
    0.010622    0.010640    0.010646    0.010660    0.010681    0.010689
 Highest eigenvalues
    3.065607    3.462091    3.466235    3.697826    4.477314    4.925756


........................................................................
.............................. CYCLE   67 ..............................
........................................................................

 iter      E             dE          RMSdq      gap      omega  full diag
   1   -398.2336135 -0.398234E+03  0.850E-01    0.04       0.0  T
   2   -396.3145882  0.191903E+01  0.243E+00    0.22       1.0  T
   3   -398.3627225 -0.204813E+01  0.644E-01    0.06       1.0  T
   4   -398.3413917  0.213308E-01  0.543E-01    0.13       1.0  T
   5   -397.7268407  0.614551E+00  0.147E+00    0.03       1.0  T
   6   -398.3976336 -0.670793E+00  0.409E-01    0.03       1.0  T
   7   -398.1616046  0.236029E+00  0.942E-01    0.02       1.0  T
   8   -398.3149335 -0.153329E+00  0.589E-01    0.04       1.0  T
   9   -398.4059432 -0.910097E-01  0.332E-01    0.08       1.0  T
  10   -398.3886601  0.172831E-01  0.395E-01    0.11       1.0  T
  11   -398.4155532 -0.268931E-01  0.280E-01    0.07       1.0  T
  12   -398.4425428 -0.269897E-01  0.328E-02    0.03       1.0  T
  13   -398.4401930  0.234979E-02  0.898E-02    0.02       1.0  T
  14   -398.4421621 -0.196902E-02  0.420E-02    0.03       1.0  T
  15   -398.4427526 -0.590561E-03  0.967E-03    0.03       1.0  T
  16   -398.4427588 -0.622168E-05  0.733E-03    0.03       1.0  T
  17   -398.4427605 -0.165122E-05  0.700E-03    0.03       1.0  T
  18   -398.4427731 -0.125994E-04  0.234E-03    0.03       2.7  T
  19   -398.4427657  0.737614E-05  0.520E-03    0.03       1.2  T
  20   -398.4427749 -0.919088E-05  0.577E-04    0.03      11.1  T
  21   -398.4427748  0.142731E-06  0.801E-04    0.03       8.0  T
  22   -398.4427748 -0.644728E-07  0.727E-04    0.03       8.8  T
     SCC iter.                  ...        0 min,  2.080 sec
     gradient                   ...        0 min,  0.573 sec
 * total energy  :  -388.9756626 Eh     change        0.3346835E+00 Eh
   gradient norm :     0.1426381 Eh/α   predicted     0.0000000E+00 (-100.00%)
   displ. norm   :     0.0845613 α      lambda       -0.1166104E-01
   maximum displ.:     0.0665431 α      in ANC's #1, #36, #3, ...

........................................................................
.............................. CYCLE   68 ..............................
........................................................................

 iter      E             dE          RMSdq      gap      omega  full diag
   1   -398.4411825 -0.398441E+03  0.716E-02    0.03       0.0  T
   2   -397.9775234  0.463659E+00  0.121E+00    0.03       1.0  T
   3   -398.4353607 -0.457837E+00  0.146E-01    0.04       1.0  T
   4   -398.4337782  0.158254E-02  0.154E-01    0.03       1.0  T
   5   -398.4382656 -0.448745E-02  0.103E-01    0.04       1.0  T
   6   -398.4409335 -0.266790E-02  0.548E-02    0.03       1.0  T
   7   -398.4418495 -0.916027E-03  0.167E-02    0.02       1.0  T
   8   -398.4408078  0.104176E-02  0.595E-02    0.02       1.0  T
   9   -398.4401990  0.608742E-03  0.730E-02    0.02       1.0  T
  10   -398.4405233 -0.324245E-03  0.647E-02    0.02       1.0  T
  11   -398.4418471 -0.132385E-02  0.135E-02    0.02       1.0  T
  12   -398.4418767 -0.296038E-04  0.946E-03    0.02       1.0  T
  13   -398.4419090 -0.323170E-04  0.858E-04    0.03       7.5  T
  14   -398.4419068  0.226950E-05  0.272E-03    0.03       2.4  T
  15   -398.4419092 -0.240707E-05  0.400E-04    0.03      16.1  T
  16   -398.4419091  0.426209E-07  0.437E-04    0.03      14.7  T
  17   -398.4419092 -0.644222E-07  0.996E-05    0.03      64.5  T
     SCC iter.                  ...        0 min,  1.598 sec
     gradient                   ...        0 min,  0.568 sec
 * total energy  :  -388.9709465 Eh     change        0.4716176E-02 Eh
   gradient norm :     0.0926361 Eh/α   predicted    -0.6005990E-02 (-227.35%)
   displ. norm   :     0.1443175 α      lambda       -0.1314386E-01
   maximum displ.:     0.1037094 α      in ANC's #1, #36, #65, ...

........................................................................
.............................. CYCLE   69 ..............................
........................................................................

 iter      E             dE          RMSdq      gap      omega  full diag
   1   -398.4389572 -0.398439E+03  0.111E-01    0.03       0.0  T
   2   -397.9631531  0.475804E+00  0.123E+00    0.03       1.0  T
   3   -398.4099702 -0.446817E+00  0.306E-01    0.06       1.0  T
   4   -398.4164859 -0.651564E-02  0.263E-01    0.02       1.0  T
   5   -398.4321963 -0.157105E-01  0.152E-01    0.04       1.0  T
   6   -398.4364635 -0.426712E-02  0.103E-01    0.03       1.0  T
   7   -398.4398525 -0.338906E-02  0.224E-02    0.02       1.0  T
   8   -398.4364907  0.336182E-02  0.107E-01    0.01       1.0  T
   9   -398.4336668  0.282392E-02  0.141E-01    0.01       1.0  T
  10   -398.4375621 -0.389534E-02  0.864E-02    0.01       1.0  T
  11   -398.4399227 -0.236062E-02  0.122E-02    0.02       1.0  T
  12   -398.4399577 -0.350100E-04  0.531E-03    0.02       1.2  T
  13   -398.4399671 -0.937782E-05  0.155E-03    0.02       4.1  T
  14   -398.4399583  0.879867E-05  0.541E-03    0.02       1.2  T
  15   -398.4399669 -0.861961E-05  0.140E-03    0.02       4.6  T
  16   -398.4399675 -0.599050E-06  0.328E-04    0.02      19.6  T
  17   -398.4399673  0.213302E-06  0.827E-04    0.02       7.8  T
     SCC iter.                  ...        0 min,  1.593 sec
     gradient                   ...        0 min,  0.565 sec
 * total energy  :  -388.9453559 Eh     change        0.2559057E-01 Eh
   gradient norm :     0.0389620 Eh/α   predicted    -0.6716148E-02 (-126.24%)
   displ. norm   :     0.0274740 α      lambda       -0.8755900E-03
   maximum displ.:     0.0198321 α      in ANC's #36, #46, #77, ...

........................................................................
.............................. CYCLE   70 ..............................
........................................................................

 iter      E             dE          RMSdq      gap      omega  full diag
   1   -398.4408302 -0.398441E+03  0.222E-02    0.02       0.0  T
   2   -398.4395101  0.132009E-02  0.654E-02    0.03       1.0  T
   3   -398.4192966  0.202134E-01  0.259E-01    0.01       1.0  T
   4   -398.4395306 -0.202339E-01  0.629E-02    0.02       1.0  T
   5   -398.4406673 -0.113676E-02  0.232E-02    0.02       1.0  T
   6   -398.4408308 -0.163502E-03  0.909E-03    0.02       1.0  T
   7   -398.4408407 -0.991533E-05  0.682E-03    0.02       1.0  T
   8   -398.4408463 -0.560356E-05  0.510E-03    0.02       1.3  T
   9   -398.4408529 -0.659855E-05  0.281E-03    0.02       2.3  T
  10   -398.4408526  0.371528E-06  0.300E-03    0.02       2.1  T
  11   -398.4408547 -0.214338E-05  0.153E-03    0.02       4.2  T
  12   -398.4408553 -0.608567E-06  0.677E-04    0.02       9.5  T
  13   -398.4408554 -0.129642E-06  0.247E-04    0.02      26.0  T
     SCC iter.                  ...        0 min,  1.219 sec
     gradient                   ...        0 min,  0.554 sec
 * total energy  :  -388.9369767 Eh     change        0.8379155E-02 Eh
   gradient norm :     0.0363178 Eh/α   predicted    -0.4388318E-03 (-105.24%)
   displ. norm   :     0.1343510 α      lambda       -0.4175520E-02
   maximum displ.:     0.0882218 α      in ANC's #36, #22, #46, ...

........................................................................
.............................. CYCLE   71 ..............................
........................................................................

 iter      E             dE          RMSdq      gap      omega  full diag
   1   -398.4479315 -0.398448E+03  0.110E-01    0.02       0.0  T
   2   -398.3439981  0.103933E+00  0.553E-01    0.12       1.0  T
   3   -398.2557132  0.882849E-01  0.791E-01    0.02       1.0  T
   4   -398.4218336 -0.166120E+00  0.283E-01    0.03       1.0  T
   5   -398.4383185 -0.164849E-01  0.180E-01    0.05       1.0  T
   6   -398.4366828  0.163569E-02  0.191E-01    0.04       1.0  T
   7   -398.4419335 -0.525075E-02  0.142E-01    0.03       1.0  T
   8   -398.4476121 -0.567861E-02  0.547E-02    0.03       1.0  T
   9   -398.4485760 -0.963816E-03  0.972E-03    0.02       1.0  T
  10   -398.4485857 -0.972972E-05  0.809E-03    0.02       1.0  T
  11   -398.4485947 -0.903944E-05  0.574E-03    0.02       1.1  T
  12   -398.4486018 -0.710460E-05  0.321E-03    0.02       2.0  T
  13   -398.4486050 -0.318272E-05  0.682E-04    0.02       9.4  T
  14   -398.4486040  0.105513E-05  0.186E-03    0.02       3.5  T
  15   -398.4486050 -0.106064E-05  0.510E-04    0.02      12.6  T
  16   -398.4486051 -0.582313E-07  0.252E-04    0.02      25.5  T
  17   -398.4486051 -0.127466E-07  0.144E-04    0.02      44.6  T
     SCC iter.                  ...        0 min,  1.638 sec
     gradient                   ...        0 min,  0.556 sec
 * total energy  :  -388.8888505 Eh     change        0.4812620E-01 Eh
   gradient norm :     0.0288402 Eh/α   predicted    -0.2126654E-02 (-104.42%)
   displ. norm   :     0.0823374 α      lambda       -0.1295849E-02
   maximum displ.:     0.0438834 α      in ANC's #36, #22, #77, ...

........................................................................
.............................. CYCLE   72 ..............................
........................................................................

 iter      E             dE          RMSdq      gap      omega  full diag
   1   -398.4559644 -0.398456E+03  0.710E-02    0.02       0.0  T
   2   -398.3440174  0.111947E+00  0.567E-01    0.13       1.0  T
   3   -398.4255651 -0.815477E-01  0.311E-01    0.01       1.0  T
   4   -398.4477216 -0.221565E-01  0.164E-01    0.01       1.0  T
   5   -398.4525130 -0.479140E-02  0.112E-01    0.03       1.0  T
   6   -398.4511820  0.133106E-02  0.127E-01    0.03       1.0  T
   7   -398.4531842 -0.200221E-02  0.979E-02    0.03       1.0  T
   8   -398.4560023 -0.281811E-02  0.324E-02    0.02       1.0  T
   9   -398.4563222 -0.319919E-03  0.733E-03    0.02       1.0  T
  10   -398.4563260 -0.382114E-05  0.680E-03    0.02       1.0  T
  11   -398.4563373 -0.112939E-04  0.328E-03    0.02       2.0  T
  12   -398.4563404 -0.310759E-05  0.963E-04    0.02       6.7  T
  13   -398.4563400  0.420655E-06  0.140E-03    0.02       4.6  T
  14   -398.4563407 -0.630093E-06  0.239E-04    0.02      26.9  T
  15   -398.4563407 -0.798991E-08  0.180E-04    0.02      35.6  T
     SCC iter.                  ...        0 min,  1.380 sec
     gradient                   ...        0 min,  0.549 sec
 * total energy  :  -388.8505734 Eh     change        0.3827712E-01 Eh
   gradient norm :     0.0293138 Eh/α   predicted    -0.6524500E-03 (-101.70%)
   displ. norm   :     0.0981619 α      lambda       -0.1216443E-02
   maximum displ.:     0.0525463 α      in ANC's #22, #77, #46, ...

........................................................................
.............................. CYCLE   73 ..............................
........................................................................

 iter      E             dE          RMSdq      gap      omega  full diag
   1   -398.4685905 -0.398469E+03  0.883E-02    0.01       0.0  T
   2   -398.3266198  0.141971E+00  0.633E-01    0.16       1.0  T
   3   -398.4318011 -0.105181E+00  0.344E-01    0.02       1.0  T
   4   -398.4632737 -0.314726E-01  0.143E-01    0.02       1.0  T
   5   -398.4524305  0.108432E-01  0.230E-01    0.04       1.0  T
   6   -398.4579732 -0.554269E-02  0.187E-01    0.04       1.0  T
   7   -398.4618903 -0.391716E-02  0.149E-01    0.03       1.0  T
   8   -398.4689000 -0.700960E-02  0.364E-02    0.02       1.0  T
   9   -398.4690812 -0.181218E-03  0.280E-02    0.01       1.0  T
  10   -398.4691692 -0.880241E-04  0.218E-02    0.01       1.0  T
  11   -398.4693185 -0.149259E-03  0.400E-03    0.02       1.6  T
  12   -398.4693185 -0.661606E-08  0.392E-03    0.02       1.6  T
  13   -398.4693228 -0.433367E-05  0.126E-03    0.02       5.1  T
  14   -398.4693228 -0.215076E-07  0.121E-03    0.02       5.3  T
  15   -398.4693232 -0.417718E-06  0.427E-04    0.02      15.1  T
  16   -398.4693233 -0.488608E-07  0.162E-04    0.02      39.6  T
     SCC iter.                  ...        0 min,  1.466 sec
     gradient                   ...        0 min,  0.560 sec
 * total energy  :  -388.7941367 Eh     change        0.5643668E-01 Eh
   gradient norm :     0.0317237 Eh/α   predicted    -0.6142940E-03 (-101.09%)
   displ. norm   :     0.1441329 α      lambda       -0.1673694E-02
   maximum displ.:     0.0776304 α      in ANC's #22, #77, #46, ...

........................................................................
.............................. CYCLE   74 ..............................
........................................................................

 iter      E             dE          RMSdq      gap      omega  full diag
   1   -398.4919701 -0.398492E+03  0.138E-01    0.01       0.0  T
   2   -398.3052460  0.186724E+00  0.719E-01    0.18       1.0  T
   3   -398.3873066 -0.820606E-01  0.581E-01    0.02       1.0  T
   4   -398.4640216 -0.767150E-01  0.314E-01    0.05       1.0  T
   5   -398.4681626 -0.414093E-02  0.285E-01    0.02       1.0  T
   6   -398.4551024  0.130601E-01  0.346E-01    0.06       1.0  T
   7   -398.4730105 -0.179081E-01  0.252E-01    0.04       1.0  T
   8   -398.4941923 -0.211818E-01  0.197E-02    0.01       1.0  T
   9   -398.4922192  0.197308E-02  0.818E-02    0.01       1.0  T
  10   -398.4935212 -0.130200E-02  0.506E-02    0.01       1.0  T
  11   -398.4943277 -0.806522E-03  0.431E-03    0.01       1.5  T
  12   -398.4942153  0.112424E-03  0.193E-02    0.02       1.0  T
  13   -398.4943108 -0.955326E-04  0.831E-03    0.02       1.0  T
  14   -398.4943230 -0.121700E-04  0.552E-03    0.01       1.2  T
  15   -398.4943323 -0.930405E-05  0.551E-04    0.01      11.7  T
  16   -398.4943314  0.858254E-06  0.172E-03    0.01       3.7  T
  17   -398.4943324 -0.920933E-06  0.303E-04    0.01      21.2  T
  18   -398.4943324  0.467048E-08  0.301E-04    0.01      21.4  T
     SCC iter.                  ...        0 min,  1.701 sec
     gradient                   ...        0 min,  0.552 sec
 * total energy  :  -388.6978629 Eh     change        0.9627383E-01 Eh
   gradient norm :     0.0349633 Eh/α   predicted    -0.8544006E-03 (-100.89%)
   displ. norm   :     0.2189677 α      lambda       -0.2503631E-02
   maximum displ.:     0.1186562 α      in ANC's #77, #22, #46, ...

........................................................................
.............................. CYCLE   75 ..............................
........................................................................

 iter      E             dE          RMSdq      gap      omega  full diag
   1   -398.5304226 -0.398530E+03  0.240E-01    0.01       0.0  T
   2   -398.2500528  0.280370E+00  0.873E-01    0.21       1.0  T
   3   -398.3778323 -0.127779E+00  0.703E-01    0.04       1.0  T
   4   -398.4500178 -0.721855E-01  0.539E-01    0.09       1.0  T
   5   -398.5145688 -0.645510E-01  0.288E-01    0.01       1.0  T
   6   -398.4465961  0.679727E-01  0.527E-01    0.09       1.0  T
   7   -398.4801544 -0.335583E-01  0.419E-01    0.06       1.0  T
   8   -398.5361041 -0.559497E-01  0.946E-02    0.02       1.0  T
   9   -398.5378991 -0.179501E-02  0.657E-02    0.01       1.0  T
  10   -398.5383263 -0.427192E-03  0.520E-02    0.01       1.0  T
  11   -398.5390929 -0.766627E-03  0.158E-02    0.01       1.0  T
  12   -398.5386087  0.484201E-03  0.425E-02    0.02       1.0  T
  13   -398.5389676 -0.358854E-03  0.255E-02    0.01       1.0  T
  14   -398.5390528 -0.851960E-04  0.190E-02    0.01       1.0  T
  15   -398.5391689 -0.116114E-03  0.992E-04    0.01       6.5  T
  16   -398.5391606  0.824817E-05  0.516E-03    0.01       1.2  T
  17   -398.5391690 -0.835962E-05  0.797E-04    0.01       8.1  T
  18   -398.5391692 -0.195888E-06  0.219E-04    0.01      29.3  T
  19   -398.5391688  0.346410E-06  0.106E-03    0.01       6.1  T
  20   -398.5391690 -0.147530E-06  0.812E-04    0.01       7.9  T
     SCC iter.                  ...        0 min,  2.034 sec
     gradient                   ...        0 min,  0.574 sec
 * total energy  :  -388.5517861 Eh     change        0.1460768E+00 Eh
   gradient norm :     0.0380380 Eh/α   predicted    -0.1311856E-02 (-100.90%)
   displ. norm   :     0.2377973 α      lambda       -0.2754878E-02
   maximum displ.:     0.1350957 α      in ANC's #77, #46, #22, ...

........................................................................
.............................. CYCLE   76 ..............................
........................................................................

 iter      E             dE          RMSdq      gap      omega  full diag
   1   -398.5732078 -0.398573E+03  0.304E-01    0.01       0.0  T
   2   -398.2102092  0.362999E+00  0.982E-01    0.25       1.0  T
   3   -398.5423227 -0.332114E+00  0.396E-01    0.03       1.0  T
   4   -398.4002729  0.142050E+00  0.776E-01    0.09       1.0  T
   5   -398.4500110 -0.497381E-01  0.640E-01    0.10       1.0  T
   6   -398.5154273 -0.654163E-01  0.472E-01    0.07       1.0  T
   7   -398.5362894 -0.208621E-01  0.390E-01    0.06       1.0  T
   8   -398.5870479 -0.507585E-01  0.650E-02    0.01       1.0  T
   9   -398.5829245  0.412336E-02  0.127E-01    0.02       1.0  T
  10   -398.5830073 -0.827074E-04  0.133E-01    0.01       1.0  T
  11   -398.5883270 -0.531977E-02  0.191E-02    0.01       1.0  T
  12   -398.5882098  0.117240E-03  0.274E-02    0.01       1.0  T
  13   -398.5871886  0.102118E-02  0.627E-02    0.02       1.0  T
  14   -398.5880104 -0.821745E-03  0.363E-02    0.01       1.0  T
  15   -398.5883826 -0.372287E-03  0.116E-02    0.01       1.0  T
  16   -398.5884036 -0.209883E-04  0.879E-03    0.01       1.0  T
  17   -398.5884227 -0.191120E-04  0.387E-03    0.01       1.7  T
  18   -398.5884269 -0.419656E-05  0.129E-03    0.01       5.0  T
  19   -398.5884273 -0.388714E-06  0.646E-04    0.01      10.0  T
  20   -398.5884275 -0.134665E-06  0.163E-04    0.01      39.5  T
     SCC iter.                  ...        0 min,  1.897 sec
     gradient                   ...        0 min,  0.577 sec
 * total energy  :  -388.4502558 Eh     change        0.1015303E+00 Eh
   gradient norm :     0.0384214 Eh/α   predicted    -0.1455344E-02 (-101.43%)
   displ. norm   :     0.2307859 α      lambda       -0.3192912E-02
   maximum displ.:     0.1347316 α      in ANC's #77, #46, #42, ...

........................................................................
.............................. CYCLE   77 ..............................
........................................................................

 iter      E             dE          RMSdq      gap      omega  full diag
   1   -398.6142848 -0.398614E+03  0.312E-01    0.02       0.0  T
   2   -398.2175528  0.396732E+00  0.102E+00    0.28       1.0  T
   3   -398.5529388 -0.335386E+00  0.512E-01    0.08       1.0  T
   4   -398.4399227  0.113016E+00  0.783E-01    0.08       1.0  T
   5   -398.5425267 -0.102604E+00  0.516E-01    0.06       1.0  T
   6   -398.5849734 -0.424467E-01  0.380E-01    0.06       1.0  T
   7   -398.5704800  0.144934E-01  0.420E-01    0.07       1.0  T
   8   -398.6204251 -0.499451E-01  0.178E-01    0.03       1.0  T
   9   -398.6310786 -0.106535E-01  0.225E-02    0.01       1.0  T
  10   -398.6297931  0.128544E-02  0.648E-02    0.02       1.0  T
  11   -398.6301941 -0.400941E-03  0.547E-02    0.01       1.0  T
  12   -398.6310193 -0.825210E-03  0.225E-02    0.01       1.0  T
  13   -398.6310236 -0.437170E-05  0.212E-02    0.01       1.0  T
  14   -398.6311610 -0.137396E-03  0.648E-03    0.01       1.0  T
  15   -398.6311660 -0.493191E-05  0.514E-03    0.01       1.3  T
  16   -398.6311723 -0.632231E-05  0.240E-03    0.01       2.7  T
  17   -398.6311709  0.141492E-05  0.332E-03    0.01       1.9  T
  18   -398.6311723 -0.142311E-05  0.244E-03    0.01       2.6  T
  19   -398.6311739 -0.162090E-05  0.104E-03    0.01       6.2  T
  20   -398.6311740 -0.943760E-07  0.888E-04    0.01       7.2  T
  21   -398.6311741 -0.135855E-06  0.579E-04    0.01      11.1  T
     SCC iter.                  ...        0 min,  2.005 sec
     gradient                   ...        0 min,  0.572 sec
 * total energy  :  -388.4519700 Eh     change       -0.1714239E-02 Eh
   gradient norm :     0.0358922 Eh/α   predicted    -0.1681501E-02 (  -1.91%)
   displ. norm   :     0.2458665 α      lambda       -0.3783479E-02
   maximum displ.:     0.1376518 α      in ANC's #77, #42, #46, ...

........................................................................
.............................. CYCLE   78 ..............................
........................................................................

 iter      E             dE          RMSdq      gap      omega  full diag
   1   -398.6454221 -0.398645E+03  0.333E-01    0.02       0.0  T
   2   -397.9295034  0.715919E+00  0.130E+00    0.26       1.0  T
   3   -398.5190743 -0.589571E+00  0.679E-01    0.14       1.0  T
   4   -398.4483275  0.707469E-01  0.836E-01    0.07       1.0  T
   5   -398.6389838 -0.190656E+00  0.321E-01    0.00       1.0  T
   6   -398.5882054  0.507784E-01  0.498E-01    0.09       1.0  T
   7   -398.5737959  0.144095E-01  0.523E-01    0.11       1.0  T
   8   -398.6220286 -0.482327E-01  0.367E-01    0.06       1.0  T
   9   -398.6671922 -0.451636E-01  0.836E-02    0.01       1.0  T
  10   -398.6667930  0.399216E-03  0.849E-02    0.01       1.0  T
  11   -398.6685201 -0.172719E-02  0.385E-02    0.01       1.0  T
  12   -398.6684966  0.235918E-04  0.381E-02    0.01       1.0  T
  13   -398.6667923  0.170424E-02  0.822E-02    0.02       1.0  T
  14   -398.6688773 -0.208497E-02  0.124E-02    0.01       1.0  T
  15   -398.6687982  0.790423E-04  0.197E-02    0.01       1.0  T
  16   -398.6688289 -0.306391E-04  0.174E-02    0.01       1.0  T
  17   -398.6689251 -0.962458E-04  0.195E-03    0.01       3.3  T
  18   -398.6689262 -0.106434E-05  0.509E-04    0.01      12.6  T
  19   -398.6689198  0.644484E-05  0.456E-03    0.01       1.4  T
  20   -398.6689261 -0.629922E-05  0.831E-04    0.01       7.7  T
  21   -398.6689261 -0.636677E-07  0.702E-04    0.01       9.2  T
  22   -398.6689263 -0.149227E-06  0.143E-04    0.01      45.1  T
     SCC iter.                  ...        0 min,  2.142 sec
     gradient                   ...        0 min,  0.583 sec
 * total energy  :  -388.5369020 Eh     change       -0.8493194E-01 Eh
   gradient norm :     0.0300657 Eh/α   predicted    -0.2006678E-02 ( -97.64%)
   displ. norm   :     0.0814391 α      lambda       -0.6606831E-03
   maximum displ.:     0.0523380 α      in ANC's #77, #42, #46, ...

........................................................................
.............................. CYCLE   79 ..............................
........................................................................

 iter      E             dE          RMSdq      gap      omega  full diag
   1   -398.6771417 -0.398677E+03  0.111E-01    0.01       0.0  T
   2   -398.4654092  0.211733E+00  0.742E-01    0.20       1.0  T
   3   -398.6774732 -0.212064E+00  0.853E-02    0.02       1.0  T
   4   -398.6594937  0.179795E-01  0.249E-01    0.03       1.0  T
   5   -398.6760619 -0.165683E-01  0.100E-01    0.02       1.0  T
   6   -398.6766188 -0.556871E-03  0.938E-02    0.02       1.0  T
   7   -398.6779053 -0.128652E-02  0.673E-02    0.02       1.0  T
   8   -398.6783433 -0.437974E-03  0.604E-02    0.01       1.0  T
   9   -398.6792869 -0.943538E-03  0.248E-02    0.01       1.0  T
  10   -398.6794076 -0.120791E-03  0.152E-02    0.01       1.0  T
  11   -398.6794697 -0.620523E-04  0.597E-03    0.01       1.1  T
  12   -398.6794804 -0.107489E-04  0.162E-03    0.01       4.0  T
  13   -398.6794810 -0.596424E-06  0.684E-04    0.01       9.4  T
  14   -398.6794791  0.196975E-05  0.255E-03    0.01       2.5  T
  15   -398.6794811 -0.205576E-05  0.256E-04    0.01      25.1  T
  16   -398.6794810  0.139551E-06  0.706E-04    0.01       9.1  T
     SCC iter.                  ...        0 min,  1.581 sec
     gradient                   ...        0 min,  0.588 sec
 * total energy  :  -388.5822465 Eh     change       -0.4534457E-01 Eh
   gradient norm :     0.0226055 Eh/α   predicted    -0.3325618E-03 ( -99.27%)
   displ. norm   :     0.1106423 α      lambda       -0.6740261E-03
   maximum displ.:     0.0762392 α      in ANC's #77, #22, #46, ...

........................................................................
.............................. CYCLE   80 ..............................
........................................................................

 iter      E             dE          RMSdq      gap      omega  full diag
   1   -398.6872056 -0.398687E+03  0.140E-01    0.01       0.0  T
   2   -398.4609355  0.226270E+00  0.761E-01    0.20       1.0  T
   3   -398.6799995 -0.219064E+00  0.178E-01    0.01       1.0  T
   4   -398.6591935  0.208060E-01  0.309E-01    0.04       1.0  T
   5   -398.6782119 -0.190183E-01  0.196E-01    0.03       1.0  T
   6   -398.6814487 -0.323687E-02  0.166E-01    0.03       1.0  T
   7   -398.6833610 -0.191226E-02  0.142E-01    0.02       1.0  T
   8   -398.6886416 -0.528060E-02  0.661E-02    0.01       1.0  T
   9   -398.6886304  0.112115E-04  0.670E-02    0.02       1.0  T
  10   -398.6901586 -0.152826E-02  0.551E-03    0.01       1.2  T
  11   -398.6901613 -0.271536E-05  0.396E-03    0.01       1.6  T
  12   -398.6901655 -0.419712E-05  0.145E-03    0.01       4.4  T
  13   -398.6901652  0.327098E-06  0.144E-03    0.01       4.5  T
  14   -398.6901639  0.130249E-05  0.252E-03    0.01       2.5  T
  15   -398.6901659 -0.200354E-05  0.299E-04    0.01      21.5  T
  16   -398.6901658  0.128625E-06  0.688E-04    0.01       9.3  T
  17   -398.6901659 -0.154427E-06  0.969E-05    0.01      66.3  T
     SCC iter.                  ...        0 min,  1.637 sec
     gradient                   ...        0 min,  0.579 sec
 * total energy  :  -388.6667565 Eh     change       -0.8450994E-01 Eh
   gradient norm :     0.0185002 Eh/α   predicted    -0.3411762E-03 ( -99.60%)
   displ. norm   :     0.1388784 α      lambda       -0.4285523E-03
   maximum displ.:     0.0975354 α      in ANC's #77, #46, #22, ...

........................................................................
.............................. CYCLE   81 ..............................
........................................................................

 iter      E             dE          RMSdq      gap      omega  full diag
   1   -398.6946288 -0.398695E+03  0.175E-01    0.01       0.0  T
   2   -398.4212460  0.273383E+00  0.830E-01    0.21       1.0  T
   3   -398.6918988 -0.270653E+00  0.163E-01    0.02       1.0  T
   4   -398.6069285  0.849703E-01  0.537E-01    0.07       1.0  T
   5   -398.6932495 -0.863210E-01  0.148E-01    0.01       1.0  T
   6   -398.6807723  0.124772E-01  0.240E-01    0.04       1.0  T
   7   -398.6936030 -0.128307E-01  0.137E-01    0.02       1.0  T
   8   -398.6955226 -0.191958E-02  0.112E-01    0.02       1.0  T
   9   -398.6994859 -0.396330E-02  0.288E-02    0.01       1.0  T
  10   -398.6996478 -0.161916E-03  0.160E-02    0.01       1.0  T
  11   -398.6996979 -0.501327E-04  0.986E-03    0.01       1.0  T
  12   -398.6997243 -0.263408E-04  0.521E-03    0.01       1.2  T
  13   -398.6997313 -0.705120E-05  0.169E-03    0.01       3.8  T
  14   -398.6997265  0.478487E-05  0.413E-03    0.01       1.6  T
  15   -398.6997321 -0.552442E-05  0.314E-04    0.01      20.5  T
  16   -398.6997321 -0.516900E-08  0.268E-04    0.01      24.0  T
  17   -398.6997321 -0.945136E-09  0.262E-04    0.01      24.6  T
     SCC iter.                  ...        0 min,  1.640 sec
     gradient                   ...        0 min,  0.580 sec
 * total energy  :  -388.7984431 Eh     change       -0.1316866E+00 Eh
   gradient norm :     0.0228767 Eh/α   predicted    -0.2185333E-03 ( -99.83%)
   displ. norm   :     0.4015672 α      lambda       -0.1129096E-02
   maximum displ.:     0.2849468 α      in ANC's #77, #46, #22, ...

........................................................................
.............................. CYCLE   82 ..............................
........................................................................

 iter      E             dE          RMSdq      gap      omega  full diag
   1   -398.6511597 -0.398651E+03  0.463E-01    0.03       0.0  T
   2   -397.1892743  0.146189E+01  0.166E+00    0.17       1.0  T
   3   -398.6157374 -0.142646E+01  0.541E-01    0.05       1.0  T
   4   -398.2890544  0.326683E+00  0.113E+00    0.10       1.0  T
   5   -398.6018118 -0.312757E+00  0.435E-01    0.11       1.0  T
   6   -398.5609389  0.408729E-01  0.657E-01    0.10       1.0  T
   7   -398.5778106 -0.168718E-01  0.601E-01    0.10       1.0  T
   8   -398.6563178 -0.785072E-01  0.359E-01    0.04       1.0  T
   9   -398.6791930 -0.228751E-01  0.241E-01    0.02       1.0  T
  10   -398.6721993  0.699368E-02  0.278E-01    0.03       1.0  T
  11   -398.6825421 -0.103428E-01  0.204E-01    0.02       1.0  T
  12   -398.6966423 -0.141002E-01  0.538E-02    0.01       1.0  T
  13   -398.6953248  0.131750E-02  0.729E-02    0.01       1.0  T
  14   -398.6970577 -0.173291E-02  0.396E-02    0.01       1.0  T
  15   -398.6930202  0.403756E-02  0.119E-01    0.02       1.0  T
  16   -398.6955877 -0.256752E-02  0.759E-02    0.02       1.0  T
  17   -398.6973337 -0.174604E-02  0.119E-02    0.01       1.0  T
  18   -398.6973485 -0.148141E-04  0.787E-03    0.01       1.0  T
  19   -398.6973562 -0.767950E-05  0.466E-03    0.01       1.4  T
  20   -398.6973625 -0.624386E-05  0.218E-03    0.01       3.0  T
  21   -398.6973637 -0.122501E-05  0.282E-04    0.01      22.8  T
  22   -398.6973637  0.106317E-07  0.308E-04    0.01      20.9  T
  23   -398.6973636  0.552495E-07  0.532E-04    0.01      12.1  T
     SCC iter.                  ...        0 min,  2.246 sec
     gradient                   ...        0 min,  0.588 sec
 * total energy  :  -389.1810400 Eh     change       -0.3825970E+00 Eh
   gradient norm :     0.0368395 Eh/α   predicted    -0.6560341E-03 ( -99.83%)
   displ. norm   :     0.4068392 α      lambda       -0.1408859E-02
   maximum displ.:     0.2844253 α      in ANC's #77, #46, #22, ...

........................................................................
.............................. CYCLE   83 ..............................
........................................................................

 iter      E             dE          RMSdq      gap      omega  full diag
   1   -398.6146981 -0.398615E+03  0.385E-01    0.03       0.0  T
   2   -397.1981682  0.141653E+01  0.164E+00    0.23       1.0  T
   3   -398.6208208 -0.142265E+01  0.350E-01    0.03       1.0  T
   4   -398.3182316  0.302589E+00  0.101E+00    0.10       1.0  T
   5   -398.5726783 -0.254447E+00  0.432E-01    0.10       1.0  T
   6   -398.6116371 -0.389588E-01  0.380E-01    0.03       1.0  T
   7   -398.6190480 -0.741094E-02  0.332E-01    0.04       1.0  T
   8   -398.6013174  0.177306E-01  0.383E-01    0.04       1.0  T
   9   -398.6499981 -0.486807E-01  0.122E-01    0.02       1.0  T
  10   -398.6516473 -0.164923E-02  0.890E-02    0.01       1.0  T
  11   -398.6338997  0.177476E-01  0.235E-01    0.02       1.0  T
  12   -398.6499761 -0.160764E-01  0.109E-01    0.02       1.0  T
  13   -398.6533129 -0.333678E-02  0.261E-02    0.01       1.0  T
  14   -398.6529129  0.399946E-03  0.453E-02    0.01       1.0  T
  15   -398.6523972  0.515750E-03  0.592E-02    0.01       1.0  T
  16   -398.6520814  0.315732E-03  0.653E-02    0.01       1.0  T
  17   -398.6531285 -0.104710E-02  0.321E-02    0.01       1.0  T
  18   -398.6534456 -0.317088E-03  0.439E-03    0.01       1.5  T
  19   -398.6534151  0.305574E-04  0.107E-02    0.01       1.0  T
  20   -398.6534498 -0.347875E-04  0.981E-04    0.01       6.6  T
  21   -398.6534493  0.537962E-06  0.161E-03    0.01       4.0  T
  22   -398.6534498 -0.490435E-06  0.101E-03    0.01       6.4  T
  23   -398.6534500 -0.190101E-06  0.542E-04    0.01      11.9  T
  24   -398.6534501 -0.791110E-07  0.196E-04    0.01      32.9  T
     SCC iter.                  ...        0 min,  2.368 sec
     gradient                   ...        0 min,  0.591 sec
 * total energy  :  -389.3631736 Eh     change       -0.1821336E+00 Eh
   gradient norm :     0.0512834 Eh/α   predicted    -0.8210443E-03 ( -99.55%)
   displ. norm   :     0.5100953 α      lambda       -0.2783482E-02
   maximum displ.:     0.3512419 α      in ANC's #77, #46, #22, ...

........................................................................
.............................. CYCLE   84 ..............................
........................................................................

 iter      E             dE          RMSdq      gap      omega  full diag
   1   -398.5433683 -0.398543E+03  0.363E-01    0.03       0.0  T
   2   -397.3147908  0.122858E+01  0.158E+00    0.12       1.0  T
   3   -398.2033846 -0.888594E+00  0.108E+00    0.05       1.0  T
   4   -398.3790966 -0.175712E+00  0.710E-01    0.02       1.0  T
   5   -398.4291305 -0.500339E-01  0.655E-01    0.06       1.0  T
   6   -398.3605431  0.685875E-01  0.777E-01    0.12       1.0  T
   7   -398.5490413 -0.188498E+00  0.213E-01    0.05       1.0  T
   8   -398.4886222  0.604191E-01  0.494E-01    0.05       1.0  T
   9   -398.5030102 -0.143880E-01  0.441E-01    0.05       1.0  T
  10   -398.5406925 -0.376823E-01  0.284E-01    0.02       1.0  T
  11   -398.4236292  0.117063E+00  0.661E-01    0.02       1.0  T
  12   -398.5647496 -0.141120E+00  0.803E-02    0.02       1.0  T
  13   -398.5663947 -0.164512E-02  0.525E-02    0.01       1.0  T
  14   -398.5668302 -0.435526E-03  0.237E-02    0.02       1.0  T
  15   -398.5649136  0.191665E-02  0.808E-02    0.01       1.0  T
  16   -398.5668220 -0.190837E-02  0.228E-02    0.01       1.0  T
  17   -398.5669418 -0.119815E-03  0.851E-03    0.01       1.0  T
  18   -398.5668908  0.510052E-04  0.139E-02    0.01       1.0  T
  19   -398.5669539 -0.631680E-04  0.359E-03    0.01       1.8  T
  20   -398.5669550 -0.107872E-05  0.244E-03    0.01       2.6  T
  21   -398.5669529  0.213467E-05  0.315E-03    0.01       2.0  T
  22   -398.5669551 -0.227277E-05  0.169E-03    0.01       3.8  T
  23   -398.5669560 -0.842102E-06  0.575E-04    0.01      11.2  T
  24   -398.5669561 -0.612541E-07  0.439E-04    0.01      14.7  T
     SCC iter.                  ...        0 min,  2.402 sec
     gradient                   ...        0 min,  0.595 sec
 * total energy  :  -389.2411153 Eh     change        0.1220583E+00 Eh
   gradient norm :     0.0739018 Eh/α   predicted    -0.1753934E-02 (-101.44%)
   displ. norm   :     0.5734980 α      lambda       -0.5401093E-02
   maximum displ.:     0.3883215 α      in ANC's #77, #46, #22, ...

........................................................................
.............................. CYCLE   85 ..............................
........................................................................

 iter      E             dE          RMSdq      gap      omega  full diag
   1   -398.4393036 -0.398439E+03  0.514E-01    0.02       0.0  T
   2   -397.0292092  0.141009E+01  0.176E+00    0.07       1.0  T
   3   -398.2311603 -0.120195E+01  0.828E-01    0.11       1.0  T
   4   -398.0658750  0.165285E+00  0.104E+00    0.24       1.0  T
   5   -398.0778671 -0.119921E-01  0.110E+00    0.04       1.0  T
   6   -398.4386162 -0.360749E+00  0.367E-01    0.01       1.0  T
   7   -398.4476046 -0.898839E-02  0.265E-01    0.06       1.0  T
   8   -398.4183937  0.292108E-01  0.405E-01    0.03       1.0  T
   9   -398.4290692 -0.106755E-01  0.327E-01    0.04       1.0  T
  10   -398.4639451 -0.348759E-01  0.158E-01    0.03       1.0  T
  11   -398.4662039 -0.225884E-02  0.139E-01    0.03       1.0  T
  12   -398.4728922 -0.668831E-02  0.786E-02    0.01       1.0  T
  13   -398.4514511  0.214411E-01  0.255E-01    0.02       1.0  T
  14   -398.4724236 -0.209725E-01  0.778E-02    0.01       1.0  T
  15   -398.4726724 -0.248748E-03  0.627E-02    0.02       1.0  T
  16   -398.4724254  0.246979E-03  0.704E-02    0.02       1.0  T
  17   -398.4732784 -0.852951E-03  0.514E-02    0.02       1.0  T
  18   -398.4739462 -0.667816E-03  0.300E-02    0.02       1.0  T
  19   -398.4742372 -0.291041E-03  0.101E-02    0.02       1.0  T
  20   -398.4742697 -0.325087E-04  0.341E-03    0.02       1.9  T
  21   -398.4742731 -0.334238E-05  0.169E-03    0.02       3.8  T
  22   -398.4742739 -0.844422E-06  0.581E-04    0.02      11.1  T
  23   -398.4742739 -0.186250E-07  0.244E-04    0.02      26.3  T
     SCC iter.                  ...        0 min,  2.333 sec
     gradient                   ...        0 min,  0.589 sec
 * total energy  :  -388.7392214 Eh     change        0.5018939E+00 Eh
   gradient norm :     0.1045895 Eh/α   predicted    -0.3588752E-02 (-100.72%)
   displ. norm   :     0.5075694 α      lambda       -0.8120749E-02
   maximum displ.:     0.3325404 α      in ANC's #77, #46, #22, ...

........................................................................
.............................. CYCLE   86 ..............................
........................................................................

 iter      E             dE          RMSdq      gap      omega  full diag
   1   -398.3972640 -0.398397E+03  0.523E-01    0.03       0.0  T
   2   -396.5156212  0.188164E+01  0.188E+00    0.04       1.0  T
   3   -398.2085706 -0.169295E+01  0.794E-01    0.10       1.0  T
   4   -397.8901143  0.318456E+00  0.120E+00    0.26       1.0  T
   5   -397.7945262  0.955881E-01  0.124E+00    0.04       1.0  T
   6   -398.3814761 -0.586950E+00  0.453E-01    0.03       1.0  T
   7   -398.2709479  0.110528E+00  0.666E-01    0.03       1.0  T
   8   -398.3945352 -0.123587E+00  0.288E-01    0.07       1.0  T
   9   -398.4057414 -0.112062E-01  0.228E-01    0.04       1.0  T
  10   -398.4113793 -0.563790E-02  0.198E-01    0.04       1.0  T
  11   -398.4127905 -0.141118E-02  0.191E-01    0.04       1.0  T
  12   -398.4127049  0.855623E-04  0.200E-01    0.02       1.0  T
  13   -398.4100727  0.263218E-02  0.211E-01    0.01       1.0  T
  14   -398.4169244 -0.685167E-02  0.138E-01    0.02       1.0  T
  15   -398.4056900  0.112344E-01  0.238E-01    0.04       1.0  T
  16   -398.3825840  0.231061E-01  0.357E-01    0.04       1.0  T
  17   -398.3993143 -0.167303E-01  0.267E-01    0.04       1.0  T
  18   -398.4218459 -0.225316E-01  0.179E-02    0.02       1.0  T
  19   -398.4177553  0.409060E-02  0.116E-01    0.01       1.0  T
  20   -398.4209646 -0.320930E-02  0.579E-02    0.01       1.0  T
  21   -398.4218227 -0.858110E-03  0.161E-02    0.02       1.0  T
  22   -398.4218105  0.122173E-04  0.175E-02    0.02       1.0  T
  23   -398.4217648  0.457032E-04  0.201E-02    0.02       1.0  T
  24   -398.4218941 -0.129381E-03  0.329E-03    0.02       2.0  T
  25   -398.4218554  0.386876E-04  0.114E-02    0.02       1.0  T
  26   -398.4218858 -0.303384E-04  0.548E-03    0.02       1.2  T
  27   -398.4218947 -0.891974E-05  0.181E-03    0.02       3.5  T
  28   -398.4218948 -0.128354E-06  0.168E-03    0.02       3.8  T
  29   -398.4218957 -0.901996E-06  0.670E-05    0.02      96.0  T
  30   -398.4218957 -0.575824E-09  0.552E-05    0.02     116.4  T
     SCC iter.                  ...        0 min,  3.044 sec
     gradient                   ...        0 min,  0.610 sec
 * total energy  :  -388.2382558 Eh     change        0.5009656E+00 Eh
   gradient norm :     0.1124216 Eh/α   predicted    -0.5106406E-02 (-101.02%)
   displ. norm   :     0.4632428 α      lambda       -0.8700591E-02
   maximum displ.:     0.2985719 α      in ANC's #77, #46, #22, ...

........................................................................
.............................. CYCLE   87 ..............................
........................................................................

 iter      E             dE          RMSdq      gap      omega  full diag
   1   -398.3929570 -0.398393E+03  0.525E-01    0.02       0.0  T
   2   -398.2313921  0.161565E+00  0.742E-01    0.05       1.0  T
   3   -397.5257460  0.705646E+00  0.140E+00    0.15       1.0  T
   4   -397.8199978 -0.294252E+00  0.128E+00    0.03       1.0  T
   5   -398.3330965 -0.513099E+00  0.498E-01    0.10       1.0  T
   6   -398.1955571  0.137539E+00  0.785E-01    0.04       1.0  T
   7   -398.3001374 -0.104580E+00  0.571E-01    0.04       1.0  T
   8   -398.2505128  0.496246E-01  0.663E-01    0.06       1.0  T
   9   -398.3171899 -0.666771E-01  0.492E-01    0.03       1.0  T
  10   -398.3948151 -0.776252E-01  0.577E-02    0.02       1.0  T
  11   -398.3947677  0.474011E-04  0.567E-02    0.02       1.0  T
  12   -398.3952059 -0.438234E-03  0.392E-02    0.02       1.0  T
  13   -398.3952906 -0.846621E-04  0.339E-02    0.02       1.0  T
  14   -398.3951214  0.169206E-03  0.379E-02    0.03       1.0  T
  15   -398.3955583 -0.436982E-03  0.100E-02    0.02       1.0  T
  16   -398.3955022  0.561574E-04  0.164E-02    0.02       1.0  T
  17   -398.3954567  0.454936E-04  0.204E-02    0.02       1.0  T
  18   -398.3955284 -0.717540E-04  0.138E-02    0.02       1.0  T
  19   -398.3955798 -0.513546E-04  0.504E-03    0.02       1.3  T
  20   -398.3955876 -0.776639E-05  0.127E-03    0.02       5.0  T
  21   -398.3955865  0.110685E-05  0.232E-03    0.02       2.8  T
  22   -398.3955879 -0.146295E-05  0.832E-04    0.02       7.7  T
  23   -398.3955881 -0.213392E-06  0.135E-04    0.02      47.5  T
  24   -398.3955879  0.247309E-06  0.895E-04    0.02       7.2  T
     SCC iter.                  ...        0 min,  2.449 sec
     gradient                   ...        0 min,  0.614 sec
 * total energy  :  -388.2551489 Eh     change       -0.1689313E-01 Eh
   gradient norm :     0.1060346 Eh/α   predicted    -0.5283914E-02 ( -68.72%)
   displ. norm   :     0.4606450 α      lambda       -0.3496240E-01
   maximum displ.:     0.2846900 α      in ANC's #46, #59, #36, ...

........................................................................
.............................. CYCLE   88 ..............................
........................................................................

 iter      E             dE          RMSdq      gap      omega  full diag
   1   -398.3822118 -0.398382E+03  0.551E-01    0.01       0.0  T
   2   -396.7603506  0.162186E+01  0.219E+00    0.13       1.0  T
   3   -397.9664770 -0.120613E+01  0.110E+00    0.22       1.0  T
   4   -396.8506665  0.111581E+01  0.182E+00    0.07       1.0  T
   5   -398.2341980 -0.138353E+01  0.699E-01    0.02       1.0  T
   6   -398.3332066 -0.990086E-01  0.539E-01    0.03       1.0  T
   7   -398.3682945 -0.350879E-01  0.433E-01    0.02       1.0  T
   8   -398.4048846 -0.365901E-01  0.238E-01    0.01       1.0  T
   9   -398.3072275  0.976571E-01  0.608E-01    0.05       1.0  T
  10   -398.3381445 -0.309170E-01  0.516E-01    0.04       1.0  T
  11   -398.3335079  0.463658E-02  0.523E-01    0.04       1.0  T
  12   -398.3225887  0.109192E-01  0.548E-01    0.03       1.0  T
  13   -398.3358546 -0.132659E-01  0.508E-01    0.04       1.0  T
  14   -398.3828157 -0.469611E-01  0.333E-01    0.03       1.0  T
  15   -398.4052500 -0.224343E-01  0.203E-01    0.03       1.0  T
  16   -398.4180652 -0.128152E-01  0.379E-02    0.02       1.0  T
  17   -398.4154948  0.257042E-02  0.971E-02    0.03       1.0  T
  18   -398.4181220 -0.262722E-02  0.264E-02    0.02       1.0  T
  19   -398.4180684  0.536432E-04  0.236E-02    0.02       1.0  T
  20   -398.4174699  0.598457E-03  0.475E-02    0.02       1.0  T
  21   -398.4177280 -0.258114E-03  0.389E-02    0.02       1.0  T
  22   -398.4179095 -0.181483E-03  0.316E-02    0.02       1.0  T
  23   -398.4180504 -0.140893E-03  0.242E-02    0.02       1.0  T
  24   -398.4180807 -0.303309E-04  0.222E-02    0.02       1.0  T
  25   -398.4181409 -0.601960E-04  0.177E-02    0.02       1.0  T
  26   -398.4182342 -0.932946E-04  0.667E-03    0.02       1.0  T
  27   -398.4182487 -0.144354E-04  0.171E-03    0.02       3.8  T
  28   -398.4182490 -0.303572E-06  0.144E-03    0.02       4.5  T
  29   -398.4182496 -0.664047E-06  0.410E-04    0.02      15.7  T
  30   -398.4182497 -0.242879E-07  0.309E-04    0.02      20.8  T
     SCC iter.                  ...        0 min,  3.081 sec
     gradient                   ...        0 min,  0.611 sec
 * total energy  :  -388.4117569 Eh     change       -0.1566080E+00 Eh
   gradient norm :     0.0797858 Eh/α   predicted    -0.2119053E-01 ( -86.47%)
   displ. norm   :     0.6630933 α      lambda       -0.1934382E-01
   maximum displ.:     0.4675174 α      in ANC's #77, #22, #46, ...

........................................................................
.............................. CYCLE   89 ..............................
........................................................................

 iter      E             dE          RMSdq      gap      omega  full diag
   1   -398.1695661 -0.398170E+03  0.998E-01    0.12       0.0  T
   2   -393.9450812  0.422448E+01  0.371E+00    0.20       1.0  T
   3   -396.6987677 -0.275369E+01  0.222E+00    0.04       1.0  T
   4   -397.6990026 -0.100023E+01  0.145E+00    0.04       1.0  T
   5   -397.8614174 -0.162415E+00  0.123E+00    0.22       1.0  T
   6   -397.9298782 -0.684609E-01  0.109E+00    0.24       1.0  T
   7   -398.2547299 -0.324852E+00  0.695E-01    0.04       1.0  T
   8   -398.3948050 -0.140075E+00  0.374E-01    0.07       1.0  T
   9   -398.3915124  0.329259E-02  0.381E-01    0.04       1.0  T
  10   -398.2966495  0.948629E-01  0.609E-01    0.05       1.0  T
  11   -398.3367145 -0.400650E-01  0.526E-01    0.05       1.0  T
  12   -398.2188791  0.117835E+00  0.705E-01    0.03       1.0  T
  13   -398.3858687 -0.166990E+00  0.329E-01    0.03       1.0  T
  14   -398.3414915  0.443772E-01  0.444E-01    0.03       1.0  T
  15   -398.3237715  0.177200E-01  0.479E-01    0.02       1.0  T
  16   -398.3688611 -0.450896E-01  0.353E-01    0.03       1.0  T
  17   -398.3946604 -0.257993E-01  0.199E-01    0.02       1.0  T
  18   -398.4008404 -0.617996E-02  0.139E-01    0.02       1.0  T
  19   -398.3968718  0.396857E-02  0.165E-01    0.03       1.0  T
  20   -398.3991220 -0.225023E-02  0.144E-01    0.03       1.0  T
  21   -398.4048624 -0.574036E-02  0.596E-02    0.02       1.0  T
  22   -398.4043489  0.513453E-03  0.571E-02    0.01       1.0  T
  23   -398.4054624 -0.111348E-02  0.289E-02    0.02       1.0  T
  24   -398.4055462 -0.837647E-04  0.282E-02    0.02       1.0  T
  25   -398.4056367 -0.904977E-04  0.159E-02    0.02       1.0  T
  26   -398.4057214 -0.847065E-04  0.705E-03    0.02       1.0  T
  27   -398.4057263 -0.489515E-05  0.647E-03    0.02       1.0  T
  28   -398.4057259  0.367780E-06  0.524E-03    0.02       1.2  T
  29   -398.4057207  0.519707E-05  0.598E-03    0.02       1.1  T
  30   -398.4057311 -0.103638E-04  0.122E-03    0.02       5.3  T
  31   -398.4057300  0.102982E-05  0.208E-03    0.02       3.1  T
  32   -398.4057297  0.304107E-06  0.188E-03    0.02       3.4  T
  33   -398.4057306 -0.831427E-06  0.131E-03    0.02       4.9  T
  34   -398.4057309 -0.307776E-06  0.101E-03    0.02       6.3  T
  35   -398.4057312 -0.361257E-06  0.481E-04    0.02      13.4  T
  36   -398.4057313 -0.575736E-07  0.257E-04    0.02      25.0  T
     SCC iter.                  ...        0 min,  3.741 sec
     gradient                   ...        0 min,  0.596 sec
 * total energy  :  -389.0277985 Eh     change       -0.6160415E+00 Eh
   gradient norm :     0.0496146 Eh/α   predicted    -0.1392488E-01 ( -97.74%)
   displ. norm   :     0.7446459 α      lambda       -0.8467555E-02
   maximum displ.:     0.4957331 α      in ANC's #77, #46, #22, ...

........................................................................
.............................. CYCLE   90 ..............................
........................................................................

 iter      E             dE          RMSdq      gap      omega  full diag
   1   -398.0277869 -0.398028E+03  0.107E+00    0.16       0.0  T
   2   -393.0237285  0.500406E+01  0.397E+00    0.09       1.0  T
   3   -396.5594809 -0.353575E+01  0.236E+00    0.07       1.0  T
   4   -397.7889309 -0.122945E+01  0.130E+00    0.06       1.0  T
   5   -397.5862174  0.202714E+00  0.137E+00    0.27       1.0  T
   6   -397.9811365 -0.394919E+00  0.956E-01    0.21       1.0  T
   7   -397.5135543  0.467582E+00  0.149E+00    0.13       1.0  T
   8   -398.1772196 -0.663665E+00  0.720E-01    0.09       1.0  T
   9   -398.3137972 -0.136578E+00  0.617E-01    0.04       1.0  T
  10   -398.0251129  0.288684E+00  0.102E+00    0.01       1.0  T
  11   -398.0501461 -0.250332E-01  0.995E-01    0.01       1.0  T
  12   -398.0466726  0.347346E-02  0.998E-01    0.01       1.0  T
  13   -398.0691898 -0.225171E-01  0.940E-01    0.01       1.0  T
  14   -398.0665071  0.268270E-02  0.939E-01    0.01       1.0  T
  15   -398.3947556 -0.328249E+00  0.342E-01    0.01       1.0  T
  16   -398.2100791  0.184676E+00  0.611E-01    0.08       1.0  T
  17   -397.7237785  0.486301E+00  0.140E+00    0.10       1.0  T
  18   -397.9065743 -0.182796E+00  0.112E+00    0.06       1.0  T
  19   -398.3140586 -0.407484E+00  0.450E-01    0.03       1.0  T
  20   -398.4151384 -0.101080E+00  0.178E-01    0.03       1.0  T
  21   -398.4180455 -0.290708E-02  0.958E-02    0.02       1.0  T
  22   -398.3751260  0.429195E-01  0.303E-01    0.01       1.0  T
  23   -398.3999648 -0.248388E-01  0.201E-01    0.03       1.0  T
  24   -398.4022096 -0.224482E-02  0.197E-01    0.03       1.0  T
  25   -398.4152550 -0.130454E-01  0.101E-01    0.02       1.0  T
  26   -398.4199354 -0.468044E-02  0.240E-02    0.02       1.0  T
  27   -398.4199872 -0.517136E-04  0.124E-02    0.02       1.0  T
  28   -398.4200291 -0.419804E-04  0.706E-03    0.02       1.0  T
  29   -398.4200277  0.146329E-05  0.498E-03    0.02       1.3  T
  30   -398.4198958  0.131916E-03  0.172E-02    0.02       1.0  T
  31   -398.4200315 -0.135750E-03  0.404E-03    0.02       1.6  T
  32   -398.4199488  0.826960E-04  0.131E-02    0.02       1.0  T
  33   -398.4199972 -0.483853E-04  0.876E-03    0.02       1.0  T
  34   -398.4200197 -0.224532E-04  0.603E-03    0.02       1.1  T
  35   -398.4200226 -0.294229E-05  0.554E-03    0.02       1.2  T
  36   -398.4200331 -0.105321E-04  0.295E-03    0.02       2.2  T
  37   -398.4200359 -0.281322E-05  0.109E-03    0.02       5.9  T
  38   -398.4200361 -0.131446E-06  0.754E-04    0.02       8.5  T
  39   -398.4200360  0.644752E-07  0.780E-04    0.02       8.2  T
     SCC iter.                  ...        0 min,  4.076 sec
     gradient                   ...        0 min,  0.616 sec
 * total energy  :  -389.2138463 Eh     change       -0.1860479E+00 Eh
   gradient norm :     0.0912667 Eh/α   predicted    -0.6581388E-02 ( -96.46%)
   displ. norm   :     0.6330834 α      lambda       -0.1078687E-01
   maximum displ.:     0.4591781 α      in ANC's #77, #46, #22, ...

........................................................................
.............................. CYCLE   91 ..............................
........................................................................

 iter      E             dE          RMSdq      gap      omega  full diag
   1   -397.9706276 -0.397971E+03  0.102E+00    0.11       0.0  T
   2   -392.1988129  0.577181E+01  0.416E+00    0.06       1.0  T
   3   -396.2086745 -0.400986E+01  0.250E+00    0.08       1.0  T
   4   -397.2997482 -0.109107E+01  0.158E+00    0.37       1.0  T
   5   -398.2867807 -0.987033E+00  0.640E-01    0.06       1.0  T
   6   -397.8426384  0.444142E+00  0.111E+00    0.13       1.0  T
   7   -398.2491529 -0.406515E+00  0.589E-01    0.01       1.0  T
   8   -398.2455125  0.364042E-02  0.580E-01    0.01       1.0  T
   9   -398.2540110 -0.849851E-02  0.538E-01    0.05       1.0  T
  10   -398.1442913  0.109720E+00  0.737E-01    0.01       1.0  T
  11   -398.3991768 -0.254885E+00  0.196E-01    0.01       1.0  T
  12   -398.2085856  0.190591E+00  0.643E-01    0.01       1.0  T
  13   -398.4114333 -0.202848E+00  0.104E-01    0.01       1.0  T
  14   -398.3985019  0.129314E-01  0.182E-01    0.03       1.0  T
  15   -398.4156805 -0.171786E-01  0.173E-02    0.02       1.0  T
  16   -398.4021002  0.135803E-01  0.157E-01    0.01       1.0  T
  17   -398.4155494 -0.134492E-01  0.187E-02    0.01       1.0  T
  18   -398.4153631  0.186221E-03  0.264E-02    0.01       1.0  T
  19   -398.4139203  0.144282E-02  0.575E-02    0.01       1.0  T
  20   -398.4156343 -0.171399E-02  0.135E-02    0.02       1.0  T
  21   -398.4157303 -0.959955E-04  0.203E-03    0.02       3.2  T
  22   -398.4157153  0.149969E-04  0.553E-03    0.02       1.2  T
  23   -398.4157313 -0.159668E-04  0.102E-03    0.02       6.3  T
  24   -398.4157294  0.182483E-05  0.210E-03    0.02       3.1  T
  25   -398.4157280  0.139977E-05  0.264E-03    0.02       2.4  T
  26   -398.4157295 -0.144486E-05  0.207E-03    0.02       3.1  T
  27   -398.4157314 -0.186437E-05  0.911E-04    0.02       7.1  T
  28   -398.4157318 -0.432734E-06  0.105E-04    0.02      61.0  T
  29   -398.4157318  0.138653E-07  0.186E-04    0.02      34.5  T
     SCC iter.                  ...        0 min,  3.039 sec
     gradient                   ...        0 min,  0.635 sec
 * total energy  :  -389.2150408 Eh     change       -0.1194498E-02 Eh
   gradient norm :     0.1157960 Eh/α   predicted    -0.7555067E-02 ( 532.49%)
   displ. norm   :     0.5067413 α      lambda       -0.1706712E-01
   maximum displ.:     0.4000718 α      in ANC's #77, #46, #65, ...

........................................................................
.............................. CYCLE   92 ..............................
........................................................................

 iter      E             dE          RMSdq      gap      omega  full diag
   1   -398.0541118 -0.398054E+03  0.834E-01    0.07       0.0  T
   2   -394.2473335  0.380678E+01  0.379E+00    0.26       1.0  T
   3   -396.3441192 -0.209679E+01  0.239E+00    0.02       1.0  T
   4   -396.8932414 -0.549122E+00  0.189E+00    0.42       1.0  T
   5   -397.6191318 -0.725890E+00  0.128E+00    0.14       1.0  T
   6   -397.8996680 -0.280536E+00  0.973E-01    0.14       1.0  T
   7   -398.3731791 -0.473511E+00  0.314E-01    0.01       1.0  T
   8   -398.3023595  0.708196E-01  0.469E-01    0.02       1.0  T
   9   -398.2834446  0.189149E-01  0.477E-01    0.01       1.0  T
  10   -398.3959168 -0.112472E+00  0.130E-01    0.01       1.0  T
  11   -398.1852692  0.210648E+00  0.647E-01    0.01       1.0  T
  12   -398.3994119 -0.214143E+00  0.691E-02    0.01       1.0  T
  13   -398.3904139  0.899807E-02  0.144E-01    0.01       1.0  T
  14   -398.4003163 -0.990244E-02  0.523E-02    0.01       1.0  T
  15   -398.3976188  0.269753E-02  0.835E-02    0.01       1.0  T
  16   -398.4001964 -0.257763E-02  0.477E-02    0.01       1.0  T
  17   -398.3941656  0.603079E-02  0.113E-01    0.01       1.0  T
  18   -398.4009553 -0.678968E-02  0.231E-02    0.01       1.0  T
  19   -398.4012350 -0.279694E-03  0.551E-03    0.02       1.2  T
  20   -398.4010744  0.160644E-03  0.178E-02    0.02       1.0  T
  21   -398.4012008 -0.126454E-03  0.933E-03    0.02       1.0  T
  22   -398.4012249 -0.240882E-04  0.649E-03    0.02       1.0  T
  23   -398.4012480 -0.231252E-04  0.763E-04    0.02       8.4  T
  24   -398.4012472  0.822083E-06  0.143E-03    0.02       4.5  T
  25   -398.4012440  0.318343E-05  0.279E-03    0.02       2.3  T
  26   -398.4012482 -0.418894E-05  0.446E-04    0.02      14.4  T
  27   -398.4012483 -0.900288E-07  0.175E-04    0.02      36.8  T
  28   -398.4012470  0.131600E-05  0.155E-03    0.02       4.2  T
  29   -398.4012482 -0.125704E-05  0.354E-04    0.02      18.1  T
  30   -398.4012483 -0.682352E-07  0.541E-05    0.02     118.8  T
     SCC iter.                  ...        0 min,  3.157 sec
     gradient                   ...        0 min,  0.633 sec
 * total energy  :  -389.1938035 Eh     change        0.2123735E-01 Eh
   gradient norm :     0.1199122 Eh/α   predicted    -0.1072487E-01 (-150.50%)
   displ. norm   :     0.4539765 α      lambda       -0.1669922E-01
   maximum displ.:     0.3345470 α      in ANC's #77, #46, #65, ...
 * RMSD in coord.:     0.4981352 α      energy gain   0.1165427E+00 Eh

generating ANC from exact Hessian ...
Using Lindh-Hessian (1995)
 Shifting diagonal of input Hessian by    1.4476471220767794E-002
 Lowest  eigenvalues of input Hessian
    0.010000    0.011132    0.014399    0.014443    0.014448    0.014451
    0.014461    0.000000    0.000000    0.000000    0.000000    0.000000
    0.000000    0.014494    0.014499    0.014517    0.014531    0.014542
 Highest eigenvalues
    2.862617    2.941361    3.486880    3.704608    4.182314    4.929543


........................................................................
.............................. CYCLE   93 ..............................
........................................................................

 iter      E             dE          RMSdq      gap      omega  full diag
   1   -398.2368151 -0.398237E+03  0.566E-01    0.04       0.0  T
   2   -395.6417598  0.259506E+01  0.278E+00    0.03       1.0  T
   3   -396.6096826 -0.967923E+00  0.209E+00    0.34       1.0  T
   4   -397.3737802 -0.764098E+00  0.149E+00    0.20       1.0  T
   5   -396.9772182  0.396562E+00  0.183E+00    0.07       1.0  T
   6   -398.0672363 -0.109002E+01  0.790E-01    0.07       1.0  T
   7   -398.0957137 -0.284774E-01  0.702E-01    0.07       1.0  T
   8   -398.3088031 -0.213089E+00  0.386E-01    0.02       1.0  T
   9   -398.0862358  0.222567E+00  0.763E-01    0.02       1.0  T
  10   -398.2936589 -0.207423E+00  0.408E-01    0.02       1.0  T
  11   -398.2876980  0.596089E-02  0.412E-01    0.02       1.0  T
  12   -398.3741584 -0.864605E-01  0.148E-01    0.02       1.0  T
  13   -398.3843516 -0.101932E-01  0.422E-02    0.02       1.0  T
  14   -398.3841820  0.169627E-03  0.393E-02    0.02       1.0  T
  15   -398.3842826 -0.100614E-03  0.347E-02    0.02       1.0  T
  16   -398.3846917 -0.409138E-03  0.209E-02    0.02       1.0  T
  17   -398.3847867 -0.949349E-04  0.164E-02    0.01       1.0  T
  18   -398.3847988 -0.121662E-04  0.142E-02    0.02       1.0  T
  19   -398.3848713 -0.724163E-04  0.800E-03    0.01       1.0  T
  20   -398.3848980 -0.267286E-04  0.339E-03    0.01       1.9  T
  21   -398.3848898  0.822187E-05  0.481E-03    0.02       1.3  T
  22   -398.3848996 -0.981749E-05  0.196E-03    0.01       3.3  T
  23   -398.3849012 -0.162755E-05  0.553E-04    0.01      11.6  T
  24   -398.3849006  0.622072E-06  0.114E-03    0.01       5.7  T
  25   -398.3849012 -0.659771E-06  0.304E-04    0.01      21.2  T
  26   -398.3849013 -0.342224E-07  0.155E-04    0.01      41.6  T
     SCC iter.                  ...        0 min,  2.790 sec
     gradient                   ...        0 min,  0.621 sec
 * total energy  :  -389.1681762 Eh     change        0.2562729E-01 Eh
   gradient norm :     0.1691517 Eh/α   predicted     0.0000000E+00 (-100.00%)
   displ. norm   :     0.0984599 α      lambda       -0.1632309E-01
   maximum displ.:     0.0718535 α      in ANC's #12, #24, #7, ...

........................................................................
.............................. CYCLE   94 ..............................
........................................................................

 iter      E             dE          RMSdq      gap      omega  full diag
   1   -398.3780791 -0.398378E+03  0.740E-02    0.01       0.0  T
   2   -396.7424617  0.163562E+01  0.199E+00    0.11       1.0  T
   3   -398.3521367 -0.160967E+01  0.228E-01    0.01       1.0  T
   4   -398.3463735  0.576325E-02  0.255E-01    0.02       1.0  T
   5   -398.3549478 -0.857428E-02  0.233E-01    0.01       1.0  T
   6   -398.3495377  0.541005E-02  0.237E-01    0.01       1.0  T
   7   -398.3565268 -0.698906E-02  0.200E-01    0.01       1.0  T
   8   -398.3784032 -0.218764E-01  0.375E-02    0.02       1.0  T
   9   -398.3786282 -0.225092E-03  0.307E-02    0.01       1.0  T
  10   -398.3789886 -0.360380E-03  0.155E-02    0.02       1.0  T
  11   -398.3789479  0.407605E-04  0.169E-02    0.02       1.0  T
  12   -398.3790294 -0.815766E-04  0.110E-02    0.02       1.0  T
  13   -398.3790610 -0.315753E-04  0.710E-03    0.02       1.0  T
  14   -398.3790802 -0.191496E-04  0.364E-03    0.01       1.8  T
  15   -398.3790826 -0.241337E-05  0.225E-03    0.01       2.9  T
  16   -398.3790834 -0.841335E-06  0.137E-03    0.01       4.7  T
  17   -398.3790842 -0.743196E-06  0.607E-04    0.01      10.6  T
  18   -398.3790842 -0.433533E-08  0.501E-04    0.01      12.8  T
     SCC iter.                  ...        0 min,  1.934 sec
     gradient                   ...        0 min,  0.633 sec
 * total energy  :  -389.1835893 Eh     change       -0.1541316E-01 Eh
   gradient norm :     0.0781933 Eh/α   predicted    -0.8351754E-02 ( -45.81%)
   displ. norm   :     0.0858224 α      lambda       -0.6679121E-02
   maximum displ.:     0.0607204 α      in ANC's #12, #24, #7, ...

........................................................................
.............................. CYCLE   95 ..............................
........................................................................

 iter      E             dE          RMSdq      gap      omega  full diag
   1   -398.3699884 -0.398370E+03  0.663E-02    0.01       0.0  T
   2   -396.8824057  0.148758E+01  0.188E+00    0.14       1.0  T
   3   -398.3515049 -0.146910E+01  0.220E-01    0.01       1.0  T
   4   -398.3358785  0.156264E-01  0.273E-01    0.01       1.0  T
   5   -398.2642146  0.716640E-01  0.448E-01    0.01       1.0  T
   6   -398.3638942 -0.996797E-01  0.121E-01    0.01       1.0  T
   7   -398.3644684 -0.574153E-03  0.107E-01    0.01       1.0  T
   8   -398.3702864 -0.581802E-02  0.329E-02    0.02       1.0  T
   9   -398.3707108 -0.424384E-03  0.152E-02    0.01       1.0  T
  10   -398.3706933  0.174609E-04  0.150E-02    0.02       1.0  T
  11   -398.3706690  0.242740E-04  0.157E-02    0.02       1.0  T
  12   -398.3707563 -0.872938E-04  0.906E-03    0.02       1.0  T
  13   -398.3707904 -0.341168E-04  0.346E-03    0.01       1.9  T
  14   -398.3707899  0.541022E-06  0.326E-03    0.01       2.0  T
  15   -398.3707951 -0.518746E-05  0.496E-04    0.01      13.0  T
  16   -398.3707952 -0.596441E-07  0.259E-04    0.01      24.8  T
  17   -398.3707951  0.273640E-07  0.320E-04    0.01      20.1  T
     SCC iter.                  ...        0 min,  1.840 sec
     gradient                   ...        0 min,  0.642 sec
 * total energy  :  -389.1903036 Eh     change       -0.6714293E-02 Eh
   gradient norm :     0.0176902 Eh/α   predicted    -0.3364171E-02 ( -49.90%)
   displ. norm   :     0.0150533 α      lambda       -0.2006184E-03
   maximum displ.:     0.0094775 α      in ANC's #7, #24, #12, ...

........................................................................
.............................. CYCLE   96 ..............................
........................................................................

 iter      E             dE          RMSdq      gap      omega  full diag
   1   -398.3684054 -0.398368E+03  0.165E-02    0.01       0.0  T
   2   -398.1630818  0.205324E+00  0.631E-01    0.01       1.0  T
   3   -398.3468395 -0.183758E+00  0.205E-01    0.01       1.0  T
   4   -398.3681070 -0.212675E-01  0.333E-02    0.01       1.0  T
   5   -398.3681201 -0.131524E-04  0.293E-02    0.01       1.0  T
   6   -398.3675456  0.574531E-03  0.409E-02    0.02       1.0  T
   7   -398.3684010 -0.855397E-03  0.126E-02    0.01       1.0  T
   8   -398.3684460 -0.450068E-04  0.679E-03    0.01       1.0  T
   9   -398.3684586 -0.125698E-04  0.369E-03    0.01       1.7  T
  10   -398.3684653 -0.671003E-05  0.136E-03    0.01       4.7  T
  11   -398.3684661 -0.786131E-06  0.387E-04    0.01      16.6  T
  12   -398.3684659  0.147107E-06  0.619E-04    0.01      10.4  T
     SCC iter.                  ...        0 min,  1.310 sec
     gradient                   ...        0 min,  0.641 sec
 * total energy  :  -389.1917859 Eh     change       -0.1482301E-02 Eh
   gradient norm :     0.0145821 Eh/α   predicted    -0.1175824E-03 ( -92.07%)
   displ. norm   :     0.0233019 α      lambda       -0.2809800E-03
   maximum displ.:     0.0149141 α      in ANC's #7, #24, #77, ...

........................................................................
.............................. CYCLE   97 ..............................
........................................................................

 iter      E             dE          RMSdq      gap      omega  full diag
   1   -398.3643167 -0.398364E+03  0.321E-02    0.01       0.0  T
   2   -397.9692665  0.395050E+00  0.894E-01    0.03       1.0  T
   3   -398.2141105 -0.244844E+00  0.527E-01    0.04       1.0  T
   4   -398.3639216 -0.149811E+00  0.418E-02    0.02       1.0  T
   5   -398.3634695  0.452163E-03  0.490E-02    0.01       1.0  T
   6   -398.3630763  0.393168E-03  0.540E-02    0.02       1.0  T
   7   -398.3645130 -0.143673E-02  0.128E-02    0.01       1.0  T
   8   -398.3645309 -0.178323E-04  0.972E-03    0.01       1.0  T
   9   -398.3645440 -0.131073E-04  0.701E-03    0.01       1.0  T
  10   -398.3645653 -0.213247E-04  0.263E-03    0.01       2.4  T
  11   -398.3645686 -0.330840E-05  0.649E-04    0.01       9.9  T
  12   -398.3645662  0.243023E-05  0.216E-03    0.01       3.0  T
  13   -398.3645686 -0.241041E-05  0.513E-04    0.01      12.5  T
  14   -398.3645687 -0.799475E-07  0.320E-04    0.01      20.1  T
  15   -398.3645687 -0.223878E-07  0.232E-04    0.01      27.7  T
     SCC iter.                  ...        0 min,  1.676 sec
     gradient                   ...        0 min,  0.663 sec
 * total energy  :  -389.1943537 Eh     change       -0.2567769E-02 Eh
   gradient norm :     0.0139232 Eh/α   predicted    -0.1407505E-03 ( -94.52%)
   displ. norm   :     0.0239284 α      lambda       -0.2094060E-03
   maximum displ.:     0.0137825 α      in ANC's #77, #7, #24, ...

........................................................................
.............................. CYCLE   98 ..............................
........................................................................

 iter      E             dE          RMSdq      gap      omega  full diag
   1   -398.3601734 -0.398360E+03  0.395E-02    0.01       0.0  T
   2   -398.1092162  0.250957E+00  0.720E-01    0.01       1.0  T
   3   -398.0084104  0.100806E+00  0.786E-01    0.08       1.0  T
   4   -398.3600613 -0.351651E+00  0.362E-02    0.02       1.0  T
   5   -398.3599144  0.146956E-03  0.391E-02    0.01       1.0  T
   6   -398.3581298  0.178456E-02  0.679E-02    0.01       1.0  T
   7   -398.3605551 -0.242534E-02  0.834E-03    0.01       1.0  T
   8   -398.3605229  0.322875E-04  0.117E-02    0.01       1.0  T
   9   -398.3605372 -0.143236E-04  0.879E-03    0.01       1.0  T
  10   -398.3605699 -0.327109E-04  0.338E-03    0.01       1.9  T
  11   -398.3605754 -0.549467E-05  0.115E-03    0.01       5.6  T
  12   -398.3605742  0.121471E-05  0.182E-03    0.01       3.5  T
  13   -398.3605754 -0.119895E-05  0.100E-03    0.01       6.4  T
  14   -398.3605757 -0.329782E-06  0.589E-04    0.01      10.9  T
  15   -398.3605759 -0.183626E-06  0.135E-04    0.01      47.7  T
     SCC iter.                  ...        0 min,  1.790 sec
     gradient                   ...        0 min,  0.641 sec
 * total energy  :  -389.1966011 Eh     change       -0.2247366E-02 Eh
   gradient norm :     0.0147971 Eh/α   predicted    -0.1048329E-03 ( -95.34%)
   displ. norm   :     0.0415255 α      lambda       -0.3148700E-03
   maximum displ.:     0.0290304 α      in ANC's #77, #7, #24, ...

........................................................................
.............................. CYCLE   99 ..............................
........................................................................

 iter      E             dE          RMSdq      gap      omega  full diag
   1   -398.3521267 -0.398352E+03  0.788E-02    0.01       0.0  T
   2   -397.9427424  0.409384E+00  0.966E-01    0.02       1.0  T
   3   -397.7846344  0.158108E+00  0.101E+00    0.15       1.0  T
   4   -398.3524166 -0.567782E+00  0.603E-02    0.02       1.0  T
   5   -398.3530266 -0.609974E-03  0.456E-02    0.01       1.0  T
   6   -398.3522132  0.813384E-03  0.549E-02    0.02       1.0  T
   7   -398.3517202  0.492956E-03  0.612E-02    0.01       1.0  T
   8   -398.3536740 -0.195377E-02  0.183E-02    0.01       1.0  T
   9   -398.3535267  0.147264E-03  0.234E-02    0.01       1.0  T
  10   -398.3537750 -0.248288E-03  0.954E-03    0.01       1.0  T
  11   -398.3538237 -0.486934E-04  0.187E-03    0.01       3.4  T
  12   -398.3538231  0.570590E-06  0.190E-03    0.01       3.4  T
  13   -398.3538245 -0.136372E-05  0.770E-04    0.01       8.3  T
  14   -398.3538240  0.490148E-06  0.113E-03    0.01       5.7  T
  15   -398.3538245 -0.493993E-06  0.582E-04    0.01      11.0  T
  16   -398.3538246 -0.916654E-07  0.408E-04    0.01      15.7  T
     SCC iter.                  ...        0 min,  1.764 sec
     gradient                   ...        0 min,  0.658 sec
 * total energy  :  -389.1983833 Eh     change       -0.1782188E-02 Eh
   gradient norm :     0.0155673 Eh/α   predicted    -0.1578184E-03 ( -91.14%)
   displ. norm   :     0.0623958 α      lambda       -0.3853169E-03
   maximum displ.:     0.0479849 α      in ANC's #77, #24, #7, ...

........................................................................
.............................. CYCLE  100 ..............................
........................................................................

 iter      E             dE          RMSdq      gap      omega  full diag
   1   -398.3387470 -0.398339E+03  0.134E-01    0.01       0.0  T
   2   -397.7025876  0.636159E+00  0.125E+00    0.04       1.0  T
   3   -397.6944717  0.811588E-02  0.110E+00    0.17       1.0  T
   4   -398.3343218 -0.639850E+00  0.143E-01    0.02       1.0  T
   5   -398.3290174  0.530437E-02  0.162E-01    0.00       1.0  T
   6   -398.2564854  0.725320E-01  0.402E-01    0.01       1.0  T
   7   -398.3430628 -0.865775E-01  0.429E-02    0.01       1.0  T
   8   -398.3438628 -0.799904E-03  0.173E-02    0.01       1.0  T
   9   -398.3438243  0.384811E-04  0.141E-02    0.01       1.0  T
  10   -398.3433876  0.436697E-03  0.313E-02    0.01       1.0  T
  11   -398.3438831 -0.495537E-03  0.816E-03    0.01       1.0  T
  12   -398.3439130 -0.299027E-04  0.296E-03    0.01       2.2  T
  13   -398.3439012  0.117685E-04  0.546E-03    0.01       1.2  T
  14   -398.3439121 -0.108669E-04  0.317E-03    0.01       2.0  T
  15   -398.3439165 -0.440725E-05  0.132E-03    0.01       4.9  T
  16   -398.3439148  0.174060E-05  0.220E-03    0.01       2.9  T
  17   -398.3439173 -0.249218E-05  0.562E-04    0.01      11.4  T
  18   -398.3439173 -0.172050E-07  0.520E-04    0.01      12.4  T
  19   -398.3439174 -0.136405E-06  0.106E-04    0.01      60.5  T
     SCC iter.                  ...        0 min,  2.088 sec
     gradient                   ...        0 min,  0.662 sec
 * total energy  :  -389.1953926 Eh     change        0.2990704E-02 Eh
   gradient norm :     0.0147390 Eh/α   predicted    -0.1934827E-03 (-106.47%)
   displ. norm   :     0.0878648 α      lambda       -0.4189966E-03
   maximum displ.:     0.0697921 α      in ANC's #77, #24, #7, ...

........................................................................
.............................. CYCLE  101 ..............................
........................................................................

 iter      E             dE          RMSdq      gap      omega  full diag
   1   -398.3175382 -0.398318E+03  0.203E-01    0.02       0.0  T
   2   -397.1762553  0.114128E+01  0.167E+00    0.12       1.0  T
   3   -397.5406121 -0.364357E+00  0.127E+00    0.17       1.0  T
   4   -398.3136265 -0.773014E+00  0.195E-01    0.02       1.0  T
   5   -398.2672074  0.464190E-01  0.329E-01    0.02       1.0  T
   6   -398.2098274  0.573801E-01  0.475E-01    0.01       1.0  T
   7   -398.3237149 -0.113888E+00  0.116E-01    0.01       1.0  T
   8   -398.3267265 -0.301163E-02  0.803E-02    0.02       1.0  T
   9   -398.3211290  0.559752E-02  0.128E-01    0.01       1.0  T
  10   -398.3282772 -0.714815E-02  0.578E-02    0.01       1.0  T
  11   -398.3300261 -0.174891E-02  0.777E-03    0.01       1.0  T
  12   -398.3298845  0.141606E-03  0.176E-02    0.01       1.0  T
  13   -398.3300291 -0.144646E-03  0.677E-03    0.01       1.0  T
  14   -398.3300406 -0.114953E-04  0.458E-03    0.02       1.4  T
  15   -398.3300503 -0.963443E-05  0.115E-03    0.02       5.6  T
  16   -398.3300368  0.134106E-04  0.504E-03    0.02       1.3  T
  17   -398.3300505 -0.136171E-04  0.665E-04    0.02       9.7  T
  18   -398.3300494  0.105330E-05  0.149E-03    0.02       4.3  T
  19   -398.3300500 -0.617152E-06  0.102E-03    0.02       6.3  T
  20   -398.3300506 -0.533619E-06  0.252E-04    0.02      25.5  T
  21   -398.3300506 -0.139294E-07  0.184E-04    0.02      34.9  T
     SCC iter.                  ...        0 min,  2.309 sec
     gradient                   ...        0 min,  0.664 sec
 * total energy  :  -389.1801627 Eh     change        0.1522983E-01 Eh
   gradient norm :     0.0143121 Eh/α   predicted    -0.2112545E-03 (-101.39%)
   displ. norm   :     0.1030894 α      lambda       -0.3794845E-03
   maximum displ.:     0.0813710 α      in ANC's #77, #24, #62, ...

........................................................................
.............................. CYCLE  102 ..............................
........................................................................

 iter      E             dE          RMSdq      gap      omega  full diag
   1   -398.2917881 -0.398292E+03  0.243E-01    0.02       0.0  T
   2   -396.2140640  0.207772E+01  0.228E+00    0.43       1.0  T
   3   -397.5176420 -0.130358E+01  0.129E+00    0.30       1.0  T
   4   -398.2798554 -0.762213E+00  0.324E-01    0.02       1.0  T
   5   -398.2638324  0.160229E-01  0.328E-01    0.01       1.0  T
   6   -398.2779137 -0.140813E-01  0.268E-01    0.02       1.0  T
   7   -398.2588261  0.190876E-01  0.315E-01    0.01       1.0  T
   8   -398.2122608  0.465653E-01  0.437E-01    0.01       1.0  T
   9   -398.3118016 -0.995408E-01  0.619E-02    0.02       1.0  T
  10   -398.3119740 -0.172335E-03  0.600E-02    0.01       1.0  T
  11   -398.3072034  0.477055E-02  0.108E-01    0.01       1.0  T
  12   -398.3134023 -0.619885E-02  0.216E-02    0.01       1.0  T
  13   -398.3132612  0.141118E-03  0.269E-02    0.01       1.0  T
  14   -398.3135247 -0.263565E-03  0.154E-02    0.01       1.0  T
  15   -398.3136527 -0.127997E-03  0.165E-03    0.01       3.9  T
  16   -398.3136321  0.206445E-04  0.629E-03    0.01       1.0  T
  17   -398.3136514 -0.192898E-04  0.217E-03    0.01       3.0  T
  18   -398.3136522 -0.872584E-06  0.177E-03    0.01       3.6  T
  19   -398.3136539 -0.168537E-05  0.251E-04    0.01      25.6  T
  20   -398.3136539 -0.178900E-07  0.170E-04    0.01      37.8  T
  21   -398.3136539  0.523474E-07  0.346E-04    0.01      18.6  T
     SCC iter.                  ...        0 min,  2.318 sec
     gradient                   ...        0 min,  0.652 sec
 * total energy  :  -389.1470199 Eh     change        0.3314286E-01 Eh
   gradient norm :     0.0184957 Eh/α   predicted    -0.1920470E-03 (-100.58%)
   displ. norm   :     0.1110572 α      lambda       -0.4329551E-03
   maximum displ.:     0.0853914 α      in ANC's #77, #24, #31, ...

........................................................................
.............................. CYCLE  103 ..............................
........................................................................

 iter      E             dE          RMSdq      gap      omega  full diag
   1   -398.2448997 -0.398245E+03  0.348E-01    0.01       0.0  T
   2   -395.9837515  0.226115E+01  0.245E+00    0.07       1.0  T
   3   -397.4652644 -0.148151E+01  0.132E+00    0.30       1.0  T
   4   -397.4695313 -0.426687E-02  0.134E+00    0.13       1.0  T
   5   -397.7563635 -0.286832E+00  0.986E-01    0.14       1.0  T
   6   -398.2590058 -0.502642E+00  0.298E-01    0.02       1.0  T
   7   -398.2756091 -0.166034E-01  0.205E-01    0.01       1.0  T
   8   -398.2882537 -0.126446E-01  0.136E-01    0.02       1.0  T
   9   -398.2893666 -0.111286E-02  0.110E-01    0.01       1.0  T
  10   -398.2827660  0.660062E-02  0.156E-01    0.01       1.0  T
  11   -398.2946710 -0.119050E-01  0.512E-02    0.01       1.0  T
  12   -398.2945568  0.114167E-03  0.514E-02    0.01       1.0  T
  13   -398.2953849 -0.828103E-03  0.335E-02    0.01       1.0  T
  14   -398.2959912 -0.606235E-03  0.617E-03    0.01       1.0  T
  15   -398.2959089  0.822410E-04  0.131E-02    0.01       1.0  T
  16   -398.2960002 -0.913119E-04  0.255E-03    0.01       2.5  T
  17   -398.2960036 -0.332937E-05  0.477E-04    0.01      13.5  T
  18   -398.2960036 -0.691866E-07  0.265E-04    0.01      24.2  T
  19   -398.2960026  0.105561E-05  0.139E-03    0.01       4.6  T
  20   -398.2960036 -0.100281E-05  0.360E-04    0.01      17.9  T
  21   -398.2960037 -0.690773E-07  0.541E-05    0.01     118.8  T
     SCC iter.                  ...        0 min,  2.326 sec
     gradient                   ...        0 min,  0.660 sec
 * total energy  :  -389.0916757 Eh     change        0.5534419E-01 Eh
   gradient norm :     0.0244757 Eh/α   predicted    -0.2191550E-03 (-100.40%)
   displ. norm   :     0.1444049 α      lambda       -0.8636266E-03
   maximum displ.:     0.1044349 α      in ANC's #77, #24, #31, ...

........................................................................
.............................. CYCLE  104 ..............................
........................................................................

 iter      E             dE          RMSdq      gap      omega  full diag
   1   -398.1705295 -0.398171E+03  0.497E-01    0.02       0.0  T
   2   -394.5140095  0.365652E+01  0.297E+00    0.13       1.0  T
   3   -398.1432552 -0.362925E+01  0.569E-01    0.00       1.0  T
   4   -396.5276555  0.161560E+01  0.207E+00    0.36       1.0  T
   5   -397.6698781 -0.114222E+01  0.109E+00    0.11       1.0  T
   6   -397.6759906 -0.611250E-02  0.111E+00    0.07       1.0  T
   7   -398.2505907 -0.574600E+00  0.264E-01    0.02       1.0  T
   8   -398.2192647  0.313260E-01  0.331E-01    0.00       1.0  T
   9   -398.2604157 -0.411510E-01  0.192E-01    0.02       1.0  T
  10   -398.2384839  0.219318E-01  0.261E-01    0.01       1.0  T
  11   -398.2576780 -0.191941E-01  0.175E-01    0.01       1.0  T
  12   -398.2607481 -0.307003E-02  0.159E-01    0.01       1.0  T
  13   -398.2734011 -0.126531E-01  0.447E-02    0.01       1.0  T
  14   -398.2728859  0.515245E-03  0.518E-02    0.01       1.0  T
  15   -398.2734297 -0.543829E-03  0.352E-02    0.01       1.0  T
  16   -398.2730433  0.386374E-03  0.438E-02    0.01       1.0  T
  17   -398.2739298 -0.886423E-03  0.168E-02    0.01       1.0  T
  18   -398.2740632 -0.133399E-03  0.284E-03    0.01       2.3  T
  19   -398.2740634 -0.248672E-06  0.231E-03    0.01       2.8  T
  20   -398.2740637 -0.306484E-06  0.194E-03    0.01       3.3  T
  21   -398.2740651 -0.134604E-05  0.413E-04    0.01      15.6  T
  22   -398.2740651 -0.441344E-07  0.110E-04    0.01      58.3  T
  23   -398.2740651  0.114988E-07  0.206E-04    0.01      31.2  T
     SCC iter.                  ...        0 min,  2.573 sec
     gradient                   ...        0 min,  0.667 sec
 * total energy  :  -388.9779339 Eh     change        0.1137418E+00 Eh
   gradient norm :     0.0300714 Eh/α   predicted    -0.4409313E-03 (-100.39%)
   displ. norm   :     0.1641308 α      lambda       -0.1874670E-02
   maximum displ.:     0.0888327 α      in ANC's #77, #7, #31, ...

........................................................................
.............................. CYCLE  105 ..............................
........................................................................

 iter      E             dE          RMSdq      gap      omega  full diag
   1   -398.1772923 -0.398177E+03  0.441E-01    0.02       0.0  T
   2   -394.5505613  0.362673E+01  0.293E+00    0.19       1.0  T
   3   -397.6705765 -0.312002E+01  0.102E+00    0.16       1.0  T
   4   -396.4276686  0.124291E+01  0.214E+00    0.36       1.0  T
   5   -397.7416289 -0.131396E+01  0.106E+00    0.04       1.0  T
   6   -397.8711927 -0.129564E+00  0.887E-01    0.03       1.0  T
   7   -398.1941910 -0.322998E+00  0.395E-01    0.01       1.0  T
   8   -398.2362513 -0.420603E-01  0.233E-01    0.02       1.0  T
   9   -398.1622461  0.740052E-01  0.434E-01    0.01       1.0  T
  10   -398.2438683 -0.816222E-01  0.163E-01    0.01       1.0  T
  11   -398.2326431  0.112252E-01  0.211E-01    0.01       1.0  T
  12   -398.2434139 -0.107708E-01  0.157E-01    0.01       1.0  T
  13   -398.2519014 -0.848746E-02  0.973E-02    0.01       1.0  T
  14   -398.2550429 -0.314153E-02  0.589E-02    0.01       1.0  T
  15   -398.2561401 -0.109720E-02  0.364E-02    0.01       1.0  T
  16   -398.2562260 -0.858486E-04  0.327E-02    0.01       1.0  T
  17   -398.2567767 -0.550774E-03  0.812E-03    0.01       1.0  T
  18   -398.2567961 -0.194058E-04  0.345E-03    0.01       1.9  T
  19   -398.2567994 -0.324419E-05  0.135E-03    0.01       4.8  T
  20   -398.2567909  0.847745E-05  0.416E-03    0.01       1.5  T
  21   -398.2567992 -0.824138E-05  0.139E-03    0.01       4.6  T
  22   -398.2567999 -0.785203E-06  0.651E-04    0.01       9.9  T
  23   -398.2568002 -0.219521E-06  0.812E-05    0.01      79.2  T
     SCC iter.                  ...        0 min,  2.559 sec
     gradient                   ...        0 min,  0.645 sec
 * total energy  :  -388.7501617 Eh     change        0.2277722E+00 Eh
   gradient norm :     0.0316891 Eh/α   predicted    -0.9627872E-03 (-100.42%)
   displ. norm   :     0.2452218 α      lambda       -0.4190715E-02
   maximum displ.:     0.2088152 α      in ANC's #7, #12, #31, ...

........................................................................
.............................. CYCLE  106 ..............................
........................................................................

 iter      E             dE          RMSdq      gap      omega  full diag
   1   -398.2533493 -0.398253E+03  0.234E-01    0.00       0.0  T
   2   -397.3653470  0.888002E+00  0.141E+00    0.02       1.0  T
   3   -397.8295585 -0.464211E+00  0.101E+00    0.01       1.0  T
   4   -397.6776384  0.151920E+00  0.997E-01    0.04       1.0  T
   5   -397.7605841 -0.829456E-01  0.107E+00    0.04       1.0  T
   6   -398.0816715 -0.321087E+00  0.580E-01    0.02       1.0  T
   7   -398.1959746 -0.114303E+00  0.365E-01    0.01       1.0  T
   8   -398.2655458 -0.695712E-01  0.912E-02    0.01       1.0  T
   9   -398.2675105 -0.196478E-02  0.521E-02    0.01       1.0  T
  10   -398.2585115  0.899900E-02  0.140E-01    0.01       1.0  T
  11   -398.2634726 -0.496105E-02  0.101E-01    0.01       1.0  T
  12   -398.2667338 -0.326118E-02  0.622E-02    0.01       1.0  T
  13   -398.2677685 -0.103469E-02  0.228E-02    0.01       1.0  T
  14   -398.2670054  0.763101E-03  0.417E-02    0.01       1.0  T
  15   -398.2677752 -0.769833E-03  0.173E-02    0.01       1.0  T
  16   -398.2677433  0.319049E-04  0.193E-02    0.01       1.0  T
  17   -398.2678726 -0.129298E-03  0.988E-03    0.01       1.0  T
  18   -398.2679108 -0.382168E-04  0.414E-03    0.01       1.6  T
  19   -398.2679151 -0.433891E-05  0.204E-03    0.01       3.2  T
  20   -398.2679122  0.293687E-05  0.307E-03    0.01       2.1  T
  21   -398.2679148 -0.259754E-05  0.205E-03    0.01       3.1  T
  22   -398.2679170 -0.220828E-05  0.165E-04    0.01      39.0  T
  23   -398.2679162  0.860652E-06  0.127E-03    0.01       5.1  T
  24   -398.2679169 -0.720048E-06  0.540E-04    0.01      11.9  T
  25   -398.2679169 -0.259930E-07  0.478E-04    0.01      13.4  T
     SCC iter.                  ...        0 min,  2.795 sec
     gradient                   ...        0 min,  0.672 sec
 * total energy  :  -388.3742037 Eh     change        0.3759580E+00 Eh
   gradient norm :     0.0392528 Eh/α   predicted    -0.2221381E-02 (-100.59%)
   displ. norm   :     0.1641561 α      lambda       -0.2269261E-02
   maximum displ.:     0.1188657 α      in ANC's #77, #24, #31, ...

........................................................................
.............................. CYCLE  107 ..............................
........................................................................

 iter      E             dE          RMSdq      gap      omega  full diag
   1   -398.2775940 -0.398278E+03  0.236E-01    0.01       0.0  T
   2   -397.5145459  0.763048E+00  0.120E+00    0.02       1.0  T
   3   -397.3017794  0.212767E+00  0.150E+00    0.19       1.0  T
   4   -397.8349232 -0.533144E+00  0.895E-01    0.05       1.0  T
   5   -398.0338263 -0.198903E+00  0.860E-01    0.02       1.0  T
   6   -398.2223790 -0.188553E+00  0.378E-01    0.00       1.0  T
   7   -398.2392248 -0.168458E-01  0.344E-01    0.02       1.0  T
   8   -398.2749832 -0.357584E-01  0.211E-01    0.01       1.0  T
   9   -398.2965830 -0.215999E-01  0.695E-02    0.01       1.0  T
  10   -398.2988420 -0.225896E-02  0.232E-02    0.01       1.0  T
  11   -398.2963253  0.251668E-02  0.722E-02    0.01       1.0  T
  12   -398.2989181 -0.259274E-02  0.163E-02    0.01       1.0  T
  13   -398.2990226 -0.104506E-03  0.640E-03    0.01       1.0  T
  14   -398.2990322 -0.964807E-05  0.346E-03    0.01       1.9  T
  15   -398.2990280  0.420782E-05  0.440E-03    0.01       1.5  T
  16   -398.2990282 -0.192303E-06  0.429E-03    0.01       1.5  T
  17   -398.2990362 -0.799827E-05  0.176E-03    0.01       3.6  T
  18   -398.2990351  0.109621E-05  0.213E-03    0.01       3.0  T
  19   -398.2990371 -0.198899E-05  0.817E-04    0.01       7.9  T
  20   -398.2990372 -0.119473E-06  0.691E-04    0.01       9.3  T
  21   -398.2990374 -0.167848E-06  0.422E-04    0.01      15.2  T
     SCC iter.                  ...        0 min,  2.329 sec
     gradient                   ...        0 min,  0.664 sec
 * total energy  :  -388.7349056 Eh     change       -0.3607019E+00 Eh
   gradient norm :     0.0273446 Eh/α   predicted    -0.1167617E-02 ( -99.68%)
   displ. norm   :     0.3821153 α      lambda       -0.4936377E-02
   maximum displ.:     0.2050981 α      in ANC's #77, #12, #7, ...

........................................................................
.............................. CYCLE  108 ..............................
........................................................................

 iter      E             dE          RMSdq      gap      omega  full diag
   1   -398.2679635 -0.398268E+03  0.525E-01    0.01       0.0  T
   2   -396.9345747  0.133339E+01  0.173E+00    0.04       1.0  T
   3   -397.3943040 -0.459729E+00  0.134E+00    0.26       1.0  T
   4   -397.8200220 -0.425718E+00  0.113E+00    0.03       1.0  T
   5   -397.4763102  0.343712E+00  0.135E+00    0.12       1.0  T
   6   -397.7562225 -0.279912E+00  0.101E+00    0.18       1.0  T
   7   -397.9773060 -0.221084E+00  0.820E-01    0.07       1.0  T
   8   -398.2070441 -0.229738E+00  0.520E-01    0.02       1.0  T
   9   -398.2086371 -0.159294E-02  0.511E-01    0.02       1.0  T
  10   -398.3172009 -0.108564E+00  0.254E-01    0.01       1.0  T
  11   -398.1911020  0.126099E+00  0.554E-01    0.00       1.0  T
  12   -398.1412962  0.498058E-01  0.631E-01    0.00       1.0  T
  13   -398.3124829 -0.171187E+00  0.239E-01    0.02       1.0  T
  14   -398.3019911  0.104918E-01  0.269E-01    0.02       1.0  T
  15   -398.2869955  0.149957E-01  0.317E-01    0.02       1.0  T
  16   -398.2894058 -0.241028E-02  0.309E-01    0.02       1.0  T
  17   -398.3123422 -0.229365E-01  0.227E-01    0.02       1.0  T
  18   -398.2985564  0.137858E-01  0.276E-01    0.01       1.0  T
  19   -398.3183307 -0.197743E-01  0.195E-01    0.01       1.0  T
  20   -398.3156684  0.266234E-02  0.206E-01    0.01       1.0  T
  21   -398.3338173 -0.181490E-01  0.893E-02    0.01       1.0  T
  22   -398.3378094 -0.399207E-02  0.235E-02    0.01       1.0  T
  23   -398.3379360 -0.126646E-03  0.162E-02    0.01       1.0  T
  24   -398.3376725  0.263518E-03  0.264E-02    0.01       1.0  T
  25   -398.3380206 -0.348095E-03  0.876E-03    0.01       1.0  T
  26   -398.3380613 -0.406603E-04  0.209E-03    0.01       3.1  T
  27   -398.3380588  0.245360E-05  0.260E-03    0.01       2.5  T
  28   -398.3380614 -0.260905E-05  0.141E-03    0.01       4.5  T
  29   -398.3380587  0.276707E-05  0.261E-03    0.01       2.5  T
  30   -398.3380623 -0.362489E-05  0.533E-04    0.01      12.1  T
  31   -398.3380592  0.312574E-05  0.246E-03    0.01       2.6  T
  32   -398.3380613 -0.209273E-05  0.146E-03    0.01       4.4  T
  33   -398.3380623 -0.104130E-05  0.458E-04    0.01      14.0  T
  34   -398.3380624 -0.113400E-06  0.520E-05    0.01     123.7  T
  35   -398.3380624  0.172428E-07  0.183E-04    0.01      35.2  T
     SCC iter.                  ...        0 min,  3.899 sec
     gradient                   ...        0 min,  0.675 sec
 * total energy  :  -389.1449463 Eh     change       -0.4100408E+00 Eh
   gradient norm :     0.0345152 Eh/α   predicted    -0.2828569E-02 ( -99.31%)
   displ. norm   :     0.1885884 α      lambda       -0.2485251E-02
   maximum displ.:     0.1195707 α      in ANC's #77, #24, #12, ...

........................................................................
.............................. CYCLE  109 ..............................
........................................................................

 iter      E             dE          RMSdq      gap      omega  full diag
   1   -398.1845324 -0.398185E+03  0.562E-01    0.03       0.0  T
   2   -394.4276209  0.375691E+01  0.300E+00    0.04       1.0  T
   3   -397.7782384 -0.335062E+01  0.102E+00    0.09       1.0  T
   4   -396.3639322  0.141431E+01  0.223E+00    0.43       1.0  T
   5   -398.1504121 -0.178648E+01  0.689E-01    0.02       1.0  T
   6   -397.4712516  0.679160E+00  0.134E+00    0.15       1.0  T
   7   -398.2389872 -0.767736E+00  0.403E-01    0.00       1.0  T
   8   -398.2609616 -0.219744E-01  0.350E-01    0.00       1.0  T
   9   -398.3005389 -0.395773E-01  0.216E-01    0.02       1.0  T
  10   -398.3110087 -0.104698E-01  0.919E-02    0.01       1.0  T
  11   -398.2763912  0.346175E-01  0.265E-01    0.00       1.0  T
  12   -398.3059417 -0.295506E-01  0.135E-01    0.01       1.0  T
  13   -398.3131728 -0.723107E-02  0.586E-02    0.01       1.0  T
  14   -398.3120896  0.108321E-02  0.693E-02    0.01       1.0  T
  15   -398.3114053  0.684242E-03  0.747E-02    0.01       1.0  T
  16   -398.3143199 -0.291453E-02  0.158E-02    0.01       1.0  T
  17   -398.3143399 -0.200041E-04  0.137E-02    0.01       1.0  T
  18   -398.3144316 -0.917703E-04  0.342E-03    0.01       1.9  T
  19   -398.3143907  0.409027E-04  0.908E-03    0.01       1.0  T
  20   -398.3144351 -0.443698E-04  0.149E-03    0.01       4.3  T
  21   -398.3144357 -0.581861E-06  0.101E-03    0.01       6.4  T
  22   -398.3144362 -0.511897E-06  0.291E-04    0.01      22.1  T
  23   -398.3144357  0.456389E-06  0.942E-04    0.01       6.8  T
     SCC iter.                  ...        0 min,  2.553 sec
     gradient                   ...        0 min,  0.655 sec
 * total energy  :  -389.0122444 Eh     change        0.1327020E+00 Eh
   gradient norm :     0.0070019 Eh/α   predicted    -0.1286930E-02 (-100.97%)
   displ. norm   :     0.0699163 α      lambda       -0.2147201E-03
   maximum displ.:     0.0463024 α      in ANC's #77, #24, #31, ...

........................................................................
.............................. CYCLE  110 ..............................
........................................................................

 iter      E             dE          RMSdq      gap      omega  full diag
   1   -398.2866132 -0.398287E+03  0.206E-01    0.01       0.0  T
   2   -396.2588610  0.202775E+01  0.230E+00    0.07       1.0  T
   3   -397.5754891 -0.131663E+01  0.118E+00    0.31       1.0  T
   4   -397.9617687 -0.386280E+00  0.838E-01    0.02       1.0  T
   5   -398.0027784 -0.410098E-01  0.743E-01    0.06       1.0  T
   6   -398.2915141 -0.288736E+00  0.172E-01    0.02       1.0  T
   7   -398.2964661 -0.495199E-02  0.127E-01    0.01       1.0  T
   8   -398.2922442  0.422186E-02  0.154E-01    0.01       1.0  T
   9   -398.3022716 -0.100274E-01  0.672E-02    0.01       1.0  T
  10   -398.3036271 -0.135546E-02  0.433E-02    0.01       1.0  T
  11   -398.3045756 -0.948557E-03  0.933E-03    0.01       1.0  T
  12   -398.3045909 -0.152869E-04  0.568E-03    0.01       1.1  T
  13   -398.3045915 -0.567564E-06  0.418E-03    0.01       1.5  T
  14   -398.3045959 -0.437724E-05  0.298E-03    0.01       2.2  T
  15   -398.3045981 -0.219498E-05  0.220E-03    0.01       2.9  T
  16   -398.3045987 -0.612589E-06  0.184E-03    0.01       3.5  T
  17   -398.3046004 -0.174039E-05  0.445E-04    0.01      14.4  T
  18   -398.3046004 -0.440547E-07  0.298E-04    0.01      21.6  T
  19   -398.3046005 -0.438712E-07  0.896E-05    0.01      71.7  T
     SCC iter.                  ...        0 min,  2.106 sec
     gradient                   ...        0 min,  0.660 sec
 * total energy  :  -388.9340551 Eh     change        0.7818929E-01 Eh
   gradient norm :     0.0015096 Eh/α   predicted    -0.1079209E-03 (-100.14%)
   displ. norm   :     0.0130271 α      lambda       -0.2976088E-05
   maximum displ.:     0.0064834 α      in ANC's #7, #77, #31, ...

........................................................................
.............................. CYCLE  111 ..............................
........................................................................

 iter      E             dE          RMSdq      gap      omega  full diag
   1   -398.3031587 -0.398303E+03  0.298E-02    0.01       0.0  T
   2   -397.7839787  0.519180E+00  0.103E+00    0.05       1.0  T
   3   -398.2436893 -0.459711E+00  0.337E-01    0.01       1.0  T
   4   -398.3032870 -0.595977E-01  0.239E-02    0.01       1.0  T
   5   -398.3025760  0.711004E-03  0.431E-02    0.01       1.0  T
   6   -398.3018588  0.717125E-03  0.698E-02    0.01       1.0  T
   7   -398.3031925 -0.133362E-02  0.261E-02    0.01       1.0  T
   8   -398.3033385 -0.146041E-03  0.195E-02    0.01       1.0  T
   9   -398.3034996 -0.161106E-03  0.712E-03    0.01       1.0  T
  10   -398.3035013 -0.173172E-05  0.569E-03    0.01       1.1  T
  11   -398.3035132 -0.118378E-04  0.302E-03    0.01       2.1  T
  12   -398.3035175 -0.436585E-05  0.854E-04    0.01       7.5  T
  13   -398.3035178 -0.226327E-06  0.455E-04    0.01      14.1  T
  14   -398.3035178 -0.431853E-07  0.183E-04    0.01      35.1  T
     SCC iter.                  ...        0 min,  1.576 sec
     gradient                   ...        0 min,  0.645 sec
 * total energy  :  -388.9174792 Eh     change        0.1657591E-01 Eh
   gradient norm :     0.0012748 Eh/α   predicted    -0.2187234E-05 (-100.01%)
   displ. norm   :     0.0061792 α      lambda       -0.2339814E-05
   maximum displ.:     0.0043664 α      in ANC's #77, #24, #31, ...

........................................................................
.............................. CYCLE  112 ..............................
........................................................................

 iter      E             dE          RMSdq      gap      omega  full diag
   1   -398.3044832 -0.398304E+03  0.134E-02    0.01       0.0  T
   2   -398.1262417  0.178241E+00  0.564E-01    0.02       1.0  T
   3   -398.2710132 -0.144771E+00  0.253E-01    0.01       1.0  T
   4   -398.3008422 -0.298290E-01  0.914E-02    0.01       1.0  T
   5   -398.3041311 -0.328889E-02  0.309E-02    0.01       1.0  T
   6   -398.3040960  0.350683E-04  0.288E-02    0.01       1.0  T
   7   -398.3045321 -0.436119E-03  0.693E-03    0.01       1.0  T
   8   -398.3045527 -0.206034E-04  0.314E-03    0.01       2.1  T
   9   -398.3045545 -0.175945E-05  0.208E-03    0.01       3.1  T
  10   -398.3045562 -0.172084E-05  0.601E-04    0.01      10.7  T
  11   -398.3045562 -0.208748E-07  0.455E-04    0.01      14.1  T
  12   -398.3045563 -0.371876E-07  0.281E-04    0.01      22.9  T
     SCC iter.                  ...        0 min,  1.325 sec
     gradient                   ...        0 min,  0.670 sec
 * total energy  :  -388.9249670 Eh     change       -0.7487881E-02 Eh
   gradient norm :     0.0004910 Eh/α   predicted    -0.1178866E-05 ( -99.98%)
   displ. norm   :     0.0089120 α      lambda       -0.1412610E-05
   maximum displ.:     0.0052008 α      in ANC's #77, #7, #31, ...

........................................................................
.............................. CYCLE  113 ..............................
........................................................................

 iter      E             dE          RMSdq      gap      omega  full diag
   1   -398.3053571 -0.398305E+03  0.198E-02    0.01       0.0  T
   2   -398.0280550  0.277302E+00  0.703E-01    0.02       1.0  T
   3   -398.2252370 -0.197182E+00  0.395E-01    0.01       1.0  T
   4   -398.2947323 -0.694953E-01  0.150E-01    0.01       1.0  T
   5   -398.3045725 -0.984029E-02  0.463E-02    0.01       1.0  T
   6   -398.3047096 -0.137030E-03  0.382E-02    0.01       1.0  T
   7   -398.3054490 -0.739453E-03  0.112E-02    0.01       1.0  T
   8   -398.3054994 -0.504085E-04  0.558E-03    0.01       1.2  T
   9   -398.3055070 -0.754475E-05  0.379E-03    0.01       1.7  T
  10   -398.3055130 -0.598663E-05  0.122E-03    0.01       5.3  T
  11   -398.3055130 -0.756875E-07  0.103E-03    0.01       6.2  T
  12   -398.3055133 -0.224560E-06  0.591E-04    0.01      10.9  T
  13   -398.3055133 -0.589698E-07  0.399E-04    0.01      16.1  T
     SCC iter.                  ...        0 min,  1.440 sec
     gradient                   ...        0 min,  0.662 sec
 * total energy  :  -388.9365244 Eh     change       -0.1155737E-01 Eh
   gradient norm :     0.0005826 Eh/α   predicted    -0.7201324E-06 ( -99.99%)
   displ. norm   :     0.0031054 α      lambda       -0.3802514E-06
   maximum displ.:     0.0019539 α      in ANC's #77, #24, #31, ...

........................................................................
.............................. CYCLE  114 ..............................
........................................................................

 iter      E             dE          RMSdq      gap      omega  full diag
   1   -398.3050596 -0.398305E+03  0.710E-03    0.01       0.0  T
   2   -398.2562212  0.488384E-01  0.304E-01    0.01       1.0  T
   3   -398.2991306 -0.429095E-01  0.106E-01    0.01       1.0  T
   4   -398.3048575 -0.572686E-02  0.256E-02    0.01       1.0  T
   5   -398.3049172 -0.597080E-04  0.211E-02    0.01       1.0  T
   6   -398.3049657 -0.485050E-04  0.145E-02    0.01       1.0  T
   7   -398.3050787 -0.113036E-03  0.171E-03    0.01       3.8  T
   8   -398.3050787  0.617075E-08  0.170E-03    0.01       3.8  T
   9   -398.3050799 -0.119399E-05  0.532E-04    0.01      12.1  T
  10   -398.3050800 -0.260866E-07  0.344E-04    0.01      18.7  T
  11   -398.3050800 -0.382506E-07  0.171E-04    0.01      37.5  T
     SCC iter.                  ...        0 min,  1.224 sec
     gradient                   ...        0 min,  0.662 sec
 * total energy  :  -388.9325945 Eh     change        0.3929948E-02 Eh
   gradient norm :     0.0002734 Eh/α   predicted    -0.2073236E-06 (-100.01%)
   displ. norm   :     0.0014666 α      lambda       -0.1180871E-07
   maximum displ.:     0.0009813 α      in ANC's #77, #24, #31, ...

........................................................................
.............................. CYCLE  115 ..............................
........................................................................

 iter      E             dE          RMSdq      gap      omega  full diag
   1   -398.3048628 -0.398305E+03  0.336E-03    0.01       0.0  T
   2   -398.2945368  0.103260E-01  0.139E-01    0.01       1.0  T
   3   -398.3031368 -0.859997E-02  0.568E-02    0.01       1.0  T
   4   -398.3048000 -0.166319E-02  0.142E-02    0.01       1.0  T
   5   -398.3048375 -0.375132E-04  0.861E-03    0.01       1.0  T
   6   -398.3048405 -0.300797E-05  0.698E-03    0.01       1.0  T
   7   -398.3048670 -0.264336E-04  0.828E-04    0.01       7.8  T
   8   -398.3048672 -0.212289E-06  0.538E-04    0.01      11.9  T
   9   -398.3048673 -0.981834E-07  0.256E-04    0.01      25.1  T
     SCC iter.                  ...        0 min,  1.014 sec
     gradient                   ...        0 min,  0.662 sec
 * total energy  :  -388.9307848 Eh     change        0.1809636E-02 Eh
   gradient norm :     0.0002449 Eh/α   predicted    -0.3607249E-07 (-100.00%)
   displ. norm   :     0.0015993 α      lambda       -0.7865272E-07
   maximum displ.:     0.0010202 α      in ANC's #77, #24, #31, ...

........................................................................
.............................. CYCLE  116 ..............................
........................................................................

 iter      E             dE          RMSdq      gap      omega  full diag
   1   -398.3045994 -0.398305E+03  0.346E-03    0.01       0.0  T
   2   -398.2969480  0.765134E-02  0.120E-01    0.01       1.0  T
   3   -398.3019845 -0.503652E-02  0.696E-02    0.01       1.0  T
   4   -398.3045309 -0.254632E-02  0.148E-02    0.01       1.0  T
   5   -398.3045777 -0.468014E-04  0.805E-03    0.01       1.0  T
   6   -398.3045751  0.258717E-05  0.725E-03    0.01       1.0  T
   7   -398.3046037 -0.285990E-04  0.832E-04    0.01       7.7  T
   8   -398.3046039 -0.220331E-06  0.506E-04    0.01      12.7  T
   9   -398.3046039 -0.159951E-07  0.413E-04    0.01      15.6  T
     SCC iter.                  ...        0 min,  0.977 sec
     gradient                   ...        0 min,  0.669 sec
 * total energy  :  -388.9289643 Eh     change        0.1820534E-02 Eh
   gradient norm :     0.0002521 Eh/α   predicted    -0.4237910E-07 (-100.00%)
   displ. norm   :     0.0023881 α      lambda       -0.1253387E-06
   maximum displ.:     0.0013184 α      in ANC's #77, #1, #67, ...

........................................................................
.............................. CYCLE  117 ..............................
........................................................................

 iter      E             dE          RMSdq      gap      omega  full diag
   1   -398.3041781 -0.398304E+03  0.444E-03    0.01       0.0  T
   2   -398.2976520  0.652610E-02  0.111E-01    0.01       1.0  T
   3   -398.2971518  0.500197E-03  0.113E-01    0.01       1.0  T
   4   -398.3040677 -0.691588E-02  0.187E-02    0.01       1.0  T
   5   -398.3041443 -0.766213E-04  0.101E-02    0.01       1.0  T
   6   -398.3041368  0.750848E-05  0.938E-03    0.01       1.0  T
   7   -398.3041848 -0.479630E-04  0.104E-03    0.01       6.2  T
   8   -398.3041850 -0.271897E-06  0.676E-04    0.01       9.5  T
   9   -398.3041849  0.170968E-06  0.798E-04    0.01       8.1  T
     SCC iter.                  ...        0 min,  1.014 sec
     gradient                   ...        0 min,  0.650 sec
 * total energy  :  -388.9267135 Eh     change        0.2250752E-02 Eh
   gradient norm :     0.0003039 Eh/α   predicted    -0.8073214E-07 (-100.00%)
   displ. norm   :     0.0055532 α      lambda       -0.4182974E-06
   maximum displ.:     0.0029787 α      in ANC's #1, #67, #77, ...

........................................................................
.............................. CYCLE  118 ..............................
........................................................................

 iter      E             dE          RMSdq      gap      omega  full diag
   1   -398.3031978 -0.398303E+03  0.844E-03    0.01       0.0  T
   2   -398.2992910  0.390683E-02  0.896E-02    0.01       1.0  T
   3   -398.2478976  0.513934E-01  0.313E-01    0.00       1.0  T
   4   -398.3028139 -0.549163E-01  0.331E-02    0.01       1.0  T
   5   -398.3029784 -0.164503E-03  0.248E-02    0.01       1.0  T
   6   -398.3030634 -0.850048E-04  0.170E-02    0.01       1.0  T
   7   -398.3032193 -0.155899E-03  0.207E-03    0.01       3.1  T
   8   -398.3032194 -0.141403E-06  0.181E-03    0.01       3.6  T
   9   -398.3032168  0.259300E-05  0.272E-03    0.01       2.4  T
  10   -398.3032203 -0.343527E-05  0.872E-04    0.01       7.4  T
  11   -398.3032207 -0.399076E-06  0.180E-04    0.01      35.7  T
  12   -398.3032207 -0.311672E-08  0.119E-04    0.01      54.2  T
     SCC iter.                  ...        0 min,  1.340 sec
     gradient                   ...        0 min,  0.667 sec
 * total energy  :  -388.9227714 Eh     change        0.3942138E-02 Eh
   gradient norm :     0.0004614 Eh/α   predicted    -0.2175703E-06 (-100.01%)
   displ. norm   :     0.0095063 α      lambda       -0.7860661E-06
   maximum displ.:     0.0060156 α      in ANC's #1, #67, #77, ...

........................................................................
.............................. CYCLE  119 ..............................
........................................................................

 iter      E             dE          RMSdq      gap      omega  full diag
   1   -398.3016422 -0.398302E+03  0.109E-02    0.01       0.0  T
   2   -398.2860689  0.155733E-01  0.170E-01    0.01       1.0  T
   3   -398.2553841  0.306848E-01  0.296E-01    0.01       1.0  T
   4   -398.3006343 -0.452502E-01  0.535E-02    0.01       1.0  T
   5   -398.3013462 -0.711830E-03  0.291E-02    0.01       1.0  T
   6   -398.3014107 -0.645667E-04  0.223E-02    0.01       1.0  T
   7   -398.3016680 -0.257258E-03  0.397E-03    0.01       1.6  T
   8   -398.3016710 -0.302440E-05  0.270E-03    0.01       2.4  T
   9   -398.3016595  0.115292E-04  0.501E-03    0.01       1.3  T
  10   -398.3016720 -0.124608E-04  0.146E-03    0.01       4.4  T
  11   -398.3016730 -0.105479E-05  0.374E-04    0.01      17.2  T
  12   -398.3016731 -0.411583E-07  0.242E-04    0.01      26.6  T
  13   -398.3016731 -0.835553E-08  0.169E-04    0.01      38.0  T
     SCC iter.                  ...        0 min,  1.426 sec
     gradient                   ...        0 min,  0.662 sec
 * total energy  :  -388.9189457 Eh     change        0.3825748E-02 Eh
   gradient norm :     0.0006921 Eh/α   predicted    -0.4029517E-06 (-100.01%)
   displ. norm   :     0.0276056 α      lambda       -0.2635602E-05
   maximum displ.:     0.0185941 α      in ANC's #1, #67, #77, ...

........................................................................
.............................. CYCLE  120 ..............................
........................................................................

 iter      E             dE          RMSdq      gap      omega  full diag
   1   -398.2972431 -0.398297E+03  0.274E-02    0.01       0.0  T
   2   -397.9609253  0.336318E+00  0.758E-01    0.06       1.0  T
   3   -398.2566589 -0.295734E+00  0.281E-01    0.01       1.0  T
   4   -398.2890080 -0.323491E-01  0.151E-01    0.01       1.0  T
   5   -398.2943844 -0.537636E-02  0.830E-02    0.01       1.0  T
   6   -398.2968451 -0.246070E-02  0.385E-02    0.01       1.0  T
   7   -398.2973231 -0.478068E-03  0.168E-02    0.01       1.0  T
   8   -398.2973916 -0.684121E-04  0.105E-02    0.01       1.0  T
   9   -398.2972367  0.154816E-03  0.184E-02    0.01       1.0  T
  10   -398.2974178 -0.181063E-03  0.216E-03    0.01       3.0  T
  11   -398.2974164  0.141012E-05  0.251E-03    0.01       2.6  T
  12   -398.2974188 -0.238457E-05  0.133E-03    0.01       4.8  T
  13   -398.2974191 -0.359418E-06  0.744E-04    0.01       8.6  T
  14   -398.2974191  0.734315E-07  0.782E-04    0.01       8.2  T
     SCC iter.                  ...        0 min,  1.544 sec
     gradient                   ...        0 min,  0.656 sec
 * total energy  :  -388.9145272 Eh     change        0.4418407E-02 Eh
   gradient norm :     0.0011118 Eh/α   predicted    -0.1382485E-05 (-100.03%)
   displ. norm   :     0.0941182 α      lambda       -0.9523989E-05
   maximum displ.:     0.0645024 α      in ANC's #1, #67, #55, ...
 * RMSD in coord.:     0.0413909 α      energy gain   0.2792762E+00 Eh

generating ANC from exact Hessian ...
Using Lindh-Hessian (1995)
 Shifting diagonal of input Hessian by    1.4426206142615717E-002
 Lowest  eigenvalues of input Hessian
    0.010000    0.012723    0.014345    0.014393    0.014398    0.014401
    0.014411    0.000000    0.000000    0.000000    0.000000    0.000000
    0.000000    0.014444    0.014450    0.014469    0.014481    0.014495
 Highest eigenvalues
    2.813063    2.885288    3.472217    3.701183    4.057286    4.929208


........................................................................
.............................. CYCLE  121 ..............................
........................................................................

 iter      E             dE          RMSdq      gap      omega  full diag
   1   -398.2811513 -0.398281E+03  0.868E-02    0.01       0.0  T
   2   -397.6709207  0.610231E+00  0.103E+00    0.15       1.0  T
   3   -397.8702605 -0.199340E+00  0.919E-01    0.04       1.0  T
   4   -398.1482185 -0.277958E+00  0.542E-01    0.04       1.0  T
   5   -398.2356855 -0.874670E-01  0.306E-01    0.01       1.0  T
   6   -398.2748558 -0.391703E-01  0.144E-01    0.02       1.0  T
   7   -398.2801403 -0.528453E-02  0.821E-02    0.01       1.0  T
   8   -398.2685679  0.115724E-01  0.163E-01    0.01       1.0  T
   9   -398.2823396 -0.137717E-01  0.371E-02    0.01       1.0  T
  10   -398.2827084 -0.368770E-03  0.176E-02    0.01       1.0  T
  11   -398.2826966  0.117664E-04  0.164E-02    0.01       1.0  T
  12   -398.2826295  0.671291E-04  0.185E-02    0.01       1.0  T
  13   -398.2827518 -0.122256E-03  0.954E-03    0.01       1.0  T
  14   -398.2827350  0.167608E-04  0.109E-02    0.01       1.0  T
  15   -398.2827983 -0.633397E-04  0.118E-03    0.01       5.4  T
  16   -398.2827953  0.307512E-05  0.253E-03    0.01       2.5  T
  17   -398.2827986 -0.336520E-05  0.440E-04    0.01      14.6  T
  18   -398.2827987 -0.442278E-07  0.293E-04    0.01      21.9  T
  19   -398.2827983  0.387496E-06  0.878E-04    0.01       7.3  T
     SCC iter.                  ...        0 min,  2.097 sec
     gradient                   ...        0 min,  0.670 sec
 * total energy  :  -388.9097653 Eh     change        0.4761964E-02 Eh
   gradient norm :     0.0142468 Eh/α   predicted     0.0000000E+00 (-100.00%)
   displ. norm   :     0.0079844 α      lambda       -0.1109406E-03
   maximum displ.:     0.0051893 α      in ANC's #12, #44, #2, ...

........................................................................
.............................. CYCLE  122 ..............................
........................................................................

 iter      E             dE          RMSdq      gap      omega  full diag
   1   -398.2821801 -0.398282E+03  0.874E-03    0.01       0.0  T
   2   -398.0820275  0.200153E+00  0.628E-01    0.01       1.0  T
   3   -398.2812619 -0.199234E+00  0.455E-02    0.01       1.0  T
   4   -398.2818491 -0.587236E-03  0.304E-02    0.01       1.0  T
   5   -398.2795891  0.226000E-02  0.846E-02    0.01       1.0  T
   6   -398.2820942 -0.250511E-02  0.151E-02    0.01       1.0  T
   7   -398.2821979 -0.103654E-03  0.434E-03    0.01       1.5  T
   8   -398.2821994 -0.147323E-05  0.421E-03    0.01       1.5  T
   9   -398.2822043 -0.496654E-05  0.253E-03    0.01       2.5  T
  10   -398.2822071 -0.280530E-05  0.716E-04    0.01       9.0  T
  11   -398.2822064  0.767712E-06  0.137E-03    0.01       4.7  T
  12   -398.2822072 -0.809838E-06  0.602E-04    0.01      10.7  T
  13   -398.2822074 -0.182563E-06  0.138E-04    0.01      46.4  T
     SCC iter.                  ...        0 min,  1.435 sec
     gradient                   ...        0 min,  0.656 sec
 * total energy  :  -388.9094512 Eh     change        0.3140973E-03 Eh
   gradient norm :     0.0100604 Eh/α   predicted    -0.5638559E-04 (-117.95%)
   displ. norm   :     0.0216814 α      lambda       -0.2165543E-03
   maximum displ.:     0.0134039 α      in ANC's #12, #18, #44, ...

........................................................................
.............................. CYCLE  123 ..............................
........................................................................

 iter      E             dE          RMSdq      gap      omega  full diag
   1   -398.2796961 -0.398280E+03  0.234E-02    0.01       0.0  T
   2   -397.5587360  0.720960E+00  0.124E+00    0.10       1.0  T
   3   -398.2739952 -0.715259E+00  0.110E-01    0.01       1.0  T
   4   -398.2781579 -0.416267E-02  0.647E-02    0.01       1.0  T
   5   -398.2728775  0.528033E-02  0.146E-01    0.01       1.0  T
   6   -398.2789740 -0.609650E-02  0.422E-02    0.01       1.0  T
   7   -398.2796092 -0.635122E-03  0.234E-02    0.01       1.0  T
   8   -398.2796979 -0.887661E-04  0.201E-02    0.01       1.0  T
   9   -398.2798744 -0.176444E-03  0.750E-03    0.01       1.0  T
  10   -398.2798984 -0.240167E-04  0.255E-03    0.01       2.5  T
  11   -398.2798981  0.271145E-06  0.221E-03    0.01       2.9  T
  12   -398.2798998 -0.165470E-05  0.119E-03    0.01       5.4  T
  13   -398.2798997  0.285793E-07  0.107E-03    0.01       6.0  T
  14   -398.2798998 -0.275959E-07  0.970E-04    0.01       6.6  T
  15   -398.2799003 -0.490074E-06  0.203E-04    0.01      31.7  T
     SCC iter.                  ...        0 min,  1.667 sec
     gradient                   ...        0 min,  0.664 sec
 * total energy  :  -388.9083879 Eh     change        0.1063283E-02 Eh
   gradient norm :     0.0096010 Eh/α   predicted    -0.1083658E-03 (-110.19%)
   displ. norm   :     0.0159475 α      lambda       -0.9133804E-04
   maximum displ.:     0.0123599 α      in ANC's #18, #12, #44, ...

........................................................................
.............................. CYCLE  124 ..............................
........................................................................

 iter      E             dE          RMSdq      gap      omega  full diag
   1   -398.2776580 -0.398278E+03  0.161E-02    0.01       0.0  T
   2   -397.7718915  0.505767E+00  0.103E+00    0.05       1.0  T
   3   -398.2741492 -0.502258E+00  0.864E-02    0.01       1.0  T
   4   -398.2749418 -0.792554E-03  0.883E-02    0.01       1.0  T
   5   -398.2762705 -0.132870E-02  0.658E-02    0.01       1.0  T
   6   -398.2769333 -0.662844E-03  0.394E-02    0.01       1.0  T
   7   -398.2777260 -0.792729E-03  0.805E-03    0.01       1.0  T
   8   -398.2777200  0.600145E-05  0.873E-03    0.01       1.0  T
   9   -398.2777414 -0.213345E-04  0.518E-03    0.01       1.2  T
  10   -398.2777519 -0.105610E-04  0.246E-03    0.01       2.6  T
  11   -398.2777525 -0.578985E-06  0.205E-03    0.01       3.1  T
  12   -398.2777545 -0.201853E-05  0.544E-04    0.01      11.8  T
  13   -398.2777545 -0.844358E-08  0.369E-04    0.01      17.4  T
  14   -398.2777545 -0.183491E-09  0.274E-04    0.01      23.4  T
     SCC iter.                  ...        0 min,  1.570 sec
     gradient                   ...        0 min,  0.651 sec
 * total energy  :  -388.9077914 Eh     change        0.5965123E-03 Eh
   gradient norm :     0.0109627 Eh/α   predicted    -0.4621220E-04 (-107.75%)
   displ. norm   :     0.0429934 α      lambda       -0.2409359E-03
   maximum displ.:     0.0366923 α      in ANC's #18, #12, #44, ...

........................................................................
.............................. CYCLE  125 ..............................
........................................................................

 iter      E             dE          RMSdq      gap      omega  full diag
   1   -398.2709055 -0.398271E+03  0.428E-02    0.01       0.0  T
   2   -397.2481433  0.102276E+01  0.151E+00    0.21       1.0  T
   3   -398.2405029 -0.992360E+00  0.248E-01    0.01       1.0  T
   4   -398.2650216 -0.245187E-01  0.136E-01    0.01       1.0  T
   5   -398.2677310 -0.270950E-02  0.108E-01    0.01       1.0  T
   6   -398.2704252 -0.269412E-02  0.485E-02    0.01       1.0  T
   7   -398.2693518  0.107334E-02  0.638E-02    0.01       1.0  T
   8   -398.2706336 -0.128180E-02  0.432E-02    0.01       1.0  T
   9   -398.2715067 -0.873048E-03  0.131E-02    0.01       1.0  T
  10   -398.2715726 -0.659627E-04  0.537E-03    0.01       1.2  T
  11   -398.2715824 -0.980827E-05  0.227E-03    0.01       2.8  T
  12   -398.2715655  0.169177E-04  0.580E-03    0.01       1.1  T
  13   -398.2715719 -0.632856E-05  0.460E-03    0.01       1.4  T
  14   -398.2715829 -0.109968E-04  0.813E-04    0.01       7.9  T
  15   -398.2715827  0.119196E-06  0.867E-04    0.01       7.4  T
  16   -398.2715829 -0.210148E-06  0.546E-04    0.01      11.8  T
     SCC iter.                  ...        0 min,  1.787 sec
     gradient                   ...        0 min,  0.669 sec
 * total energy  :  -388.9079397 Eh     change       -0.1483065E-03 Eh
   gradient norm :     0.0100944 Eh/α   predicted    -0.1207013E-03 ( -18.61%)
   displ. norm   :     0.0271259 α      lambda       -0.1064053E-03
   maximum displ.:     0.0246414 α      in ANC's #18, #12, #52, ...

........................................................................
.............................. CYCLE  126 ..............................
........................................................................

 iter      E             dE          RMSdq      gap      omega  full diag
   1   -398.2673471 -0.398267E+03  0.251E-02    0.01       0.0  T
   2   -397.5821164  0.685231E+00  0.121E+00    0.09       1.0  T
   3   -398.2546134 -0.672497E+00  0.167E-01    0.01       1.0  T
   4   -398.2639284 -0.931502E-02  0.105E-01    0.01       1.0  T
   5   -398.2662302 -0.230179E-02  0.595E-02    0.01       1.0  T
   6   -398.2659323  0.297865E-03  0.559E-02    0.01       1.0  T
   7   -398.2674966 -0.156429E-02  0.121E-02    0.01       1.0  T
   8   -398.2674991 -0.252417E-05  0.118E-02    0.01       1.0  T
   9   -398.2674636  0.355241E-04  0.133E-02    0.01       1.0  T
  10   -398.2675451 -0.814737E-04  0.494E-03    0.01       1.3  T
  11   -398.2675561 -0.109684E-04  0.187E-03    0.01       3.4  T
  12   -398.2675564 -0.347677E-06  0.146E-03    0.01       4.4  T
  13   -398.2675563  0.110675E-06  0.137E-03    0.01       4.7  T
  14   -398.2675572 -0.888518E-06  0.247E-04    0.01      26.1  T
  15   -398.2675572 -0.244568E-07  0.150E-04    0.01      42.9  T
     SCC iter.                  ...        0 min,  1.675 sec
     gradient                   ...        0 min,  0.671 sec
 * total energy  :  -388.9096384 Eh     change       -0.1698685E-02 Eh
   gradient norm :     0.0051371 Eh/α   predicted    -0.5422699E-04 ( -96.81%)
   displ. norm   :     0.0083231 α      lambda       -0.2388634E-04
   maximum displ.:     0.0075455 α      in ANC's #18, #52, #2, ...

........................................................................
.............................. CYCLE  127 ..............................
........................................................................

 iter      E             dE          RMSdq      gap      omega  full diag
   1   -398.2663901 -0.398266E+03  0.650E-03    0.01       0.0  T
   2   -398.2250545  0.413357E-01  0.283E-01    0.01       1.0  T
   3   -398.2630659 -0.380115E-01  0.802E-02    0.01       1.0  T
   4   -398.2661369 -0.307098E-02  0.273E-02    0.01       1.0  T
   5   -398.2662255 -0.886117E-04  0.198E-02    0.01       1.0  T
   6   -398.2663394 -0.113821E-03  0.109E-02    0.01       1.0  T
   7   -398.2663910 -0.516670E-04  0.392E-03    0.01       1.6  T
   8   -398.2663978 -0.675055E-05  0.144E-03    0.01       4.5  T
   9   -398.2663969  0.862772E-06  0.175E-03    0.01       3.7  T
  10   -398.2663975 -0.571690E-06  0.139E-03    0.01       4.6  T
  11   -398.2663985 -0.971320E-06  0.290E-04    0.01      22.2  T
  12   -398.2663985 -0.269820E-07  0.129E-04    0.01      49.8  T
     SCC iter.                  ...        0 min,  1.353 sec
     gradient                   ...        0 min,  0.681 sec
 * total energy  :  -388.9108936 Eh     change       -0.1255182E-02 Eh
   gradient norm :     0.0015594 Eh/α   predicted    -0.1195280E-04 ( -99.05%)
   displ. norm   :     0.0028441 α      lambda       -0.1983055E-05
   maximum displ.:     0.0015903 α      in ANC's #12, #18, #23, ...

........................................................................
.............................. CYCLE  128 ..............................
........................................................................

 iter      E             dE          RMSdq      gap      omega  full diag
   1   -398.2666566 -0.398267E+03  0.393E-03    0.01       0.0  T
   2   -398.2244176  0.422391E-01  0.275E-01    0.01       1.0  T
   3   -398.2663581 -0.419405E-01  0.247E-02    0.01       1.0  T
   4   -398.2665910 -0.232927E-03  0.134E-02    0.01       1.0  T
   5   -398.2662545  0.336486E-03  0.331E-02    0.01       1.0  T
   6   -398.2666304 -0.375826E-03  0.782E-03    0.01       1.0  T
   7   -398.2666623 -0.319490E-04  0.900E-04    0.01       7.1  T
   8   -398.2666621  0.166813E-06  0.888E-04    0.01       7.2  T
   9   -398.2666622 -0.810602E-07  0.783E-04    0.01       8.2  T
     SCC iter.                  ...        0 min,  1.017 sec
     gradient                   ...        0 min,  0.664 sec
 * total energy  :  -388.9118313 Eh     change       -0.9377013E-03 Eh
   gradient norm :     0.0010585 Eh/α   predicted    -0.1093919E-05 ( -99.88%)
   displ. norm   :     0.0013161 α      lambda       -0.2348011E-06
   maximum displ.:     0.0010921 α      in ANC's #18, #75, #12, ...

........................................................................
.............................. CYCLE  129 ..............................
........................................................................

 iter      E             dE          RMSdq      gap      omega  full diag
   1   -398.2668300 -0.398267E+03  0.170E-03    0.01       0.0  T
   2   -398.2621286  0.470139E-02  0.935E-02    0.01       1.0  T
   3   -398.2665059 -0.437727E-02  0.248E-02    0.01       1.0  T
   4   -398.2667997 -0.293786E-03  0.935E-03    0.01       1.0  T
   5   -398.2668207 -0.209998E-04  0.482E-03    0.01       1.3  T
   6   -398.2668247 -0.405916E-05  0.346E-03    0.01       1.9  T
   7   -398.2668310 -0.629202E-05  0.486E-04    0.01      13.2  T
   8   -398.2668305  0.553754E-06  0.110E-03    0.01       5.9  T
   9   -398.2668311 -0.628408E-06  0.156E-04    0.01      41.3  T
  10   -398.2668311 -0.468060E-08  0.487E-05    0.01     132.0  T
     SCC iter.                  ...        0 min,  1.120 sec
     gradient                   ...        0 min,  0.659 sec
 * total energy  :  -388.9128700 Eh     change       -0.1038736E-02 Eh
   gradient norm :     0.0009059 Eh/α   predicted    -0.2678428E-06 ( -99.97%)
   displ. norm   :     0.0039683 α      lambda       -0.1860496E-05
   maximum displ.:     0.0028836 α      in ANC's #75, #18, #23, ...

........................................................................
.............................. CYCLE  130 ..............................
........................................................................

 iter      E             dE          RMSdq      gap      omega  full diag
   1   -398.2670962 -0.398267E+03  0.648E-03    0.01       0.0  T
   2   -398.1896896  0.774066E-01  0.375E-01    0.02       1.0  T
   3   -398.2626863 -0.729967E-01  0.917E-02    0.01       1.0  T
   4   -398.2664520 -0.376567E-02  0.403E-02    0.01       1.0  T
   5   -398.2669584 -0.506375E-03  0.189E-02    0.01       1.0  T
   6   -398.2670368 -0.784697E-04  0.120E-02    0.01       1.0  T
   7   -398.2671125 -0.756907E-04  0.174E-03    0.01       3.7  T
   8   -398.2671119  0.637073E-06  0.188E-03    0.01       3.4  T
   9   -398.2671135 -0.160326E-05  0.428E-04    0.01      15.0  T
  10   -398.2671135 -0.327370E-07  0.239E-04    0.01      26.9  T
  11   -398.2671135 -0.825315E-08  0.953E-05    0.01      67.5  T
     SCC iter.                  ...        0 min,  1.219 sec
     gradient                   ...        0 min,  0.670 sec
 * total energy  :  -388.9185798 Eh     change       -0.5709811E-02 Eh
   gradient norm :     0.0012574 Eh/α   predicted    -0.9836368E-06 ( -99.98%)
   displ. norm   :     0.0068239 α      lambda       -0.2696799E-05
   maximum displ.:     0.0059568 α      in ANC's #75, #18, #53, ...

........................................................................
.............................. CYCLE  131 ..............................
........................................................................

 iter      E             dE          RMSdq      gap      omega  full diag
   1   -398.2672008 -0.398267E+03  0.113E-02    0.01       0.0  T
   2   -398.0744920  0.192709E+00  0.588E-01    0.03       1.0  T
   3   -398.2538998 -0.179408E+00  0.160E-01    0.01       1.0  T
   4   -398.2645708 -0.106710E-01  0.777E-02    0.01       1.0  T
   5   -398.2668488 -0.227802E-02  0.305E-02    0.01       1.0  T
   6   -398.2670904 -0.241520E-03  0.176E-02    0.01       1.0  T
   7   -398.2672491 -0.158759E-03  0.350E-03    0.01       1.8  T
   8   -398.2672520 -0.282318E-05  0.222E-03    0.01       2.9  T
   9   -398.2672530 -0.100528E-05  0.116E-03    0.01       5.5  T
  10   -398.2672533 -0.307735E-06  0.738E-04    0.01       8.7  T
  11   -398.2672534 -0.133092E-06  0.398E-04    0.01      16.2  T
     SCC iter.                  ...        0 min,  1.243 sec
     gradient                   ...        0 min,  0.651 sec
 * total energy  :  -388.9298001 Eh     change       -0.1122024E-01 Eh
   gradient norm :     0.0021337 Eh/α   predicted    -0.1371420E-05 ( -99.99%)
   displ. norm   :     0.0145406 α      lambda       -0.8613384E-05
   maximum displ.:     0.0130988 α      in ANC's #75, #53, #54, ...

........................................................................
.............................. CYCLE  132 ..............................
........................................................................

 iter      E             dE          RMSdq      gap      omega  full diag
   1   -398.2670636 -0.398267E+03  0.233E-02    0.01       0.0  T
   2   -397.8471454  0.419918E+00  0.868E-01    0.04       1.0  T
   3   -398.2099950 -0.362850E+00  0.334E-01    0.01       1.0  T
   4   -398.2500819 -0.400868E-01  0.186E-01    0.01       1.0  T
   5   -398.2663280 -0.162461E-01  0.468E-02    0.01       1.0  T
   6   -398.2668483 -0.520350E-03  0.291E-02    0.01       1.0  T
   7   -398.2672629 -0.414598E-03  0.798E-03    0.01       1.0  T
   8   -398.2672488  0.141732E-04  0.877E-03    0.01       1.0  T
   9   -398.2672737 -0.249755E-04  0.487E-03    0.01       1.3  T
  10   -398.2672850 -0.112749E-04  0.162E-03    0.01       4.0  T
  11   -398.2672853 -0.324415E-06  0.119E-03    0.01       5.4  T
  12   -398.2672857 -0.357613E-06  0.517E-04    0.01      12.4  T
  13   -398.2672857  0.367078E-07  0.511E-04    0.01      12.6  T
     SCC iter.                  ...        0 min,  1.461 sec
     gradient                   ...        0 min,  0.669 sec
 * total energy  :  -388.9532234 Eh     change       -0.2342337E-01 Eh
   gradient norm :     0.0033275 Eh/α   predicted    -0.4350091E-05 ( -99.98%)
   displ. norm   :     0.0561143 α      lambda       -0.3099597E-04
   maximum displ.:     0.0509425 α      in ANC's #75, #53, #54, ...

........................................................................
.............................. CYCLE  133 ..............................
........................................................................

 iter      E             dE          RMSdq      gap      omega  full diag
   1   -398.2640975 -0.398264E+03  0.816E-02    0.01       0.0  T
   2   -397.6734403  0.590657E+00  0.107E+00    0.06       1.0  T
   3   -397.9899062 -0.316466E+00  0.785E-01    0.01       1.0  T
   4   -397.9214240  0.684823E-01  0.775E-01    0.07       1.0  T
   5   -398.2624294 -0.341005E+00  0.103E-01    0.01       1.0  T
   6   -398.2645714 -0.214198E-02  0.663E-02    0.01       1.0  T
   7   -398.2639663  0.605097E-03  0.726E-02    0.01       1.0  T
   8   -398.2658540 -0.188771E-02  0.426E-02    0.01       1.0  T
   9   -398.2647085  0.114548E-02  0.609E-02    0.01       1.0  T
  10   -398.2657936 -0.108509E-02  0.415E-02    0.01       1.0  T
  11   -398.2666498 -0.856181E-03  0.135E-02    0.01       1.0  T
  12   -398.2666866 -0.367962E-04  0.106E-02    0.01       1.0  T
  13   -398.2667312 -0.445918E-04  0.501E-03    0.01       1.3  T
  14   -398.2667262  0.496651E-05  0.517E-03    0.01       1.2  T
  15   -398.2667361 -0.984525E-05  0.264E-03    0.01       2.4  T
  16   -398.2667395 -0.346275E-05  0.611E-04    0.01      10.5  T
  17   -398.2667396 -0.548423E-07  0.268E-04    0.01      24.0  T
  18   -398.2667396  0.182397E-07  0.314E-04    0.01      20.5  T
     SCC iter.                  ...        0 min,  2.016 sec
     gradient                   ...        0 min,  0.665 sec
 * total energy  :  -389.0314941 Eh     change       -0.7827068E-01 Eh
   gradient norm :     0.0067003 Eh/α   predicted    -0.1558942E-04 ( -99.98%)
   displ. norm   :     0.0662240 α      lambda       -0.3111006E-04
   maximum displ.:     0.0604625 α      in ANC's #75, #53, #54, ...

........................................................................
.............................. CYCLE  134 ..............................
........................................................................

 iter      E             dE          RMSdq      gap      omega  full diag
   1   -398.2616640 -0.398262E+03  0.926E-02    0.01       0.0  T
   2   -397.6727806  0.588883E+00  0.105E+00    0.06       1.0  T
   3   -397.8216353 -0.148855E+00  0.989E-01    0.03       1.0  T
   4   -397.8832289 -0.615936E-01  0.819E-01    0.08       1.0  T
   5   -398.2561569 -0.372928E+00  0.142E-01    0.01       1.0  T
   6   -398.2625789 -0.642207E-02  0.710E-02    0.01       1.0  T
   7   -398.2618178  0.761114E-03  0.785E-02    0.01       1.0  T
   8   -398.2633042 -0.148643E-02  0.584E-02    0.01       1.0  T
   9   -398.2612402  0.206408E-02  0.828E-02    0.01       1.0  T
  10   -398.2638949 -0.265469E-02  0.451E-02    0.01       1.0  T
  11   -398.2649132 -0.101831E-02  0.146E-02    0.01       1.0  T
  12   -398.2649358 -0.226394E-04  0.130E-02    0.01       1.0  T
  13   -398.2649912 -0.553532E-04  0.739E-03    0.01       1.0  T
  14   -398.2650007 -0.952728E-05  0.526E-03    0.01       1.2  T
  15   -398.2650110 -0.103213E-04  0.222E-03    0.01       2.9  T
  16   -398.2650123 -0.130511E-05  0.116E-03    0.01       5.5  T
  17   -398.2650126 -0.328583E-06  0.569E-04    0.01      11.3  T
  18   -398.2650128 -0.124001E-06  0.287E-04    0.01      22.4  T
     SCC iter.                  ...        0 min,  2.033 sec
     gradient                   ...        0 min,  0.657 sec
 * total energy  :  -389.1027521 Eh     change       -0.7125796E-01 Eh
   gradient norm :     0.0089753 Eh/α   predicted    -0.1572021E-04 ( -99.98%)
   displ. norm   :     0.2059689 α      lambda       -0.1053081E-03
   maximum displ.:     0.1883972 α      in ANC's #75, #53, #54, ...

........................................................................
.............................. CYCLE  135 ..............................
........................................................................

 iter      E             dE          RMSdq      gap      omega  full diag
   1   -398.2366059 -0.398237E+03  0.237E-01    0.01       0.0  T
   2   -397.2815494  0.955057E+00  0.136E+00    0.07       1.0  T
   3   -397.5261573 -0.244608E+00  0.124E+00    0.08       1.0  T
   4   -397.5777559 -0.515986E-01  0.124E+00    0.07       1.0  T
   5   -398.1345678 -0.556812E+00  0.474E-01    0.02       1.0  T
   6   -398.2294139 -0.948461E-01  0.241E-01    0.02       1.0  T
   7   -398.2532858 -0.238719E-01  0.797E-02    0.02       1.0  T
   8   -398.2369704  0.163153E-01  0.183E-01    0.01       1.0  T
   9   -398.2310695  0.590094E-02  0.216E-01    0.02       1.0  T
  10   -398.2523088 -0.212393E-01  0.763E-02    0.01       1.0  T
  11   -398.2550618 -0.275299E-02  0.247E-02    0.01       1.0  T
  12   -398.2548258  0.235990E-03  0.304E-02    0.01       1.0  T
  13   -398.2552745 -0.448664E-03  0.102E-02    0.01       1.0  T
  14   -398.2552762 -0.178066E-05  0.104E-02    0.01       1.0  T
  15   -398.2552812 -0.491939E-05  0.930E-03    0.01       1.0  T
  16   -398.2552772  0.399510E-05  0.870E-03    0.01       1.0  T
  17   -398.2552142  0.629867E-04  0.137E-02    0.01       1.0  T
  18   -398.2553097 -0.955499E-04  0.337E-03    0.01       1.9  T
  19   -398.2553139 -0.420035E-05  0.161E-03    0.01       4.0  T
  20   -398.2553147 -0.768933E-06  0.109E-03    0.01       5.9  T
  21   -398.2553148 -0.944543E-07  0.100E-03    0.01       6.4  T
  22   -398.2553153 -0.536058E-06  0.107E-04    0.01      60.0  T
     SCC iter.                  ...        0 min,  2.464 sec
     gradient                   ...        0 min,  0.676 sec
 * total energy  :  -389.2303429 Eh     change       -0.1275909E+00 Eh
   gradient norm :     0.0128145 Eh/α   predicted    -0.5514328E-04 ( -99.96%)
   displ. norm   :     0.3815073 α      lambda       -0.1963542E-03
   maximum displ.:     0.3491795 α      in ANC's #75, #53, #54, ...

........................................................................
.............................. CYCLE  136 ..............................
........................................................................

 iter      E             dE          RMSdq      gap      omega  full diag
   1   -398.1892287 -0.398189E+03  0.367E-01    0.01       0.0  T
   2   -396.9439303  0.124530E+01  0.155E+00    0.09       1.0  T
   3   -396.9917764 -0.478461E-01  0.169E+00    0.35       1.0  T
   4   -397.5124109 -0.520635E+00  0.125E+00    0.08       1.0  T
   5   -397.7013278 -0.188917E+00  0.974E-01    0.13       1.0  T
   6   -398.2211412 -0.519813E+00  0.217E-01    0.03       1.0  T
   7   -398.1697068  0.514344E-01  0.351E-01    0.02       1.0  T
   8   -398.1234475  0.462593E-01  0.437E-01    0.01       1.0  T
   9   -398.2143846 -0.909371E-01  0.189E-01    0.02       1.0  T
  10   -398.2233154 -0.893078E-02  0.998E-02    0.02       1.0  T
  11   -398.2236277 -0.312305E-03  0.945E-02    0.02       1.0  T
  12   -398.2253737 -0.174597E-02  0.676E-02    0.02       1.0  T
  13   -398.2247852  0.588500E-03  0.716E-02    0.02       1.0  T
  14   -398.2263368 -0.155163E-02  0.450E-02    0.02       1.0  T
  15   -398.2267119 -0.375155E-03  0.311E-02    0.02       1.0  T
  16   -398.2258948  0.817116E-03  0.468E-02    0.02       1.0  T
  17   -398.2265614 -0.666597E-03  0.300E-02    0.02       1.0  T
  18   -398.2270147 -0.453224E-03  0.710E-03    0.02       1.0  T
  19   -398.2269713  0.433101E-04  0.103E-02    0.02       1.0  T
  20   -398.2270255 -0.541300E-04  0.213E-03    0.02       3.0  T
  21   -398.2270236  0.184338E-05  0.269E-03    0.02       2.4  T
  22   -398.2270273 -0.367181E-05  0.796E-04    0.02       8.1  T
  23   -398.2270263  0.102502E-05  0.152E-03    0.02       4.2  T
  24   -398.2270273 -0.104096E-05  0.550E-04    0.02      11.7  T
  25   -398.2270273 -0.185845E-07  0.511E-04    0.02      12.6  T
  26   -398.2270275 -0.129412E-06  0.156E-04    0.02      41.3  T
     SCC iter.                  ...        0 min,  2.927 sec
     gradient                   ...        0 min,  0.659 sec
 * total energy  :  -389.3071042 Eh     change       -0.7676124E-01 Eh
   gradient norm :     0.0156485 Eh/α   predicted    -0.1125253E-03 ( -99.85%)
   displ. norm   :     0.6928672 α      lambda       -0.4001693E-03
   maximum displ.:     0.6338953 α      in ANC's #75, #53, #54, ...

........................................................................
.............................. CYCLE  137 ..............................
........................................................................

 iter      E             dE          RMSdq      gap      omega  full diag
   1   -398.1444576 -0.398144E+03  0.478E-01    0.01       0.0  T
   2   -397.1666499  0.977808E+00  0.136E+00    0.05       1.0  T
   3   -397.0059580  0.160692E+00  0.162E+00    0.35       1.0  T
   4   -397.2456067 -0.239649E+00  0.141E+00    0.20       1.0  T
   5   -397.5707792 -0.325173E+00  0.106E+00    0.13       1.0  T
   6   -397.4570707  0.113708E+00  0.125E+00    0.05       1.0  T
   7   -397.8634239 -0.406353E+00  0.828E-01    0.01       1.0  T
   8   -398.1011052 -0.237681E+00  0.417E-01    0.01       1.0  T
   9   -398.1549952 -0.538900E-01  0.259E-01    0.02       1.0  T
  10   -398.1763737 -0.213785E-01  0.889E-02    0.02       1.0  T
  11   -398.1411430  0.352307E-01  0.270E-01    0.01       1.0  T
  12   -398.0501027  0.910404E-01  0.476E-01    0.03       1.0  T
  13   -398.1417624 -0.916597E-01  0.258E-01    0.01       1.0  T
  14   -398.1624564 -0.206940E-01  0.169E-01    0.00       1.0  T
  15   -398.1778451 -0.153887E-01  0.228E-02    0.01       1.0  T
  16   -398.1779231 -0.779626E-04  0.122E-02    0.01       1.0  T
  17   -398.1773883  0.534777E-03  0.339E-02    0.02       1.0  T
  18   -398.1778654 -0.477159E-03  0.128E-02    0.02       1.0  T
  19   -398.1777836  0.818097E-04  0.176E-02    0.02       1.0  T
  20   -398.1779005 -0.116910E-03  0.958E-03    0.02       1.0  T
  21   -398.1779423 -0.417438E-04  0.368E-03    0.02       1.7  T
  22   -398.1779340  0.824577E-05  0.537E-03    0.01       1.2  T
  23   -398.1779471 -0.130592E-04  0.212E-03    0.01       3.0  T
  24   -398.1779478 -0.725995E-06  0.177E-03    0.01       3.6  T
  25   -398.1779495 -0.162616E-05  0.280E-04    0.01      23.0  T
  26   -398.1779491  0.376547E-06  0.887E-04    0.01       7.2  T
  27   -398.1779491 -0.433982E-07  0.837E-04    0.01       7.7  T
     SCC iter.                  ...        0 min,  3.037 sec
     gradient                   ...        0 min,  0.665 sec
 * total energy  :  -389.3228568 Eh     change       -0.1575266E-01 Eh
   gradient norm :     0.0189742 Eh/α   predicted    -0.2963772E-03 ( -98.12%)
   displ. norm   :     0.6570267 α      lambda       -0.5425066E-03
   maximum displ.:     0.6003699 α      in ANC's #75, #53, #54, ...

........................................................................
.............................. CYCLE  138 ..............................
........................................................................

 iter      E             dE          RMSdq      gap      omega  full diag
   1   -398.0712659 -0.398071E+03  0.903E-01    0.01       0.0  T
   2   -394.3941271  0.367714E+01  0.309E+00    0.30       1.0  T
   3   -397.2834099 -0.288928E+01  0.144E+00    0.10       1.0  T
   4   -395.9149397  0.136847E+01  0.238E+00    0.06       1.0  T
   5   -397.3426655 -0.142773E+01  0.142E+00    0.02       1.0  T
   6   -397.7547737 -0.412108E+00  0.116E+00    0.01       1.0  T
   7   -397.6104896  0.144284E+00  0.116E+00    0.04       1.0  T
   8   -398.0236807 -0.413191E+00  0.663E-01    0.07       1.0  T
   9   -397.8423269  0.181354E+00  0.100E+00    0.01       1.0  T
  10   -398.1501488 -0.307822E+00  0.516E-01    0.04       1.0  T
  11   -398.1180548  0.320939E-01  0.563E-01    0.03       1.0  T
  12   -398.0014030  0.116652E+00  0.678E-01    0.02       1.0  T
  13   -398.1887243 -0.187321E+00  0.290E-01    0.01       1.0  T
  14   -398.1994625 -0.107382E-01  0.257E-01    0.03       1.0  T
  15   -398.2072455 -0.778310E-02  0.200E-01    0.01       1.0  T
  16   -398.1604727  0.467728E-01  0.355E-01    0.00       1.0  T
  17   -398.2066036 -0.461309E-01  0.222E-01    0.03       1.0  T
  18   -398.2179656 -0.113620E-01  0.145E-01    0.03       1.0  T
  19   -398.2160433  0.192232E-02  0.142E-01    0.02       1.0  T
  20   -398.2250011 -0.895785E-02  0.269E-02    0.03       1.0  T
  21   -398.2252206 -0.219514E-03  0.145E-02    0.03       1.0  T
  22   -398.2251526  0.679948E-04  0.217E-02    0.03       1.0  T
  23   -398.2252841 -0.131466E-03  0.112E-02    0.03       1.0  T
  24   -398.2252955 -0.113549E-04  0.100E-02    0.03       1.0  T
  25   -398.2252376  0.578171E-04  0.136E-02    0.03       1.0  T
  26   -398.2253309 -0.932320E-04  0.196E-03    0.03       3.3  T
  27   -398.2253315 -0.666355E-06  0.170E-03    0.03       3.8  T
  28   -398.2253269  0.462670E-05  0.352E-03    0.03       1.8  T
  29   -398.2253309 -0.396521E-05  0.225E-03    0.03       2.9  T
  30   -398.2253320 -0.113079E-05  0.126E-03    0.03       5.1  T
  31   -398.2253324 -0.392051E-06  0.816E-04    0.03       7.9  T
  32   -398.2253326 -0.230324E-06  0.236E-04    0.03      27.2  T
     SCC iter.                  ...        0 min,  3.673 sec
     gradient                   ...        0 min,  0.682 sec
 * total energy  :  -389.3067883 Eh     change        0.1606854E-01 Eh
   gradient norm :     0.0300708 Eh/α   predicted    -0.3887007E-03 (-102.42%)
   displ. norm   :     0.1081527 α      lambda       -0.7075119E-03
   maximum displ.:     0.0908268 α      in ANC's #75, #70, #44, ...

........................................................................
.............................. CYCLE  139 ..............................
........................................................................

 iter      E             dE          RMSdq      gap      omega  full diag
   1   -398.2243346 -0.398224E+03  0.770E-02    0.03       0.0  T
   2   -397.5706789  0.653656E+00  0.120E+00    0.07       1.0  T
   3   -397.9325533 -0.361874E+00  0.848E-01    0.04       1.0  T
   4   -398.0963707 -0.163817E+00  0.538E-01    0.02       1.0  T
   5   -398.1799721 -0.836013E-01  0.300E-01    0.01       1.0  T
   6   -398.2205547 -0.405826E-01  0.105E-01    0.03       1.0  T
   7   -398.2159426  0.461206E-02  0.149E-01    0.03       1.0  T
   8   -398.2256712 -0.972857E-02  0.345E-02    0.03       1.0  T
   9   -398.2259166 -0.245395E-03  0.200E-02    0.03       1.0  T
  10   -398.2258321  0.844357E-04  0.244E-02    0.03       1.0  T
  11   -398.2254654  0.366783E-03  0.348E-02    0.03       1.0  T
  12   -398.2260173 -0.551905E-03  0.986E-03    0.03       1.0  T
  13   -398.2260200 -0.274821E-05  0.970E-03    0.03       1.0  T
  14   -398.2260510 -0.309592E-04  0.292E-03    0.03       2.2  T
  15   -398.2260541 -0.309047E-05  0.990E-04    0.03       6.5  T
  16   -398.2260544 -0.339450E-06  0.502E-04    0.03      12.8  T
  17   -398.2260529  0.149182E-05  0.176E-03    0.03       3.7  T
  18   -398.2260543 -0.134027E-05  0.724E-04    0.03       8.9  T
  19   -398.2260545 -0.210579E-06  0.329E-04    0.03      19.6  T
     SCC iter.                  ...        0 min,  2.162 sec
     gradient                   ...        0 min,  0.668 sec
 * total energy  :  -389.3061205 Eh     change        0.6677926E-03 Eh
   gradient norm :     0.0218141 Eh/α   predicted    -0.3580346E-03 (-153.61%)
   displ. norm   :     0.0404169 α      lambda       -0.2476159E-03
   maximum displ.:     0.0350171 α      in ANC's #75, #53, #23, ...

........................................................................
.............................. CYCLE  140 ..............................
........................................................................

 iter      E             dE          RMSdq      gap      omega  full diag
   1   -398.2258547 -0.398226E+03  0.339E-02    0.03       0.0  T
   2   -397.9110633  0.314791E+00  0.785E-01    0.02       1.0  T
   3   -397.9115718 -0.508485E-03  0.817E-01    0.03       1.0  T
   4   -398.2196912 -0.308119E+00  0.143E-01    0.03       1.0  T
   5   -398.2233781 -0.368686E-02  0.775E-02    0.03       1.0  T
   6   -398.2248060 -0.142791E-02  0.579E-02    0.03       1.0  T
   7   -398.2258970 -0.109106E-02  0.277E-02    0.03       1.0  T
   8   -398.2253978  0.499250E-03  0.398E-02    0.03       1.0  T
   9   -398.2261415 -0.743701E-03  0.121E-02    0.03       1.0  T
  10   -398.2261110  0.304632E-04  0.131E-02    0.03       1.0  T
  11   -398.2261548 -0.437643E-04  0.904E-03    0.03       1.0  T
  12   -398.2261690 -0.141752E-04  0.727E-03    0.03       1.0  T
  13   -398.2261951 -0.260995E-04  0.210E-03    0.03       3.1  T
  14   -398.2261969 -0.186592E-05  0.105E-03    0.03       6.1  T
  15   -398.2261970 -0.585677E-07  0.818E-04    0.03       7.9  T
  16   -398.2261973 -0.332088E-06  0.140E-04    0.03      45.9  T
     SCC iter.                  ...        0 min,  1.837 sec
     gradient                   ...        0 min,  0.679 sec
 * total energy  :  -389.3031849 Eh     change        0.2935575E-02 Eh
   gradient norm :     0.0121853 Eh/α   predicted    -0.1246443E-03 (-104.25%)
   displ. norm   :     0.3027571 α      lambda       -0.2357170E-03
   maximum displ.:     0.2777331 α      in ANC's #75, #53, #54, ...

........................................................................
.............................. CYCLE  141 ..............................
........................................................................

 iter      E             dE          RMSdq      gap      omega  full diag
   1   -398.2153458 -0.398215E+03  0.203E-01    0.01       0.0  T
   2   -396.8456259  0.136972E+01  0.163E+00    0.23       1.0  T
   3   -397.7168720 -0.871246E+00  0.105E+00    0.06       1.0  T
   4   -397.9316827 -0.214811E+00  0.787E-01    0.03       1.0  T
   5   -397.8173285  0.114354E+00  0.838E-01    0.03       1.0  T
   6   -398.0808429 -0.263514E+00  0.535E-01    0.06       1.0  T
   7   -398.1470745 -0.662316E-01  0.398E-01    0.04       1.0  T
   8   -398.2212773 -0.742027E-01  0.111E-01    0.03       1.0  T
   9   -398.2202241  0.105321E-02  0.117E-01    0.03       1.0  T
  10   -398.1751140  0.451101E-01  0.309E-01    0.05       1.0  T
  11   -398.2030013 -0.278873E-01  0.211E-01    0.04       1.0  T
  12   -398.2172243 -0.142230E-01  0.133E-01    0.04       1.0  T
  13   -398.2247881 -0.756384E-02  0.582E-02    0.03       1.0  T
  14   -398.2255083 -0.720147E-03  0.449E-02    0.03       1.0  T
  15   -398.2261389 -0.630577E-03  0.313E-02    0.03       1.0  T
  16   -398.2261492 -0.103268E-04  0.291E-02    0.03       1.0  T
  17   -398.2264274 -0.278172E-03  0.142E-02    0.03       1.0  T
  18   -398.2265194 -0.919904E-04  0.167E-03    0.03       3.8  T
  19   -398.2265162  0.315632E-05  0.304E-03    0.03       2.1  T
  20   -398.2265188 -0.264739E-05  0.161E-03    0.03       4.0  T
  21   -398.2265199 -0.110152E-05  0.759E-04    0.03       8.5  T
  22   -398.2265200 -0.266764E-07  0.670E-04    0.03       9.6  T
  23   -398.2265201 -0.821100E-07  0.385E-04    0.03      16.7  T
     SCC iter.                  ...        0 min,  2.711 sec
     gradient                   ...        0 min,  0.564 sec
 * total energy  :  -389.2350035 Eh     change        0.6818147E-01 Eh
   gradient norm :     0.0108158 Eh/α   predicted    -0.1299397E-03 (-100.19%)
   displ. norm   :     0.8135063 α      lambda       -0.5574336E-03
   maximum displ.:     0.7482843 α      in ANC's #75, #53, #54, ...

........................................................................
.............................. CYCLE  142 ..............................
........................................................................

 iter      E             dE          RMSdq      gap      omega  full diag
   1   -398.0222735 -0.398022E+03  0.757E-01    0.02       0.0  T
   2   -393.3604979  0.466178E+01  0.334E+00    0.05       1.0  T
   3   -397.2639658 -0.390347E+01  0.142E+00    0.11       1.0  T
   4   -396.2157075  0.104826E+01  0.217E+00    0.13       1.0  T
   5   -397.4481338 -0.123243E+01  0.131E+00    0.06       1.0  T
   6   -397.6083208 -0.160187E+00  0.108E+00    0.02       1.0  T
   7   -398.1047306 -0.496410E+00  0.485E-01    0.03       1.0  T
   8   -398.1165203 -0.117897E-01  0.380E-01    0.01       1.0  T
   9   -398.1293220 -0.128017E-01  0.374E-01    0.01       1.0  T
  10   -398.1712318 -0.419098E-01  0.175E-01    0.02       1.0  T
  11   -398.1672841  0.394770E-02  0.180E-01    0.01       1.0  T
  12   -398.1764283 -0.914424E-02  0.107E-01    0.02       1.0  T
  13   -398.1749529  0.147546E-02  0.119E-01    0.01       1.0  T
  14   -398.1420994  0.328535E-01  0.269E-01    0.01       1.0  T
  15   -398.1785317 -0.364323E-01  0.514E-02    0.02       1.0  T
  16   -398.1747864  0.374532E-02  0.994E-02    0.02       1.0  T
  17   -398.1789899 -0.420355E-02  0.358E-02    0.02       1.0  T
  18   -398.1791857 -0.195722E-03  0.300E-02    0.02       1.0  T
  19   -398.1795691 -0.383480E-03  0.131E-02    0.02       1.0  T
  20   -398.1796167 -0.475888E-04  0.992E-03    0.01       1.0  T
  21   -398.1796208 -0.404829E-05  0.826E-03    0.02       1.0  T
  22   -398.1796468 -0.260113E-04  0.422E-03    0.01       1.5  T
  23   -398.1796507 -0.388644E-05  0.342E-03    0.01       1.9  T
  24   -398.1796377  0.130004E-04  0.594E-03    0.01       1.1  T
  25   -398.1796485 -0.108155E-04  0.382E-03    0.01       1.7  T
  26   -398.1796546 -0.609914E-05  0.180E-03    0.01       3.6  T
  27   -398.1796563 -0.167379E-05  0.356E-04    0.01      18.0  T
  28   -398.1796560  0.299299E-06  0.820E-04    0.01       7.8  T
  29   -398.1796562 -0.223570E-06  0.504E-04    0.01      12.8  T
     SCC iter.                  ...        0 min,  2.703 sec
     gradient                   ...        0 min,  0.561 sec
 * total energy  :  -389.0914018 Eh     change        0.1436017E+00 Eh
   gradient norm :     0.0347917 Eh/α   predicted    -0.4760212E-03 (-100.33%)
   displ. norm   :     0.0609563 α      lambda       -0.5635185E-03
   maximum displ.:     0.0538887 α      in ANC's #75, #18, #53, ...

........................................................................
.............................. CYCLE  143 ..............................
........................................................................

 iter      E             dE          RMSdq      gap      omega  full diag
   1   -398.1664829 -0.398166E+03  0.132E-01    0.01       0.0  T
   2   -396.3267706  0.183971E+01  0.214E+00    0.03       1.0  T
   3   -397.5616270 -0.123486E+01  0.112E+00    0.04       1.0  T
   4   -397.9918404 -0.430213E+00  0.599E-01    0.02       1.0  T
   5   -398.1379615 -0.146121E+00  0.314E-01    0.02       1.0  T
   6   -398.1684602 -0.304986E-01  0.113E-01    0.01       1.0  T
   7   -398.1682025  0.257661E-03  0.977E-02    0.01       1.0  T
   8   -398.1688742 -0.671628E-03  0.918E-02    0.02       1.0  T
   9   -398.1698643 -0.990163E-03  0.797E-02    0.02       1.0  T
  10   -398.1725650 -0.270071E-02  0.342E-02    0.01       1.0  T
  11   -398.1726775 -0.112490E-03  0.248E-02    0.01       1.0  T
  12   -398.1728944 -0.216839E-03  0.139E-02    0.01       1.0  T
  13   -398.1728741  0.202632E-04  0.136E-02    0.01       1.0  T
  14   -398.1729477 -0.735636E-04  0.757E-03    0.01       1.0  T
  15   -398.1729607 -0.130674E-04  0.525E-03    0.01       1.2  T
  16   -398.1729691 -0.834224E-05  0.219E-03    0.01       2.9  T
  17   -398.1729690  0.343956E-07  0.229E-03    0.01       2.8  T
  18   -398.1729712 -0.215611E-05  0.273E-04    0.01      23.6  T
  19   -398.1729712 -0.108382E-07  0.148E-04    0.01      43.3  T
  20   -398.1729712 -0.339747E-08  0.987E-05    0.01      65.1  T
     SCC iter.                  ...        0 min,  1.878 sec
     gradient                   ...        0 min,  0.549 sec
 * total energy  :  -389.1084632 Eh     change       -0.1706144E-01 Eh
   gradient norm :     0.0295810 Eh/α   predicted    -0.2789781E-03 ( -98.36%)
   displ. norm   :     0.0577370 α      lambda       -0.1015728E-02
   maximum displ.:     0.0467058 α      in ANC's #75, #18, #53, ...

........................................................................
.............................. CYCLE  144 ..............................
........................................................................

 iter      E             dE          RMSdq      gap      omega  full diag
   1   -398.1715762 -0.398172E+03  0.108E-01    0.02       0.0  T
   2   -397.5668784  0.604698E+00  0.104E+00    0.05       1.0  T
   3   -397.9346242 -0.367746E+00  0.714E-01    0.01       1.0  T
   4   -397.9008668  0.337574E-01  0.700E-01    0.09       1.0  T
   5   -398.1461095 -0.245243E+00  0.277E-01    0.02       1.0  T
   6   -398.1663772 -0.202677E-01  0.135E-01    0.02       1.0  T
   7   -398.1696327 -0.325554E-02  0.110E-01    0.01       1.0  T
   8   -398.1697988 -0.166024E-03  0.107E-01    0.01       1.0  T
   9   -398.1753691 -0.557032E-02  0.310E-02    0.01       1.0  T
  10   -398.1714468  0.392230E-02  0.915E-02    0.02       1.0  T
  11   -398.1730128 -0.156606E-02  0.727E-02    0.02       1.0  T
  12   -398.1749780 -0.196515E-02  0.389E-02    0.02       1.0  T
  13   -398.1756345 -0.656488E-03  0.168E-02    0.01       1.0  T
  14   -398.1757493 -0.114837E-03  0.856E-03    0.01       1.0  T
  15   -398.1757793 -0.300257E-04  0.399E-03    0.01       1.6  T
  16   -398.1757648  0.144955E-04  0.623E-03    0.01       1.0  T
  17   -398.1757856 -0.207777E-04  0.638E-04    0.01      10.1  T
  18   -398.1757851  0.550218E-06  0.114E-03    0.01       5.7  T
  19   -398.1757857 -0.679287E-06  0.194E-04    0.01      33.1  T
  20   -398.1757857  0.192695E-07  0.250E-04    0.01      25.7  T
     SCC iter.                  ...        0 min,  1.891 sec
     gradient                   ...        0 min,  0.558 sec
 * total energy  :  -389.1302418 Eh     change       -0.2177855E-01 Eh
   gradient norm :     0.0175369 Eh/α   predicted    -0.2561292E-03 ( -98.82%)
   displ. norm   :     0.1370395 α      lambda       -0.1811199E-02
   maximum displ.:     0.1181238 α      in ANC's #75, #18, #53, ...

........................................................................
.............................. CYCLE  145 ..............................
........................................................................

 iter      E             dE          RMSdq      gap      omega  full diag
   1   -398.1313238 -0.398131E+03  0.273E-01    0.01       0.0  T
   2   -395.6491560  0.248217E+01  0.252E+00    0.11       1.0  T
   3   -397.9248454 -0.227569E+01  0.770E-01    0.02       1.0  T
   4   -398.0106395 -0.857940E-01  0.598E-01    0.03       1.0  T
   5   -396.8175061  0.119313E+01  0.174E+00    0.05       1.0  T
   6   -398.0769300 -0.125942E+01  0.385E-01    0.03       1.0  T
   7   -398.1436242 -0.666942E-01  0.196E-01    0.01       1.0  T
   8   -398.1535060 -0.988181E-02  0.123E-01    0.01       1.0  T
   9   -398.1572960 -0.378997E-02  0.816E-02    0.01       1.0  T
  10   -398.1569561  0.339823E-03  0.773E-02    0.01       1.0  T
  11   -398.1548687  0.208738E-02  0.946E-02    0.01       1.0  T
  12   -398.1565179 -0.164911E-02  0.750E-02    0.01       1.0  T
  13   -398.1584803 -0.196241E-02  0.450E-02    0.01       1.0  T
  14   -398.1593701 -0.889807E-03  0.167E-02    0.01       1.0  T
  15   -398.1594834 -0.113273E-03  0.660E-03    0.01       1.0  T
  16   -398.1594852 -0.188911E-05  0.516E-03    0.01       1.2  T
  17   -398.1594719  0.133917E-04  0.703E-03    0.01       1.0  T
  18   -398.1594939 -0.220208E-04  0.336E-03    0.01       1.9  T
  19   -398.1594982 -0.431521E-05  0.159E-03    0.01       4.0  T
  20   -398.1594988 -0.633820E-06  0.831E-04    0.01       7.7  T
  21   -398.1594989 -0.106528E-06  0.708E-04    0.01       9.1  T
     SCC iter.                  ...        0 min,  1.993 sec
     gradient                   ...        0 min,  0.564 sec
 * total energy  :  -389.2054956 Eh     change       -0.7525389E-01 Eh
   gradient norm :     0.0094964 Eh/α   predicted    -0.3286914E-03 ( -99.56%)
   displ. norm   :     0.1974080 α      lambda       -0.1646361E-02
   maximum displ.:     0.1714376 α      in ANC's #75, #18, #53, ...

........................................................................
.............................. CYCLE  146 ..............................
........................................................................

 iter      E             dE          RMSdq      gap      omega  full diag
   1   -398.1067899 -0.398107E+03  0.311E-01    0.01       0.0  T
   2   -395.4069441  0.269985E+01  0.259E+00    0.23       1.0  T
   3   -397.5628209 -0.215588E+01  0.105E+00    0.10       1.0  T
   4   -396.3977133  0.116511E+01  0.203E+00    0.04       1.0  T
   5   -397.9477203 -0.155001E+01  0.676E-01    0.01       1.0  T
   6   -398.1228607 -0.175140E+00  0.229E-01    0.02       1.0  T
   7   -398.1014758  0.213849E-01  0.282E-01    0.02       1.0  T
   8   -398.1235327 -0.220569E-01  0.195E-01    0.02       1.0  T
   9   -398.1310089 -0.747621E-02  0.137E-01    0.02       1.0  T
  10   -398.1346842 -0.367533E-02  0.879E-02    0.01       1.0  T
  11   -398.1362620 -0.157774E-02  0.448E-02    0.01       1.0  T
  12   -398.1346948  0.156720E-02  0.639E-02    0.01       1.0  T
  13   -398.1342234  0.471340E-03  0.687E-02    0.01       1.0  T
  14   -398.1359702 -0.174679E-02  0.381E-02    0.01       1.0  T
  15   -398.1365389 -0.568650E-03  0.231E-02    0.01       1.0  T
  16   -398.1365893 -0.504604E-04  0.187E-02    0.01       1.0  T
  17   -398.1366730 -0.836302E-04  0.895E-03    0.01       1.0  T
  18   -398.1366597  0.132722E-04  0.102E-02    0.01       1.0  T
  19   -398.1367077 -0.480166E-04  0.251E-03    0.01       2.6  T
  20   -398.1367039  0.381593E-05  0.333E-03    0.01       1.9  T
  21   -398.1367090 -0.514568E-05  0.107E-03    0.01       6.0  T
  22   -398.1367058  0.321293E-05  0.272E-03    0.01       2.4  T
  23   -398.1367088 -0.293683E-05  0.118E-03    0.01       5.5  T
  24   -398.1367092 -0.483919E-06  0.671E-04    0.01       9.6  T
  25   -398.1367094 -0.210613E-06  0.239E-04    0.01      26.8  T
     SCC iter.                  ...        0 min,  2.360 sec
     gradient                   ...        0 min,  0.626 sec
 * total energy  :  -389.3024584 Eh     change       -0.9696279E-01 Eh
   gradient norm :     0.0132916 Eh/α   predicted    -0.2269515E-03 ( -99.77%)
   displ. norm   :     0.1075063 α      lambda       -0.7942251E-03
   maximum displ.:     0.0915380 α      in ANC's #75, #18, #53, ...

........................................................................
.............................. CYCLE  147 ..............................
........................................................................

 iter      E             dE          RMSdq      gap      omega  full diag
   1   -398.1181050 -0.398118E+03  0.153E-01    0.01       0.0  T
   2   -395.8982579  0.221985E+01  0.233E+00    0.09       1.0  T
   3   -397.4617532 -0.156350E+01  0.111E+00    0.09       1.0  T
   4   -397.9400197 -0.478266E+00  0.617E-01    0.01       1.0  T
   5   -398.0132116 -0.731919E-01  0.488E-01    0.03       1.0  T
   6   -398.1092273 -0.960157E-01  0.194E-01    0.01       1.0  T
   7   -398.1140324 -0.480507E-02  0.152E-01    0.02       1.0  T
   8   -398.1215071 -0.747469E-02  0.858E-02    0.01       1.0  T
   9   -398.1232515 -0.174445E-02  0.613E-02    0.01       1.0  T
  10   -398.1236544 -0.402857E-03  0.447E-02    0.01       1.0  T
  11   -398.1236059  0.485294E-04  0.445E-02    0.01       1.0  T
  12   -398.1238900 -0.284158E-03  0.379E-02    0.01       1.0  T
  13   -398.1245833 -0.693318E-03  0.128E-02    0.01       1.0  T
  14   -398.1245862 -0.283579E-05  0.119E-02    0.01       1.0  T
  15   -398.1244753  0.110923E-03  0.183E-02    0.01       1.0  T
  16   -398.1245442 -0.689646E-04  0.122E-02    0.01       1.0  T
  17   -398.1245775 -0.332829E-04  0.811E-03    0.01       1.0  T
  18   -398.1246113 -0.337834E-04  0.181E-03    0.01       3.6  T
  19   -398.1246050  0.624102E-05  0.373E-03    0.01       1.7  T
  20   -398.1246125 -0.743092E-05  0.435E-04    0.01      14.8  T
  21   -398.1246125 -0.279198E-08  0.352E-04    0.01      18.3  T
  22   -398.1246125 -0.375280E-08  0.319E-04    0.01      20.2  T
     SCC iter.                  ...        0 min,  2.149 sec
     gradient                   ...        0 min,  0.573 sec
 * total energy  :  -389.3513533 Eh     change       -0.4889485E-01 Eh
   gradient norm :     0.0102410 Eh/α   predicted    -0.8673407E-04 ( -99.82%)
   displ. norm   :     0.0300333 α      lambda       -0.5305095E-03
   maximum displ.:     0.0218840 α      in ANC's #75, #18, #44, ...

........................................................................
.............................. CYCLE  148 ..............................
........................................................................

 iter      E             dE          RMSdq      gap      omega  full diag
   1   -398.1244152 -0.398124E+03  0.320E-02    0.01       0.0  T
   2   -398.0728201  0.515951E-01  0.331E-01    0.01       1.0  T
   3   -397.9032006  0.169620E+00  0.652E-01    0.01       1.0  T
   4   -398.1184191 -0.215219E+00  0.112E-01    0.01       1.0  T
   5   -398.1211496 -0.273048E-02  0.995E-02    0.01       1.0  T
   6   -398.1211343  0.152920E-04  0.797E-02    0.01       1.0  T
   7   -398.1237247 -0.259043E-02  0.426E-02    0.01       1.0  T
   8   -398.1245116 -0.786890E-03  0.173E-02    0.01       1.0  T
   9   -398.1245324 -0.207604E-04  0.139E-02    0.01       1.0  T
  10   -398.1245113  0.211004E-04  0.147E-02    0.01       1.0  T
  11   -398.1245872 -0.759514E-04  0.786E-03    0.01       1.0  T
  12   -398.1245997 -0.124974E-04  0.603E-03    0.01       1.1  T
  13   -398.1246090 -0.928307E-05  0.377E-03    0.01       1.7  T
  14   -398.1246153 -0.631280E-05  0.148E-03    0.01       4.3  T
  15   -398.1246161 -0.741238E-06  0.791E-04    0.01       8.1  T
  16   -398.1246162 -0.150531E-06  0.303E-04    0.01      21.2  T
     SCC iter.                  ...        0 min,  1.462 sec
     gradient                   ...        0 min,  0.549 sec
 * total energy  :  -389.3636447 Eh     change       -0.1229143E-01 Eh
   gradient norm :     0.0049022 Eh/α   predicted    -0.5053171E-04 ( -99.59%)
   displ. norm   :     0.0618263 α      lambda       -0.1655135E-03
   maximum displ.:     0.0556927 α      in ANC's #75, #18, #53, ...

........................................................................
.............................. CYCLE  149 ..............................
........................................................................

 iter      E             dE          RMSdq      gap      omega  full diag
   1   -398.1243952 -0.398124E+03  0.104E-01    0.01       0.0  T
   2   -397.5367800  0.587615E+00  0.106E+00    0.06       1.0  T
   3   -397.9303339 -0.393554E+00  0.633E-01    0.01       1.0  T
   4   -397.7299505  0.200383E+00  0.846E-01    0.11       1.0  T
   5   -398.1171833 -0.387233E+00  0.188E-01    0.01       1.0  T
   6   -398.0710230  0.461603E-01  0.312E-01    0.02       1.0  T
   7   -398.1268726 -0.558497E-01  0.552E-02    0.01       1.0  T
   8   -398.1193646  0.750805E-02  0.130E-01    0.01       1.0  T
   9   -398.1222132 -0.284863E-02  0.104E-01    0.01       1.0  T
  10   -398.1254400 -0.322676E-02  0.682E-02    0.01       1.0  T
  11   -398.1229270  0.251296E-02  0.965E-02    0.01       1.0  T
  12   -398.1253495 -0.242251E-02  0.682E-02    0.01       1.0  T
  13   -398.1269869 -0.163743E-02  0.389E-02    0.01       1.0  T
  14   -398.1276022 -0.615217E-03  0.201E-02    0.01       1.0  T
  15   -398.1276536 -0.514413E-04  0.177E-02    0.01       1.0  T
  16   -398.1278049 -0.151317E-03  0.552E-03    0.01       1.2  T
  17   -398.1278180 -0.130958E-04  0.186E-03    0.01       3.4  T
  18   -398.1278182 -0.215794E-06  0.164E-03    0.01       3.9  T
  19   -398.1278195 -0.126728E-05  0.579E-04    0.01      11.1  T
  20   -398.1278196 -0.131623E-06  0.274E-04    0.01      23.4  T
  21   -398.1278196 -0.172058E-07  0.175E-04    0.01      36.8  T
     SCC iter.                  ...        0 min,  1.965 sec
     gradient                   ...        0 min,  0.571 sec
 * total energy  :  -389.3674892 Eh     change       -0.3844463E-02 Eh
   gradient norm :     0.0030602 Eh/α   predicted    -0.1342654E-04 ( -99.65%)
   displ. norm   :     0.0862216 α      lambda       -0.3667106E-03
   maximum displ.:     0.0660261 α      in ANC's #75, #18, #12, ...

........................................................................
.............................. CYCLE  150 ..............................
........................................................................

 iter      E             dE          RMSdq      gap      omega  full diag
   1   -398.1218040 -0.398122E+03  0.130E-01    0.01       0.0  T
   2   -397.4658657  0.655938E+00  0.112E+00    0.07       1.0  T
   3   -398.0791763 -0.613311E+00  0.373E-01    0.02       1.0  T
   4   -398.0974993 -0.183231E-01  0.273E-01    0.01       1.0  T
   5   -397.6526386  0.444861E+00  0.936E-01    0.11       1.0  T
   6   -398.1192235 -0.466585E+00  0.136E-01    0.01       1.0  T
   7   -398.1119789  0.724467E-02  0.170E-01    0.01       1.0  T
   8   -398.1216593 -0.968039E-02  0.108E-01    0.01       1.0  T
   9   -398.1257354 -0.407611E-02  0.595E-02    0.01       1.0  T
  10   -398.1249568  0.778534E-03  0.698E-02    0.01       1.0  T
  11   -398.1262929 -0.133605E-02  0.488E-02    0.01       1.0  T
  12   -398.1261865  0.106434E-03  0.495E-02    0.01       1.0  T
  13   -398.1267012 -0.514769E-03  0.383E-02    0.01       1.0  T
  14   -398.1269310 -0.229820E-03  0.323E-02    0.01       1.0  T
  15   -398.1271431 -0.212080E-03  0.253E-02    0.01       1.0  T
  16   -398.1274552 -0.312102E-03  0.711E-03    0.01       1.0  T
  17   -398.1274688 -0.135903E-04  0.486E-03    0.01       1.3  T
  18   -398.1274795 -0.106461E-04  0.195E-03    0.01       3.3  T
  19   -398.1274815 -0.201800E-05  0.224E-04    0.01      28.7  T
  20   -398.1274815 -0.103805E-07  0.151E-04    0.01      42.5  T
  21   -398.1274814  0.483691E-07  0.324E-04    0.01      19.8  T
     SCC iter.                  ...        0 min,  2.082 sec
     gradient                   ...        0 min,  0.560 sec
 * total energy  :  -389.3960748 Eh     change       -0.2858565E-01 Eh
   gradient norm :     0.0048088 Eh/α   predicted    -0.2586387E-04 ( -99.91%)
   displ. norm   :     0.0050049 α      lambda       -0.2861476E-06
   maximum displ.:     0.0029926 α      in ANC's #75, #18, #68, ...
 * RMSD in coord.:     0.2190914 α      energy gain  -0.4815476E+00 Eh

generating ANC from exact Hessian ...
Using Lindh-Hessian (1995)
 Shifting diagonal of input Hessian by    1.4735538117417403E-002
 Lowest  eigenvalues of input Hessian
    0.010000    0.010397    0.014676    0.014701    0.014703    0.014709
    0.014718    0.000000    0.000000    0.000000    0.000000    0.000000
    0.000000    0.014752    0.014756    0.014772    0.014789    0.014801
 Highest eigenvalues
    2.867456    3.030582    3.073683    3.204188    3.648545    4.927738


........................................................................
.............................. CYCLE  151 ..............................
........................................................................

 iter      E             dE          RMSdq      gap      omega  full diag
   1   -398.1275453 -0.398128E+03  0.580E-03    0.01       0.0  T
   2   -398.1231771  0.436822E-02  0.914E-02    0.01       1.0  T
   3   -398.1119875  0.111895E-01  0.172E-01    0.01       1.0  T
   4   -398.1274709 -0.154834E-01  0.150E-02    0.01       1.0  T
   5   -398.1274267  0.442212E-04  0.179E-02    0.01       1.0  T
   6   -398.1275299 -0.103240E-03  0.819E-03    0.01       1.0  T
   7   -398.1275416 -0.116739E-04  0.474E-03    0.01       1.4  T
   8   -398.1275472 -0.565001E-05  0.345E-03    0.01       1.9  T
   9   -398.1275504 -0.311560E-05  0.229E-03    0.01       2.8  T
  10   -398.1275496  0.806648E-06  0.267E-03    0.01       2.4  T
  11   -398.1275522 -0.267729E-05  0.138E-03    0.01       4.7  T
  12   -398.1275530 -0.721114E-06  0.754E-04    0.01       8.5  T
  13   -398.1275532 -0.251121E-06  0.303E-04    0.01      21.2  T
     SCC iter.                  ...        0 min,  1.234 sec
     gradient                   ...        0 min,  0.548 sec
 * total energy  :  -389.3974911 Eh     change       -0.1416299E-02 Eh
   gradient norm :     0.0116276 Eh/α   predicted     0.0000000E+00 (-100.00%)
   displ. norm   :     0.0069518 α      lambda       -0.7998986E-04
   maximum displ.:     0.0066693 α      in ANC's #15, #63, #5, ...

........................................................................
.............................. CYCLE  152 ..............................
........................................................................

 iter      E             dE          RMSdq      gap      omega  full diag
   1   -398.1276827 -0.398128E+03  0.933E-03    0.01       0.0  T
   2   -398.0765173  0.511653E-01  0.302E-01    0.02       1.0  T
   3   -398.1211770 -0.446596E-01  0.116E-01    0.01       1.0  T
   4   -398.1273922 -0.621529E-02  0.292E-02    0.01       1.0  T
   5   -398.1270908  0.301417E-03  0.364E-02    0.01       1.0  T
   6   -398.1275843 -0.493437E-03  0.160E-02    0.01       1.0  T
   7   -398.1276918 -0.107534E-03  0.478E-03    0.01       1.3  T
   8   -398.1276605  0.313136E-04  0.904E-03    0.01       1.0  T
   9   -398.1277004 -0.399608E-04  0.201E-03    0.01       3.2  T
  10   -398.1277008 -0.325230E-06  0.112E-03    0.01       5.7  T
  11   -398.1277002  0.555442E-06  0.152E-03    0.01       4.2  T
  12   -398.1277004 -0.232252E-06  0.134E-03    0.01       4.8  T
  13   -398.1277013 -0.830156E-06  0.487E-04    0.01      13.2  T
  14   -398.1277014 -0.109573E-06  0.119E-04    0.01      54.2  T
     SCC iter.                  ...        0 min,  1.339 sec
     gradient                   ...        0 min,  0.548 sec
 * total energy  :  -389.3972056 Eh     change        0.2855630E-03 Eh
   gradient norm :     0.0059668 Eh/α   predicted    -0.4027287E-04 (-114.10%)
   displ. norm   :     0.0075250 α      lambda       -0.4176964E-04
   maximum displ.:     0.0072546 α      in ANC's #15, #63, #25, ...

........................................................................
.............................. CYCLE  153 ..............................
........................................................................

 iter      E             dE          RMSdq      gap      omega  full diag
   1   -398.1278487 -0.398128E+03  0.115E-02    0.01       0.0  T
   2   -398.0318118  0.960369E-01  0.410E-01    0.03       1.0  T
   3   -398.1225728 -0.907610E-01  0.108E-01    0.01       1.0  T
   4   -398.1273519 -0.477913E-02  0.359E-02    0.01       1.0  T
   5   -398.1276537 -0.301791E-03  0.227E-02    0.01       1.0  T
   6   -398.1273293  0.324398E-03  0.364E-02    0.01       1.0  T
   7   -398.1278732 -0.543948E-03  0.485E-03    0.01       1.3  T
   8   -398.1278064  0.668254E-04  0.122E-02    0.01       1.0  T
   9   -398.1278809 -0.744915E-04  0.236E-03    0.01       2.7  T
  10   -398.1278797  0.122553E-05  0.222E-03    0.01       2.9  T
  11   -398.1278809 -0.125059E-05  0.165E-03    0.01       3.9  T
  12   -398.1278814 -0.484080E-06  0.129E-03    0.01       5.0  T
  13   -398.1278821 -0.681930E-06  0.599E-04    0.01      10.7  T
  14   -398.1278822 -0.140288E-06  0.258E-04    0.01      24.9  T
     SCC iter.                  ...        0 min,  1.347 sec
     gradient                   ...        0 min,  0.552 sec
 * total energy  :  -389.3964579 Eh     change        0.7476858E-03 Eh
   gradient norm :     0.0015586 Eh/α   predicted    -0.2229166E-04 (-102.98%)
   displ. norm   :     0.0013931 α      lambda       -0.9186919E-06
   maximum displ.:     0.0008908 α      in ANC's #39, #15, #25, ...

........................................................................
.............................. CYCLE  154 ..............................
........................................................................

 iter      E             dE          RMSdq      gap      omega  full diag
   1   -398.1279702 -0.398128E+03  0.364E-03    0.01       0.0  T
   2   -398.1106527  0.173175E-01  0.176E-01    0.01       1.0  T
   3   -398.1276241 -0.169714E-01  0.277E-02    0.01       1.0  T
   4   -398.1278974 -0.273258E-03  0.141E-02    0.01       1.0  T
   5   -398.1279525 -0.551123E-04  0.870E-03    0.01       1.0  T
   6   -398.1279283  0.242313E-04  0.996E-03    0.01       1.0  T
   7   -398.1279739 -0.456691E-04  0.186E-03    0.01       3.4  T
   8   -398.1279718  0.217176E-05  0.258E-03    0.01       2.5  T
   9   -398.1279751 -0.330688E-05  0.564E-04    0.01      11.4  T
  10   -398.1279750  0.905569E-07  0.575E-04    0.01      11.2  T
  11   -398.1279751 -0.119554E-06  0.306E-04    0.01      21.0  T
     SCC iter.                  ...        0 min,  1.047 sec
     gradient                   ...        0 min,  0.563 sec
 * total energy  :  -389.3958139 Eh     change        0.6440090E-03 Eh
   gradient norm :     0.0010888 Eh/α   predicted    -0.6524052E-06 (-100.10%)
   displ. norm   :     0.0019006 α      lambda       -0.1232590E-05
   maximum displ.:     0.0013986 α      in ANC's #39, #78, #67, ...

........................................................................
.............................. CYCLE  155 ..............................
........................................................................

 iter      E             dE          RMSdq      gap      omega  full diag
   1   -398.1281629 -0.398128E+03  0.565E-03    0.01       0.0  T
   2   -398.0869278  0.412351E-01  0.271E-01    0.02       1.0  T
   3   -398.1272134 -0.402856E-01  0.459E-02    0.01       1.0  T
   4   -398.1280601 -0.846710E-03  0.181E-02    0.01       1.0  T
   5   -398.1281371 -0.769963E-04  0.110E-02    0.01       1.0  T
   6   -398.1280376  0.994884E-04  0.168E-02    0.01       1.0  T
   7   -398.1281728 -0.135247E-03  0.264E-03    0.01       2.4  T
   8   -398.1281673  0.548561E-05  0.392E-03    0.01       1.6  T
   9   -398.1281751 -0.774350E-05  0.890E-04    0.01       7.2  T
  10   -398.1281748  0.287588E-06  0.102E-03    0.01       6.3  T
  11   -398.1281752 -0.446761E-06  0.415E-04    0.01      15.5  T
  12   -398.1281753 -0.557436E-07  0.228E-04    0.01      28.2  T
     SCC iter.                  ...        0 min,  1.141 sec
     gradient                   ...        0 min,  0.567 sec
 * total energy  :  -389.3944768 Eh     change        0.1337033E-02 Eh
   gradient norm :     0.0009840 Eh/α   predicted    -0.6445015E-06 (-100.05%)
   displ. norm   :     0.0013663 α      lambda       -0.5456736E-06
   maximum displ.:     0.0010226 α      in ANC's #78, #39, #15, ...

........................................................................
.............................. CYCLE  156 ..............................
........................................................................

 iter      E             dE          RMSdq      gap      omega  full diag
   1   -398.1283702 -0.398128E+03  0.453E-03    0.01       0.0  T
   2   -398.0979951  0.303751E-01  0.233E-01    0.02       1.0  T
   3   -398.1277940 -0.297988E-01  0.360E-02    0.01       1.0  T
   4   -398.1282930 -0.499006E-03  0.152E-02    0.01       1.0  T
   5   -398.1283410 -0.480619E-04  0.104E-02    0.01       1.0  T
   6   -398.1283026  0.384470E-04  0.128E-02    0.01       1.0  T
   7   -398.1283769 -0.743397E-04  0.190E-03    0.01       3.4  T
   8   -398.1283720  0.487676E-05  0.347E-03    0.01       1.9  T
   9   -398.1283782 -0.620503E-05  0.640E-04    0.01      10.1  T
  10   -398.1283782  0.501269E-07  0.592E-04    0.01      10.8  T
  11   -398.1283783 -0.113882E-06  0.350E-04    0.01      18.4  T
     SCC iter.                  ...        0 min,  1.039 sec
