      -----------------------------------------------------------      
     |                   =====================                   |     
     |                           x T B                           |     
     |                   =====================                   |     
     |                         S. Grimme                         |     
     |          Mulliken Center for Theoretical Chemistry        |     
     |                    University of Bonn                     |     
      -----------------------------------------------------------      

   * xtb version 6.7.1 (edcfbbe) compiled by 'runner@sat12-gn217-0cbadaec-b866-44ae-a866-732403219ae3-6E01A8DFFD18.local' on 2026-06-10

   xtb is free software: you can redistribute it and/or modify it under
   the terms of the GNU Lesser General Public License as published by
   the Free Software Foundation, either version 3 of the License, or
   (at your option) any later version.
   
   xtb is distributed in the hope that it will be useful,
   but WITHOUT ANY WARRANTY; without even the implied warranty of
   MERCHANTABILITY or FITNESS FOR A PARTICULAR PURPOSE.  See the
   GNU Lesser General Public License for more details.
   
   Cite this work as:
   * C. Bannwarth, E. Caldeweyher, S. Ehlert, A. Hansen, P. Pracht,
     J. Seibert, S. Spicher, S. Grimme, WIREs Comput. Mol. Sci., 2020, 11,
     e01493. DOI: 10.1002/wcms.1493
   
   for GFN2-xTB:
   * C. Bannwarth, S. Ehlert and S. Grimme., J. Chem. Theory Comput., 2019,
     15, 1652-1671. DOI: 10.1021/acs.jctc.8b01176
   for GFN1-xTB:
   * S. Grimme, C. Bannwarth, P. Shushkov, J. Chem. Theory Comput., 2017,
     13, 1989-2009. DOI: 10.1021/acs.jctc.7b00118
   for GFN0-xTB:
   * P. Pracht, E. Caldeweyher, S. Ehlert, S. Grimme, ChemRxiv, 2019, preprint.
     DOI: 10.26434/chemrxiv.8326202.v1
   for GFN-FF:
   * S. Spicher and S. Grimme, Angew. Chem. Int. Ed., 2020, 59, 15665-15673.
     DOI: 10.1002/anie.202004239
   
   for ALPB and GBSA implicit solvation:
   * S. Ehlert, M. Stahn, S. Spicher, S. Grimme, J. Chem. Theory Comput.,
     2021, 17, 4250-4261. DOI: 10.1021/acs.jctc.1c00471
   
   for ddCOSMO and CPCM-X implicit solvation:
   * M. Stahn, S. Ehlert, S. Grimme, J. Phys. Chem. A,
     2023, XX, XXXX-XXXX. DOI: 10.1021/acs.jpca.3c04382
   
   for DFT-D4:
   * E. Caldeweyher, C. Bannwarth and S. Grimme, J. Chem. Phys., 2017,
     147, 034112. DOI: 10.1063/1.4993215
   * E. Caldeweyher, S. Ehlert, A. Hansen, H. Neugebauer, S. Spicher,
     C. Bannwarth and S. Grimme, J. Chem. Phys., 2019, 150, 154122.
     DOI: 10.1063/1.5090222
   * E. Caldeweyher, J.-M. Mewes, S. Ehlert and S. Grimme, Phys. Chem. Chem. Phys.
     2020, 22, 8499-8512. DOI: 10.1039/D0CP00502A
   
   for sTDA-xTB:
   * S. Grimme and C. Bannwarth, J. Chem. Phys., 2016, 145, 054103.
     DOI: 10.1063/1.4959605
   
   in the mass-spec context:
   * V. Asgeirsson, C. Bauer and S. Grimme, Chem. Sci., 2017, 8, 4879.
     DOI: 10.1039/c7sc00601b
   * J. Koopman and S. Grimme, ACS Omega 2019, 4, 12, 15120-15133.
     DOI: 10.1021/acsomega.9b02011
   
   for metadynamics refer to:
   * S. Grimme, J. Chem. Theory Comput., 2019, 155, 2847-2862
     DOI: 10.1021/acs.jctc.9b00143
   
   for SPH calculations refer to:
   * S. Spicher and S. Grimme, J. Chem. Theory Comput., 2021, 17, 1701-1714
     DOI: 10.1021/acs.jctc.0c01306
   
   for ONIOM refer to:
   * C. Plett, A. Katbashev, S. Ehlert, S. Grimme, M. Bursch,
     Phys. Chem. Chem. Phys., 2023, 25, 17860-17868. DOI: 10.1039/D3CP02178E
   
   for DIPRO refer to:
   * J. Kohn, N. Gildemeister, S. Grimme, D. Fazzi, A. Hansen,
     J. Chem. Phys., 2023, just accepted.
   
   for PTB refer to:
   * S. Grimme, M. Mueller, A. Hansen, J. Chem. Phys., 2023, 158, 124111.
     DOI: 10.1063/5.0137838
   
   with help from (in alphabetical order)
   P. Atkinson, C. Bannwarth, F. Bohle, G. Brandenburg, E. Caldeweyher
   M. Checinski, S. Dohm, S. Ehlert, S. Ehrlich, I. Gerasimov, C. Hölzer
   A. Katbashev, J. Kohn, J. Koopman, C. Lavigne, S. Lehtola, F. März, M. Müller,
   F. Musil, H. Neugebauer, J. Pisarek, C. Plett, P. Pracht, F. Pultar,
   J. Seibert, P. Shushkov, S. Spicher, M. Stahn, M. Steiner, T. Strunk,
   J. Stückrath, T. Rose, and J. Unsleber
   
 * started run on 2026/07/31 at 15:23:25.803     
   ID    Z sym.   atoms
    1    7 N      1, 2, 24, 25, 53, 55, 110, 112, 215, 227
    2    6 C      3-5, 7, 9-12, 14, 16-20, 22, 23, 26-28, 30, 32-35, 37,
                  39-43, 45, 46, 49-52, 54, 57, 58, 61, 65, 67, 68, 70, 71,
                  73, 77, 81, 86-89, 91, 92, 106-109, 111, 114, 115, 118,
                  122, 124, 125, 127, 128, 130, 134, 138, 143-146, 148, 149,
                  171-174, 176, 178, 182-185, 187, 189, 193-196, 198, 200,
                  204-207, 209, 211, 216-226, 228, 230
    3    1 H      6, 8, 13, 15, 21, 29, 31, 36, 38, 44, 56, 59, 60, 62, 63,
                  69, 72, 74-76, 78-80, 90, 93-105, 113, 116, 117, 119, 120,
                  126, 129, 131-133, 135-137, 147, 150-166, 175, 177,
                  179-181, 186, 188, 190-192, 197, 199, 201-203, 208, 210,
                  212-214, 231-241
    4   26 Fe     47
    5   17 Cl     48, 229
    6    8 O      64, 66, 82-85, 121, 123, 139-142, 167-170

           -------------------------------------------------
          |                Calculation Setup                |
           -------------------------------------------------

          program call               : /Users/haywoodau3/Documents/genaisubstrate/.chem-env/bin/xtb /Users/haywoodau3/Documents/genaisubstrate/data/jacs_2025/stage3/pilot/reference-optimizations/1aa/start-0001/input-assembly.xyz --gfn 2 --alpb ether --opt --input /Users/haywoodau3/Documents/genaisubstrate/data/jacs_2025/stage3/pilot/reference-optimizations/1aa/start-0001/xcontrol
          coordinate file            : /Users/haywoodau3/Documents/genaisubstrate/data/jacs_2025/stage3/pilot/reference-optimizations/1aa/start-0001/input-assembly.xyz
          omp threads                :                     4


           -------------------------------------------------
          |                 G F N 2 - x T B                 |
           -------------------------------------------------

        Reference                      10.1021/acs.jctc.8b01176
      * Hamiltonian:
        H0-scaling (s, p, d)           1.850000    2.230000    2.230000
        zeta-weighting                 0.500000
      * Dispersion:
        s8                             2.700000
        a1                             0.520000
        a2                             5.000000
        s9                             5.000000
      * Repulsion:
        kExp                           1.500000    1.000000
        rExp                           1.000000
      * Coulomb:
        alpha                          2.000000
        third order                    shell-resolved
        anisotropic                    true
        a3                             3.000000
        a5                             4.000000
        cn-shift                       1.200000
        cn-exp                         4.000000
        max-rad                        5.000000

      * Solvation model:               ALPB
        Solvent                        ether
        Parameter file                 internal GFN2-xTB/ALPB
        Dielectric constant                4.3300E+00
        Reference state                gsolv [1 M gas/solution]
        Free energy shift                  4.9534E-03 Eh       3.1083E+00 kcal/mol
        Temperature                        2.9815E+02 K
        Density                            7.1300E-01 kg/L
        Solvent mass                       7.4120E+01 g/mol
        Interaction kernel             P16
        Born radius scaling (c1)           1.5847E+00
        Born radii integrator          GBOBC
        Born offset                        0.0000E+00 a0       0.0000E+00 AA
        H-bond correction              true
        Ion screening                  false
        Surface tension                    1.0000E-05 Eh       1.5569E+01 dyn/cm
        Grid points                               230 per atom

          ...................................................
          :                      SETUP                      :
          :.................................................:
          :  # basis functions                 685          :
          :  # atomic orbitals                 682          :
          :  # shells                          386          :
          :  # electrons                       719          :
          :  max. iterations                   250          :
          :  Hamiltonian                  GFN2-xTB          :
          :  restarted?                      false          :
          :  GBSA solvation                   true          :
          :  PC potential                    false          :
          :  electronic temp.          300.0000000     K    :
          :  accuracy                    1.0000000          :
          :  -> integral cutoff          0.2500000E+02      :
          :  -> integral neglect         0.1000000E-07      :
          :  -> SCF convergence          0.1000000E-05 Eh   :
          :  -> wf. convergence          0.1000000E-03 e    :
          :  Broyden damping             0.4000000          :
          :  net charge                          0          :
          :  unpaired electrons                  0          :
          ...................................................

 iter      E             dE          RMSdq      gap      omega  full diag
   1   -402.5881538 -0.402588E+03  0.463E+00    0.21       0.0  T
   2   -399.8211104  0.276704E+01  0.383E+00    0.19       1.0  T
   3   -395.1425276  0.467858E+01  0.449E+00    0.05       1.0  T
   4   -401.9164805 -0.677395E+01  0.269E+00    0.33       1.0  T
   5   -402.3513835 -0.434903E+00  0.230E+00    1.29       1.0  T
   6   -402.5993203 -0.247937E+00  0.151E+00    1.01       1.0  T
   7   -403.4879061 -0.888586E+00  0.982E-01    0.07       1.0  T
   8   -403.6140085 -0.126102E+00  0.598E-01    0.07       1.0  T
   9   -403.5953291  0.186794E-01  0.414E-01    0.06       1.0  T
  10   -403.5371912  0.581379E-01  0.649E-01    0.04       1.0  T
  11   -403.5639549 -0.267637E-01  0.548E-01    0.03       1.0  T
  12   -403.5457642  0.181907E-01  0.519E-01    0.08       1.0  T
  13   -403.6630703 -0.117306E+00  0.843E-02    0.04       1.0  T
  14   -403.5990072  0.640631E-01  0.383E-01    0.06       1.0  T
  15   -403.6485185 -0.495113E-01  0.185E-01    0.03       1.0  T
  16   -403.6632346 -0.147162E-01  0.526E-02    0.04       1.0  T
  17   -403.6624685  0.766180E-03  0.648E-02    0.04       1.0  T
  18   -403.6636845 -0.121600E-02  0.365E-02    0.04       1.0  T
  19   -403.6620358  0.164864E-02  0.703E-02    0.04       1.0  T
  20   -403.6641272 -0.209135E-02  0.107E-02    0.04       1.0  T
  21   -403.6641521 -0.249533E-04  0.563E-03    0.04       1.1  T
  22   -403.6637676  0.384515E-03  0.305E-02    0.04       1.0  T
  23   -403.6641149 -0.347295E-03  0.103E-02    0.04       1.0  T
  24   -403.6641432 -0.283037E-04  0.596E-03    0.04       1.1  T
  25   -403.6641301  0.130765E-04  0.818E-03    0.04       1.0  T
  26   -403.6641535 -0.233460E-04  0.350E-03    0.04       1.8  T
  27   -403.6641579 -0.439281E-05  0.113E-03    0.04       5.7  T
  28   -403.6641583 -0.444383E-06  0.639E-04    0.04      10.1  T
  29   -403.6641584 -0.107349E-06  0.408E-04    0.04      15.8  T

   *** convergence criteria satisfied after 29 iterations ***

         #    Occupation            Energy/Eh            Energy/eV
      -------------------------------------------------------------
         1        2.0000           -1.0712220             -29.1494
       ...           ...                  ...                  ...
       354        2.0000           -0.3551206              -9.6633
       355        2.0000           -0.3546102              -9.6494
       356        2.0000           -0.3492287              -9.5030
       357        2.0000           -0.3424177              -9.3177
       358        2.0000           -0.3342523              -9.0955
       359        1.4341           -0.3012406              -8.1972
       360        1.0620           -0.3003466              -8.1728 (HOMO)
       361        0.5038           -0.2990013              -8.1362 (LUMO)
       362        0.0000           -0.2847549              -7.7486
       363                         -0.2827186              -7.6932
       364                         -0.2799268              -7.6172
       365                         -0.2593869              -7.0583
       ...                                ...                  ...
       682                          1.4628501              39.8062
      -------------------------------------------------------------
                  HL-Gap            0.0013453 Eh            0.0366 eV
             Fermi-level           -0.3002061 Eh           -8.1690 eV

 SCC (total)                   0 d,  0 h,  0 min,  2.434 sec
 SCC setup                      ...        0 min,  0.004 sec (  0.159%)
 Dispersion                     ...        0 min,  0.005 sec (  0.191%)
 classical contributions        ...        0 min,  0.001 sec (  0.039%)
 integral evaluation            ...        0 min,  0.023 sec (  0.940%)
 iterations                     ...        0 min,  2.066 sec ( 84.879%)
 molecular gradient             ...        0 min,  0.315 sec ( 12.939%)
 printout                       ...        0 min,  0.021 sec (  0.851%)

         :::::::::::::::::::::::::::::::::::::::::::::::::::::
         ::                     SUMMARY                     ::
         :::::::::::::::::::::::::::::::::::::::::::::::::::::
         :: total energy            -398.447412589361 Eh    ::
         :: total w/o Gsasa/hb      -398.335140168827 Eh    ::
         :: gradient norm              0.665018681766 Eh/a0 ::
         :: HOMO-LUMO gap              0.036606347835 eV    ::
         ::.................................................::
         :: SCC energy              -403.641125468661 Eh    ::
         :: -> isotropic ES            0.607368216335 Eh    ::
         :: -> anisotropic ES          0.005919204899 Eh    ::
         :: -> anisotropic XC          0.162580239677 Eh    ::
         :: -> dispersion             -0.355067128606 Eh    ::
         :: -> Gsolv                  -0.204342618787 Eh    ::
         ::    -> Gelec               -0.092070198253 Eh    ::
         ::    -> Gsasa               -0.108567469751 Eh    ::
         ::    -> Ghb                 -0.008658388360 Eh    ::
         ::    -> Gshift               0.004953437577 Eh    ::
         :: repulsion energy           5.193712879301 Eh    ::
         :: add. restraining           0.000000000000 Eh    ::
         :: total charge               0.000000000002 e     ::
         :::::::::::::::::::::::::::::::::::::::::::::::::::::

      ----------------------------------------------------------- 
     |                   =====================                   |
     |                        A N C O P T                        |
     |                   =====================                   |
     |               Approximate Normal Coordinate               |
     |                Rational Function Optimizer                |
      ----------------------------------------------------------- 
      ----------------------------------------------------------- 
     |                   =====================                   |
     |                        A N C O P T                        |
     |                   =====================                   |
     |               Approximate Normal Coordinate               |
     |                Rational Function Optimizer                |
      ----------------------------------------------------------- 

          ...................................................
          :                      SETUP                      :
          :.................................................:
          :   optimization level            normal          :
          :   max. optcycles                   723          :
          :   ANC micro-cycles                  20          :
          :   degrees of freedom               717          :
          :.................................................:
          :   RF solver                   davidson          :
          :   write xtbopt.log                true          :
          :   linear?                        false          :
          :   energy convergence         0.5000000E-05 Eh   :
          :   grad. convergence          0.1000000E-02 Eh/α :
          :   maxmium RF displ.          1.0000000          :
          :   Hlow (freq-cutoff)         0.1000000E-01      :
          :   Hmax (freq-cutoff)         5.0000000          :
          :   S6 in model hess.         20.0000000          :
          ...................................................

generating ANC from exact Hessian ...
Using Lindh-Hessian (1995)
 Shifting diagonal of input Hessian by    8.9886407854162572E-003
 Lowest  eigenvalues of input Hessian
    0.000000    0.000000    0.000000    0.000000    0.000000    0.000000
    0.010000    0.010534    0.012043    0.013903    0.017194    0.019435
    0.021576    0.023249    0.027813    0.029924    0.030764    0.033293
 Highest eigenvalues
    3.146895    3.173794    3.208759    3.292690    3.293333    3.296488


........................................................................
.............................. CYCLE    1 ..............................
........................................................................

 iter      E             dE          RMSdq      gap      omega  full diag
   1   -403.6641584 -0.403664E+03  0.541E-04    0.04       0.0  T
   2   -403.6640391  0.119239E-03  0.165E-02    0.04       1.0  T
   3   -403.6641583 -0.119152E-03  0.691E-04    0.04       9.3  T
   4   -403.6641585 -0.190728E-06  0.199E-04    0.04      32.3  T
   5   -403.6641585 -0.338878E-08  0.171E-04    0.04      37.7  T
     SCC iter.                  ...        0 min,  0.342 sec
     gradient                   ...        0 min,  0.308 sec
 * total energy  :  -398.4474126 Eh     change       -0.5259659E-07 Eh
   gradient norm :     0.6650393 Eh/α   predicted     0.0000000E+00 (-100.00%)
   displ. norm   :     0.5894806 α      lambda       -0.3301429E+00
   maximum displ.:     0.1627847 α      in ANC's #40, #24, #366, ...

........................................................................
.............................. CYCLE    2 ..............................
........................................................................

 iter      E             dE          RMSdq      gap      omega  full diag
   1   -403.9152879 -0.403915E+03  0.479E-01    0.05       0.0  T
   2   -403.3035464  0.611742E+00  0.138E+00    1.04       1.0  T
   3   -403.9785235 -0.674977E+00  0.369E-01    0.05       1.0  T
   4   -403.8161000  0.162423E+00  0.656E-01    0.06       1.0  T
   5   -403.9486693 -0.132569E+00  0.356E-01    0.04       1.0  T
   6   -403.9565584 -0.788911E-02  0.301E-01    0.04       1.0  T
   7   -403.9786352 -0.220767E-01  0.210E-01    0.04       1.0  T
   8   -403.9461529  0.324823E-01  0.325E-01    0.04       1.0  T
   9   -403.9780857 -0.319328E-01  0.207E-01    0.04       1.0  T
  10   -403.9856293 -0.754356E-02  0.163E-01    0.04       1.0  T
  11   -403.9908861 -0.525678E-02  0.122E-01    0.04       1.0  T
  12   -403.9979615 -0.707539E-02  0.954E-03    0.04       1.0  T
  13   -403.9973864  0.575074E-03  0.350E-02    0.04       1.0  T
  14   -403.9975828 -0.196404E-03  0.289E-02    0.04       1.0  T
  15   -403.9974675  0.115314E-03  0.327E-02    0.04       1.0  T
  16   -403.9979629 -0.495406E-03  0.550E-03    0.04       1.2  T
  17   -403.9979735 -0.106539E-04  0.266E-03    0.04       2.4  T
  18   -403.9979744 -0.888719E-06  0.226E-03    0.04       2.8  T
  19   -403.9979767 -0.226586E-05  0.407E-04    0.04      15.8  T
  20   -403.9979762  0.501203E-06  0.108E-03    0.04       6.0  T
  21   -403.9979767 -0.517107E-06  0.235E-04    0.04      27.4  T
  22   -403.9979767 -0.185126E-07  0.720E-05    0.04      89.4  T
     SCC iter.                  ...        0 min,  1.561 sec
     gradient                   ...        0 min,  0.311 sec
 * total energy  :  -398.7145020 Eh     change       -0.2670893E+00 Eh
   gradient norm :     0.3920794 Eh/α   predicted    -0.2225045E+00 ( -16.69%)
   displ. norm   :     0.7300117 α      lambda       -0.2574046E+00
   maximum displ.:     0.2382610 α      in ANC's #40, #42, #24, ...

........................................................................
.............................. CYCLE    3 ..............................
........................................................................

 iter      E             dE          RMSdq      gap      omega  full diag
   1   -404.2416899 -0.404242E+03  0.427E-01    0.06       0.0  T
   2   -403.7275614  0.514129E+00  0.119E+00    0.14       1.0  T
   3   -404.2492052 -0.521644E+00  0.406E-01    0.06       1.0  T
   4   -404.2674106 -0.182055E-01  0.256E-01    0.05       1.0  T
   5   -404.2726336 -0.522301E-02  0.180E-01    0.05       1.0  T
   6   -404.2498414  0.227922E-01  0.264E-01    0.04       1.0  T
   7   -404.2787218 -0.288804E-01  0.617E-02    0.04       1.0  T
   8   -404.2788707 -0.148879E-03  0.451E-02    0.04       1.0  T
   9   -404.2781818  0.688895E-03  0.546E-02    0.04       1.0  T
  10   -404.2782996 -0.117820E-03  0.462E-02    0.04       1.0  T
  11   -404.2790498 -0.750191E-03  0.175E-02    0.04       1.0  T
  12   -404.2786274  0.422391E-03  0.345E-02    0.04       1.0  T
  13   -404.2788589 -0.231492E-03  0.242E-02    0.04       1.0  T
  14   -404.2791048 -0.245889E-03  0.585E-03    0.04       1.1  T
  15   -404.2791069 -0.207782E-05  0.363E-03    0.04       1.8  T
  16   -404.2791101 -0.321392E-05  0.114E-03    0.04       5.7  T
  17   -404.2791101 -0.130065E-07  0.986E-04    0.04       6.5  T
  18   -404.2791101  0.598936E-08  0.692E-04    0.04       9.3  T
     SCC iter.                  ...        0 min,  1.295 sec
     gradient                   ...        0 min,  0.310 sec
 * total energy  :  -398.9193555 Eh     change       -0.2048535E+00 Eh
   gradient norm :     0.2417701 Eh/α   predicted    -0.1972899E+00 (  -3.69%)
   displ. norm   :     0.7476344 α      lambda       -0.1628088E+00
   maximum displ.:     0.2740884 α      in ANC's #40, #42, #24, ...

........................................................................
.............................. CYCLE    4 ..............................
........................................................................

 iter      E             dE          RMSdq      gap      omega  full diag
   1   -404.4178356 -0.404418E+03  0.272E-01    0.06       0.0  T
   2   -404.4145228  0.331286E-02  0.302E-01    0.05       1.0  T
   3   -404.4238950 -0.937227E-02  0.141E-01    0.05       1.0  T
   4   -404.4239781 -0.831014E-04  0.916E-02    0.04       1.0  T
   5   -404.4225372  0.144097E-02  0.129E-01    0.04       1.0  T
   6   -404.4248759 -0.233871E-02  0.241E-02    0.04       1.0  T
   7   -404.4249259 -0.500755E-04  0.154E-02    0.04       1.0  T
   8   -404.4249352 -0.921972E-05  0.127E-02    0.04       1.0  T
   9   -404.4249520 -0.168103E-04  0.724E-03    0.04       1.0  T
  10   -404.4249539 -0.188889E-05  0.635E-03    0.04       1.0  T
  11   -404.4249584 -0.453149E-05  0.324E-03    0.04       2.0  T
  12   -404.4249592 -0.838516E-06  0.254E-03    0.04       2.5  T
  13   -404.4249602 -0.100733E-05  0.841E-04    0.04       7.7  T
  14   -404.4249603 -0.523445E-07  0.504E-04    0.04      12.8  T
  15   -404.4249603 -0.202677E-07  0.297E-04    0.04      21.7  T
     SCC iter.                  ...        0 min,  1.071 sec
     gradient                   ...        0 min,  0.312 sec
 * total energy  :  -399.0491043 Eh     change       -0.1297488E+00 Eh
   gradient norm :     0.1734517 Eh/α   predicted    -0.1269061E+00 (  -2.19%)
   displ. norm   :     0.7207597 α      lambda       -0.1025005E+00
   maximum displ.:     0.2722613 α      in ANC's #40, #42, #24, ...

........................................................................
.............................. CYCLE    5 ..............................
........................................................................

 iter      E             dE          RMSdq      gap      omega  full diag
   1   -404.4875845 -0.404488E+03  0.177E-01    0.05       0.0  T
   2   -404.4874824  0.102042E-03  0.157E-01    0.03       1.0  T
   3   -404.4884540 -0.971589E-03  0.126E-01    0.07       1.0  T
   4   -404.4886977 -0.243661E-03  0.879E-02    0.04       1.0  T
   5   -404.4894201 -0.722421E-03  0.593E-02    0.04       1.0  T
   6   -404.4898651 -0.445033E-03  0.107E-02    0.04       1.0  T
   7   -404.4898759 -0.107322E-04  0.512E-03    0.04       1.3  T
   8   -404.4898780 -0.218028E-05  0.306E-03    0.04       2.1  T
   9   -404.4898787 -0.701652E-06  0.198E-03    0.04       3.3  T
  10   -404.4898789 -0.197479E-06  0.151E-03    0.04       4.3  T
  11   -404.4898792 -0.202779E-06  0.971E-04    0.04       6.6  T
  12   -404.4898793 -0.125455E-06  0.397E-04    0.04      16.2  T
     SCC iter.                  ...        0 min,  0.867 sec
     gradient                   ...        0 min,  0.333 sec
 * total energy  :  -399.1346195 Eh     change       -0.8551514E-01 Eh
   gradient norm :     0.1360363 Eh/α   predicted    -0.7787447E-01 (  -8.93%)
   displ. norm   :     0.7340294 α      lambda       -0.7660452E-01
   maximum displ.:     0.2785302 α      in ANC's #42, #40, #24, ...

........................................................................
.............................. CYCLE    6 ..............................
........................................................................

 iter      E             dE          RMSdq      gap      omega  full diag
   1   -404.5392957 -0.404539E+03  0.156E-01    0.06       0.0  T
   2   -404.5375689  0.172678E-02  0.177E-01    0.03       1.0  T
   3   -404.5398892 -0.232023E-02  0.120E-01    0.07       1.0  T
   4   -404.5409593 -0.107015E-02  0.567E-02    0.05       1.0  T
   5   -404.5411766 -0.217287E-03  0.441E-02    0.04       1.0  T
   6   -404.5413834 -0.206781E-03  0.878E-03    0.05       1.0  T
   7   -404.5413907 -0.732461E-05  0.387E-03    0.05       1.7  T
   8   -404.5413917 -0.977157E-06  0.234E-03    0.05       2.7  T
   9   -404.5413921 -0.385923E-06  0.153E-03    0.05       4.2  T
  10   -404.5413923 -0.196791E-06  0.108E-03    0.05       6.0  T
  11   -404.5413923 -0.822276E-07  0.760E-04    0.05       8.5  T
  12   -404.5413924 -0.682480E-07  0.318E-04    0.05      20.2  T
     SCC iter.                  ...        0 min,  0.886 sec
     gradient                   ...        0 min,  0.312 sec
 * total energy  :  -399.1986403 Eh     change       -0.6402082E-01 Eh
   gradient norm :     0.1122761 Eh/α   predicted    -0.5893950E-01 (  -7.94%)
   displ. norm   :     0.7362212 α      lambda       -0.5712605E-01
   maximum displ.:     0.2707790 α      in ANC's #42, #40, #24, ...

........................................................................
.............................. CYCLE    7 ..............................
........................................................................

 iter      E             dE          RMSdq      gap      omega  full diag
   1   -404.5889052 -0.404589E+03  0.139E-01    0.07       0.0  T
   2   -404.5874699  0.143532E-02  0.161E-01    0.03       1.0  T
   3   -404.5896394 -0.216947E-02  0.999E-02    0.07       1.0  T
   4   -404.5904200 -0.780583E-03  0.443E-02    0.05       1.0  T
   5   -404.5905170 -0.970414E-04  0.347E-02    0.05       1.0  T
   6   -404.5906424 -0.125361E-03  0.752E-03    0.05       1.0  T
   7   -404.5906478 -0.547674E-05  0.319E-03    0.05       2.0  T
   8   -404.5906483 -0.482290E-06  0.201E-03    0.05       3.2  T
   9   -404.5906486 -0.243499E-06  0.134E-03    0.05       4.8  T
  10   -404.5906487 -0.161060E-06  0.972E-04    0.05       6.6  T
  11   -404.5906488 -0.734424E-07  0.643E-04    0.05      10.0  T
     SCC iter.                  ...        0 min,  0.786 sec
     gradient                   ...        0 min,  0.308 sec
 * total energy  :  -399.2460749 Eh     change       -0.4743464E-01 Eh
   gradient norm :     0.0984030 Eh/α   predicted    -0.4404479E-01 (  -7.15%)
   displ. norm   :     0.7264186 α      lambda       -0.4243008E-01
   maximum displ.:     0.2542311 α      in ANC's #40, #42, #24, ...

........................................................................
.............................. CYCLE    8 ..............................
........................................................................

 iter      E             dE          RMSdq      gap      omega  full diag
   1   -404.6320504 -0.404632E+03  0.120E-01    0.07       0.0  T
   2   -404.6316280  0.422392E-03  0.116E-01    0.04       1.0  T
   3   -404.6323923 -0.764316E-03  0.869E-02    0.08       1.0  T
   4   -404.6329393 -0.546932E-03  0.416E-02    0.06       1.0  T
   5   -404.6330661 -0.126810E-03  0.269E-02    0.06       1.0  T
   6   -404.6331434 -0.773658E-04  0.597E-03    0.06       1.1  T
   7   -404.6331464 -0.299675E-05  0.278E-03    0.06       2.3  T
   8   -404.6331467 -0.288058E-06  0.193E-03    0.06       3.3  T
   9   -404.6331470 -0.250011E-06  0.133E-03    0.06       4.8  T
  10   -404.6331472 -0.188101E-06  0.938E-04    0.06       6.9  T
  11   -404.6331472 -0.746516E-07  0.519E-04    0.06      12.4  T
     SCC iter.                  ...        0 min,  0.781 sec
     gradient                   ...        0 min,  0.312 sec
 * total energy  :  -399.2818153 Eh     change       -0.3574039E-01 Eh
   gradient norm :     0.0897066 Eh/α   predicted    -0.3240987E-01 (  -9.32%)
   displ. norm   :     0.7191760 α      lambda       -0.3324962E-01
   maximum displ.:     0.2391831 α      in ANC's #40, #42, #24, ...

........................................................................
.............................. CYCLE    9 ..............................
........................................................................

 iter      E             dE          RMSdq      gap      omega  full diag
   1   -404.6633721 -0.404663E+03  0.109E-01    0.08       0.0  T
   2   -404.6635053 -0.133181E-03  0.773E-02    0.06       1.0  T
   3   -404.6634297  0.755628E-04  0.738E-02    0.09       1.0  T
   4   -404.6636425 -0.212821E-03  0.469E-02    0.07       1.0  T
   5   -404.6639127 -0.270134E-03  0.191E-02    0.07       1.0  T
   6   -404.6639548 -0.421354E-04  0.480E-03    0.07       1.3  T
   7   -404.6639563 -0.146449E-05  0.244E-03    0.07       2.6  T
   8   -404.6639565 -0.266592E-06  0.175E-03    0.07       3.7  T
   9   -404.6639567 -0.192099E-06  0.125E-03    0.07       5.1  T
  10   -404.6639569 -0.180109E-06  0.853E-04    0.07       7.6  T
  11   -404.6639570 -0.700871E-07  0.409E-04    0.07      15.8  T
     SCC iter.                  ...        0 min,  0.788 sec
     gradient                   ...        0 min,  0.310 sec
 * total energy  :  -399.3096696 Eh     change       -0.2785434E-01 Eh
   gradient norm :     0.0704970 Eh/α   predicted    -0.2522340E-01 (  -9.45%)
   displ. norm   :     0.7169122 α      lambda       -0.2525179E-01
   maximum displ.:     0.2280885 α      in ANC's #40, #42, #3, ...

........................................................................
.............................. CYCLE   10 ..............................
........................................................................

 iter      E             dE          RMSdq      gap      omega  full diag
   1   -404.6844734 -0.404684E+03  0.101E-01    0.08       0.0  T
   2   -404.6846389 -0.165508E-03  0.625E-02    0.07       1.0  T
   3   -404.6845734  0.655045E-04  0.484E-02    0.08       1.0  T
   4   -404.6845937 -0.203519E-04  0.411E-02    0.08       1.0  T
   5   -404.6847824 -0.188727E-03  0.116E-02    0.08       1.0  T
   6   -404.6847992 -0.167923E-04  0.462E-03    0.08       1.4  T
   7   -404.6848010 -0.172946E-05  0.215E-03    0.08       3.0  T
   8   -404.6848012 -0.226431E-06  0.155E-03    0.08       4.2  T
   9   -404.6848013 -0.125795E-06  0.118E-03    0.08       5.4  T
  10   -404.6848015 -0.164025E-06  0.761E-04    0.08       8.5  T
  11   -404.6848015 -0.550937E-07  0.399E-04    0.08      16.1  T
     SCC iter.                  ...        0 min,  0.786 sec
     gradient                   ...        0 min,  0.309 sec
 * total energy  :  -399.3301382 Eh     change       -0.2046858E-01 Eh
   gradient norm :     0.0409470 Eh/α   predicted    -0.1911513E-01 (  -6.61%)
   displ. norm   :     0.7036821 α      lambda       -0.1578595E-01
   maximum displ.:     0.2465400 α      in ANC's #3, #40, #42, ...

........................................................................
.............................. CYCLE   11 ..............................
........................................................................

 iter      E             dE          RMSdq      gap      omega  full diag
   1   -404.6967959 -0.404697E+03  0.861E-02    0.09       0.0  T
   2   -404.6967987 -0.281996E-05  0.559E-02    0.09       1.0  T
   3   -404.6963152  0.483443E-03  0.697E-02    0.08       1.0  T
   4   -404.6968371 -0.521853E-03  0.290E-02    0.09       1.0  T
   5   -404.6969286 -0.915021E-04  0.905E-03    0.08       1.0  T
   6   -404.6969394 -0.107971E-04  0.292E-03    0.09       2.2  T
   7   -404.6969398 -0.435666E-06  0.171E-03    0.09       3.8  T
   8   -404.6969400 -0.127597E-06  0.125E-03    0.09       5.1  T
   9   -404.6969401 -0.123510E-06  0.961E-04    0.09       6.7  T
  10   -404.6969402 -0.972189E-07  0.641E-04    0.09      10.1  T
     SCC iter.                  ...        0 min,  0.712 sec
     gradient                   ...        0 min,  0.311 sec
 * total energy  :  -399.3425778 Eh     change       -0.1243961E-01 Eh
   gradient norm :     0.0285602 Eh/α   predicted    -0.1180134E-01 (  -5.13%)
   displ. norm   :     0.6714986 α      lambda       -0.9469563E-02
   maximum displ.:     0.3067137 α      in ANC's #3, #5, #8, ...

........................................................................
.............................. CYCLE   12 ..............................
........................................................................

 iter      E             dE          RMSdq      gap      omega  full diag
   1   -404.7046418 -0.404705E+03  0.715E-02    0.09       0.0  T
   2   -404.7046236  0.181343E-04  0.454E-02    0.09       1.0  T
   3   -404.7041688  0.454774E-03  0.632E-02    0.09       1.0  T
   4   -404.7046595 -0.490704E-03  0.182E-02    0.10       1.0  T
   5   -404.7046889 -0.293294E-04  0.866E-03    0.09       1.0  T
   6   -404.7046996 -0.106989E-04  0.193E-03    0.09       3.3  T
   7   -404.7046998 -0.208275E-06  0.108E-03    0.09       6.0  T
   8   -404.7046999 -0.683082E-07  0.762E-04    0.09       8.5  T
   9   -404.7046999 -0.687991E-07  0.530E-04    0.09      12.2  T
     SCC iter.                  ...        0 min,  0.644 sec
     gradient                   ...        0 min,  0.313 sec
 * total energy  :  -399.3502013 Eh     change       -0.7623417E-02 Eh
   gradient norm :     0.0273072 Eh/α   predicted    -0.6869753E-02 (  -9.89%)
   displ. norm   :     0.6659185 α      lambda       -0.6760726E-02
   maximum displ.:     0.3471540 α      in ANC's #3, #8, #5, ...

........................................................................
.............................. CYCLE   13 ..............................
........................................................................

 iter      E             dE          RMSdq      gap      omega  full diag
   1   -404.7109823 -0.404711E+03  0.650E-02    0.10       0.0  T
   2   -404.7109780  0.432534E-05  0.406E-02    0.10       1.0  T
   3   -404.7107965  0.181561E-03  0.429E-02    0.11       1.0  T
   4   -404.7109931 -0.196650E-03  0.163E-02    0.10       1.0  T
   5   -404.7110120 -0.188982E-04  0.815E-03    0.10       1.0  T
   6   -404.7110216 -0.955967E-05  0.247E-03    0.10       2.6  T
   7   -404.7110219 -0.279295E-06  0.178E-03    0.10       3.6  T
   8   -404.7110220 -0.196782E-06  0.134E-03    0.10       4.8  T
   9   -404.7110222 -0.193378E-06  0.975E-04    0.10       6.6  T
  10   -404.7110223 -0.924251E-07  0.580E-04    0.10      11.1  T
     SCC iter.                  ...        0 min,  0.714 sec
     gradient                   ...        0 min,  0.310 sec
 * total energy  :  -399.3557285 Eh     change       -0.5527259E-02 Eh
   gradient norm :     0.0261576 Eh/α   predicted    -0.4879375E-02 ( -11.72%)
   displ. norm   :     0.6749067 α      lambda       -0.5399338E-02
   maximum displ.:     0.3759339 α      in ANC's #3, #8, #2, ...

........................................................................
.............................. CYCLE   14 ..............................
........................................................................

 iter      E             dE          RMSdq      gap      omega  full diag
   1   -404.7140326 -0.404714E+03  0.674E-02    0.11       0.0  T
   2   -404.7140324  0.125993E-06  0.440E-02    0.10       1.0  T
   3   -404.7139399  0.925538E-04  0.389E-02    0.12       1.0  T
   4   -404.7140373 -0.974323E-04  0.189E-02    0.10       1.0  T
   5   -404.7140800 -0.427288E-04  0.111E-02    0.11       1.0  T
   6   -404.7140940 -0.139965E-04  0.392E-03    0.11       1.6  T
   7   -404.7140947 -0.709980E-06  0.292E-03    0.11       2.2  T
   8   -404.7140952 -0.440616E-06  0.229E-03    0.11       2.8  T
   9   -404.7140957 -0.473022E-06  0.152E-03    0.11       4.2  T
  10   -404.7140960 -0.385047E-06  0.730E-04    0.11       8.8  T
  11   -404.7140961 -0.599916E-07  0.304E-04    0.11      21.2  T
     SCC iter.                  ...        0 min,  0.782 sec
     gradient                   ...        0 min,  0.311 sec
 * total energy  :  -399.3599615 Eh     change       -0.4232950E-02 Eh
   gradient norm :     0.0240147 Eh/α   predicted    -0.3929367E-02 (  -7.17%)
   displ. norm   :     0.7044511 α      lambda       -0.4831907E-02
   maximum displ.:     0.3953222 α      in ANC's #3, #8, #42, ...

........................................................................
.............................. CYCLE   15 ..............................
........................................................................

 iter      E             dE          RMSdq      gap      omega  full diag
   1   -404.7195523 -0.404720E+03  0.789E-02    0.12       0.0  T
   2   -404.7195750 -0.227252E-04  0.535E-02    0.11       1.0  T
   3   -404.7195114  0.635756E-04  0.435E-02    0.12       1.0  T
   4   -404.7195365 -0.250887E-04  0.312E-02    0.11       1.0  T
   5   -404.7196705 -0.133937E-03  0.133E-02    0.11       1.0  T
   6   -404.7196868 -0.162987E-04  0.678E-03    0.11       1.0  T
   7   -404.7196894 -0.261215E-05  0.496E-03    0.11       1.3  T
   8   -404.7196911 -0.173014E-05  0.348E-03    0.11       1.9  T
   9   -404.7196923 -0.119581E-05  0.200E-03    0.11       3.2  T
  10   -404.7196931 -0.763339E-06  0.992E-04    0.11       6.5  T
  11   -404.7196932 -0.138845E-06  0.357E-04    0.11      18.0  T
     SCC iter.                  ...        0 min,  0.793 sec
     gradient                   ...        0 min,  0.311 sec
 * total energy  :  -399.3633290 Eh     change       -0.3367551E-02 Eh
   gradient norm :     0.0280136 Eh/α   predicted    -0.3614873E-02 (   7.34%)
   displ. norm   :     0.6345224 α      lambda       -0.3444450E-02
   maximum displ.:     0.3719023 α      in ANC's #3, #8, #40, ...

........................................................................
.............................. CYCLE   16 ..............................
........................................................................

 iter      E             dE          RMSdq      gap      omega  full diag
   1   -404.7187537 -0.404719E+03  0.719E-02    0.13       0.0  T
   2   -404.7187482  0.550484E-05  0.479E-02    0.12       1.0  T
   3   -404.7187105  0.376920E-04  0.376E-02    0.13       1.0  T
   4   -404.7186902  0.203064E-04  0.299E-02    0.12       1.0  T
   5   -404.7188197 -0.129549E-03  0.980E-03    0.12       1.0  T
   6   -404.7188298 -0.101089E-04  0.461E-03    0.12       1.4  T
   7   -404.7188309 -0.110874E-05  0.346E-03    0.12       1.9  T
   8   -404.7188319 -0.949870E-06  0.237E-03    0.12       2.7  T
   9   -404.7188325 -0.582338E-06  0.129E-03    0.12       5.0  T
  10   -404.7188327 -0.253096E-06  0.665E-04    0.12       9.7  T
  11   -404.7188328 -0.809421E-07  0.269E-04    0.12      23.9  T
     SCC iter.                  ...        0 min,  0.794 sec
     gradient                   ...        0 min,  0.311 sec
 * total energy  :  -399.3660849 Eh     change       -0.2755874E-02 Eh
   gradient norm :     0.0241575 Eh/α   predicted    -0.2415633E-02 ( -12.35%)
   displ. norm   :     0.6459145 α      lambda       -0.2905005E-02
   maximum displ.:     0.3692317 α      in ANC's #3, #8, #40, ...

........................................................................
.............................. CYCLE   17 ..............................
........................................................................

 iter      E             dE          RMSdq      gap      omega  full diag
   1   -404.7215735 -0.404722E+03  0.756E-02    0.13       0.0  T
   2   -404.7215578  0.156434E-04  0.480E-02    0.12       1.0  T
   3   -404.7215245  0.332720E-04  0.358E-02    0.14       1.0  T
   4   -404.7214794  0.451466E-04  0.289E-02    0.12       1.0  T
   5   -404.7216067 -0.127271E-03  0.803E-03    0.13       1.0  T
   6   -404.7216156 -0.890413E-05  0.128E-03    0.13       5.0  T
   7   -404.7216156 -0.423415E-07  0.848E-04    0.13       7.6  T
   8   -404.7216156 -0.294945E-07  0.622E-04    0.13      10.4  T
     SCC iter.                  ...        0 min,  0.570 sec
     gradient                   ...        0 min,  0.309 sec
 * total energy  :  -399.3684184 Eh     change       -0.2333511E-02 Eh
   gradient norm :     0.0224264 Eh/α   predicted    -0.2058497E-02 ( -11.79%)
   displ. norm   :     0.6642952 α      lambda       -0.2660978E-02
   maximum displ.:     0.3664421 α      in ANC's #3, #8, #7, ...

........................................................................
.............................. CYCLE   18 ..............................
........................................................................

 iter      E             dE          RMSdq      gap      omega  full diag
   1   -404.7235671 -0.404724E+03  0.816E-02    0.14       0.0  T
   2   -404.7235752 -0.818037E-05  0.504E-02    0.13       1.0  T
   3   -404.7235642  0.109994E-04  0.343E-02    0.14       1.0  T
   4   -404.7235375  0.267311E-04  0.218E-02    0.13       1.0  T
   5   -404.7236174 -0.798603E-04  0.816E-03    0.13       1.0  T
   6   -404.7236247 -0.728566E-05  0.315E-03    0.13       2.0  T
   7   -404.7236251 -0.469526E-06  0.225E-03    0.13       2.9  T
   8   -404.7236255 -0.396148E-06  0.160E-03    0.13       4.0  T
   9   -404.7236258 -0.279508E-06  0.844E-04    0.13       7.6  T
  10   -404.7236259 -0.733901E-07  0.455E-04    0.13      14.1  T
     SCC iter.                  ...        0 min,  0.719 sec
     gradient                   ...        0 min,  0.317 sec
 * total energy  :  -399.3704261 Eh     change       -0.2007703E-02 Eh
   gradient norm :     0.0167854 Eh/α   predicted    -0.1917619E-02 (  -4.49%)
   displ. norm   :     0.6323040 α      lambda       -0.2146164E-02
   maximum displ.:     0.3352767 α      in ANC's #3, #8, #7, ...

........................................................................
.............................. CYCLE   19 ..............................
........................................................................

 iter      E             dE          RMSdq      gap      omega  full diag
   1   -404.7238279 -0.404724E+03  0.788E-02    0.14       0.0  T
   2   -404.7238353 -0.737882E-05  0.473E-02    0.13       1.0  T
   3   -404.7238256  0.968244E-05  0.308E-02    0.14       1.0  T
   4   -404.7238019  0.237227E-04  0.176E-02    0.13       1.0  T
   5   -404.7238555 -0.535997E-04  0.655E-03    0.14       1.0  T
   6   -404.7238592 -0.377492E-05  0.360E-03    0.14       1.8  T
   7   -404.7238601 -0.882744E-06  0.244E-03    0.14       2.6  T
   8   -404.7238606 -0.447293E-06  0.169E-03    0.14       3.8  T
   9   -404.7238610 -0.409770E-06  0.653E-04    0.14       9.9  T
  10   -404.7238610 -0.300940E-07  0.403E-04    0.14      16.0  T
     SCC iter.                  ...        0 min,  0.722 sec
     gradient                   ...        0 min,  0.310 sec
 * total energy  :  -399.3720646 Eh     change       -0.1638499E-02 Eh
   gradient norm :     0.0170640 Eh/α   predicted    -0.1502108E-02 (  -8.32%)
   displ. norm   :     0.5912765 α      lambda       -0.1679369E-02
   maximum displ.:     0.2895390 α      in ANC's #3, #8, #1, ...

........................................................................
.............................. CYCLE   20 ..............................
........................................................................

 iter      E             dE          RMSdq      gap      omega  full diag
   1   -404.7298765 -0.404730E+03  0.684E-02    0.13       0.0  T
   2   -404.7298846 -0.812972E-05  0.397E-02    0.13       1.0  T
   3   -404.7298815  0.312575E-05  0.234E-02    0.14       1.0  T
   4   -404.7298640  0.174288E-04  0.124E-02    0.13       1.0  T
   5   -404.7298889 -0.248180E-04  0.255E-03    0.13       2.5  T
   6   -404.7298894 -0.494563E-06  0.150E-03    0.13       4.3  T
   7   -404.7298895 -0.165924E-06  0.923E-04    0.13       7.0  T
   8   -404.7298896 -0.535947E-07  0.678E-04    0.13       9.5  T
     SCC iter.                  ...        0 min,  0.564 sec
     gradient                   ...        0 min,  0.310 sec
 * total energy  :  -399.3733369 Eh     change       -0.1272258E-02 Eh
   gradient norm :     0.0174493 Eh/α   predicted    -0.1133249E-02 ( -10.93%)
   displ. norm   :     0.6397280 α      lambda       -0.1497015E-02
   maximum displ.:     0.3155689 α      in ANC's #3, #7, #8, ...
 * RMSD in coord.:     0.7704589 α      energy gain  -0.9259243E+00 Eh

generating ANC from exact Hessian ...
Using Lindh-Hessian (1995)
 Shifting diagonal of input Hessian by    1.0213821469103395E-002
 Lowest  eigenvalues of input Hessian
    0.010000    0.000000    0.000000    0.000000    0.000000    0.000000
    0.000000    0.010474    0.010782    0.011348    0.011532    0.011715
    0.012514    0.013177    0.015684    0.018008    0.020035    0.021504
 Highest eigenvalues
    3.128939    3.201890    3.212441    3.246932    3.329208    3.334576


........................................................................
.............................. CYCLE   21 ..............................
........................................................................

 iter      E             dE          RMSdq      gap      omega  full diag
   1   -404.7252117 -0.404725E+03  0.730E-02    0.13       0.0  T
   2   -404.7252269 -0.151901E-04  0.424E-02    0.13       1.0  T
   3   -404.7252171  0.975739E-05  0.253E-02    0.13       1.0  T
   4   -404.7251784  0.387251E-04  0.207E-02    0.13       1.0  T
   5   -404.7252324 -0.539851E-04  0.338E-03    0.13       1.9  T
   6   -404.7252336 -0.120861E-05  0.163E-03    0.13       4.0  T
   7   -404.7252339 -0.296100E-06  0.942E-04    0.13       6.8  T
   8   -404.7252340 -0.665941E-07  0.616E-04    0.13      10.5  T
     SCC iter.                  ...        0 min,  0.612 sec
     gradient                   ...        0 min,  0.312 sec
 * total energy  :  -399.3744340 Eh     change       -0.1097181E-02 Eh
   gradient norm :     0.0184599 Eh/α   predicted     0.0000000E+00 (-100.00%)
   displ. norm   :     0.2345975 α      lambda       -0.1978276E-02
   maximum displ.:     0.1504537 α      in ANC's #2, #13, #1, ...

........................................................................
.............................. CYCLE   22 ..............................
........................................................................

 iter      E             dE          RMSdq      gap      omega  full diag
   1   -404.7329665 -0.404733E+03  0.438E-02    0.13       0.0  T
   2   -404.7329706 -0.418738E-05  0.260E-02    0.13       1.0  T
   3   -404.7329576  0.130157E-04  0.966E-03    0.13       1.0  T
   4   -404.7329656 -0.793124E-05  0.700E-03    0.13       1.0  T
   5   -404.7329725 -0.693645E-05  0.156E-03    0.13       4.1  T
   6   -404.7329727 -0.237061E-06  0.862E-04    0.13       7.5  T
   7   -404.7329728 -0.710172E-07  0.382E-04    0.13      16.9  T
     SCC iter.                  ...        0 min,  0.497 sec
     gradient                   ...        0 min,  0.311 sec
 * total energy  :  -399.3757738 Eh     change       -0.1339767E-02 Eh
   gradient norm :     0.0083354 Eh/α   predicted    -0.1043595E-02 ( -22.11%)
   displ. norm   :     0.3347783 α      lambda       -0.1094497E-02
   maximum displ.:     0.2462590 α      in ANC's #2, #13, #1, ...

........................................................................
.............................. CYCLE   23 ..............................
........................................................................

 iter      E             dE          RMSdq      gap      omega  full diag
   1   -404.7381144 -0.404738E+03  0.439E-02    0.12       0.0  T
   2   -404.7381183 -0.390793E-05  0.255E-02    0.13       1.0  T
   3   -404.7381170  0.133599E-05  0.115E-02    0.13       1.0  T
   4   -404.7381193 -0.224903E-05  0.164E-03    0.13       3.9  T
   5   -404.7381196 -0.341373E-06  0.124E-03    0.13       5.2  T
   6   -404.7381198 -0.160306E-06  0.757E-04    0.13       8.5  T
   7   -404.7381198 -0.385497E-07  0.464E-04    0.13      13.9  T
     SCC iter.                  ...        0 min,  0.507 sec
     gradient                   ...        0 min,  0.312 sec
 * total energy  :  -399.3766250 Eh     change       -0.8511454E-03 Eh
   gradient norm :     0.0069591 Eh/α   predicted    -0.6085980E-03 ( -28.50%)
   displ. norm   :     0.4369760 α      lambda       -0.1020994E-02
   maximum displ.:     0.3156997 α      in ANC's #2, #4, #1, ...

........................................................................
.............................. CYCLE   24 ..............................
........................................................................

 iter      E             dE          RMSdq      gap      omega  full diag
   1   -404.7401507 -0.404740E+03  0.499E-02    0.12       0.0  T
   2   -404.7401547 -0.401812E-05  0.291E-02    0.12       1.0  T
   3   -404.7401502  0.451294E-05  0.177E-02    0.12       1.0  T
   4   -404.7401359  0.143033E-04  0.117E-02    0.12       1.0  T
   5   -404.7401573 -0.214133E-04  0.209E-03    0.12       3.1  T
   6   -404.7401577 -0.359533E-06  0.113E-03    0.12       5.7  T
   7   -404.7401578 -0.919638E-07  0.688E-04    0.12       9.4  T
   8   -404.7401578 -0.300042E-07  0.470E-04    0.12      13.7  T
     SCC iter.                  ...        0 min,  0.570 sec
     gradient                   ...        0 min,  0.311 sec
 * total energy  :  -399.3775226 Eh     change       -0.8976355E-03 Eh
   gradient norm :     0.0077275 Eh/α   predicted    -0.6079757E-03 ( -32.27%)
   displ. norm   :     0.5581326 α      lambda       -0.1208876E-02
   maximum displ.:     0.3890570 α      in ANC's #2, #4, #1, ...

........................................................................
.............................. CYCLE   25 ..............................
........................................................................

 iter      E             dE          RMSdq      gap      omega  full diag
   1   -404.7398426 -0.404740E+03  0.591E-02    0.12       0.0  T
   2   -404.7398464 -0.376124E-05  0.348E-02    0.12       1.0  T
   3   -404.7398359  0.104615E-04  0.231E-02    0.12       1.0  T
   4   -404.7397751  0.608219E-04  0.225E-02    0.11       1.0  T
   5   -404.7398537 -0.786295E-04  0.313E-03    0.12       2.1  T
   6   -404.7398548 -0.106088E-05  0.133E-03    0.12       4.8  T
   7   -404.7398550 -0.149679E-06  0.683E-04    0.12       9.4  T
   8   -404.7398550 -0.264523E-07  0.469E-04    0.12      13.7  T
     SCC iter.                  ...        0 min,  0.569 sec
     gradient                   ...        0 min,  0.311 sec
 * total energy  :  -399.3786276 Eh     change       -0.1104980E-02 Eh
   gradient norm :     0.0091387 Eh/α   predicted    -0.7927287E-03 ( -28.26%)
   displ. norm   :     0.6489801 α      lambda       -0.1352317E-02
   maximum displ.:     0.4394256 α      in ANC's #2, #4, #1, ...

........................................................................
.............................. CYCLE   26 ..............................
........................................................................

 iter      E             dE          RMSdq      gap      omega  full diag
   1   -404.7387789 -0.404739E+03  0.636E-02    0.12       0.0  T
   2   -404.7387813 -0.241281E-05  0.378E-02    0.11       1.0  T
   3   -404.7387679  0.134729E-04  0.256E-02    0.12       1.0  T
   4   -404.7386725  0.953775E-04  0.281E-02    0.11       1.0  T
   5   -404.7387940 -0.121485E-03  0.385E-03    0.12       1.7  T
   6   -404.7387957 -0.174188E-05  0.154E-03    0.12       4.2  T
   7   -404.7387959 -0.193808E-06  0.788E-04    0.12       8.2  T
   8   -404.7387959 -0.349062E-07  0.539E-04    0.12      12.0  T
     SCC iter.                  ...        0 min,  0.563 sec
     gradient                   ...        0 min,  0.311 sec
 * total energy  :  -399.3798763 Eh     change       -0.1248762E-02 Eh
   gradient norm :     0.0106781 Eh/α   predicted    -0.9609406E-03 ( -23.05%)
   displ. norm   :     0.6845630 α      lambda       -0.1407052E-02
   maximum displ.:     0.4615313 α      in ANC's #2, #4, #1, ...

........................................................................
.............................. CYCLE   27 ..............................
........................................................................

 iter      E             dE          RMSdq      gap      omega  full diag
   1   -404.7386799 -0.404739E+03  0.611E-02    0.12       0.0  T
   2   -404.7386799 -0.147212E-07  0.366E-02    0.11       1.0  T
   3   -404.7386645  0.153571E-04  0.254E-02    0.12       1.0  T
   4   -404.7385704  0.941302E-04  0.286E-02    0.11       1.0  T
   5   -404.7386947 -0.124321E-03  0.391E-03    0.11       1.6  T
   6   -404.7386967 -0.193586E-05  0.138E-03    0.12       4.7  T
   7   -404.7386968 -0.171123E-06  0.607E-04    0.12      10.6  T
   8   -404.7386968 -0.245697E-07  0.343E-04    0.12      18.8  T
     SCC iter.                  ...        0 min,  0.575 sec
     gradient                   ...        0 min,  0.313 sec
 * total energy  :  -399.3811736 Eh     change       -0.1297310E-02 Eh
   gradient norm :     0.0107335 Eh/α   predicted    -0.1033222E-02 ( -20.36%)
   displ. norm   :     0.7299812 α      lambda       -0.1478649E-02
   maximum displ.:     0.4876394 α      in ANC's #2, #4, #1, ...

........................................................................
.............................. CYCLE   28 ..............................
........................................................................

 iter      E             dE          RMSdq      gap      omega  full diag
   1   -404.7399415 -0.404740E+03  0.589E-02    0.12       0.0  T
   2   -404.7399407  0.864918E-06  0.354E-02    0.11       1.0  T
   3   -404.7399211  0.196058E-04  0.255E-02    0.12       1.0  T
   4   -404.7398386  0.824660E-04  0.279E-02    0.11       1.0  T
   5   -404.7399560 -0.117392E-03  0.371E-03    0.11       1.7  T
   6   -404.7399578 -0.177615E-05  0.135E-03    0.12       4.8  T
   7   -404.7399579 -0.159108E-06  0.621E-04    0.12      10.4  T
   8   -404.7399580 -0.284140E-07  0.332E-04    0.12      19.4  T
     SCC iter.                  ...        0 min,  0.579 sec
     gradient                   ...        0 min,  0.312 sec
 * total energy  :  -399.3825443 Eh     change       -0.1370678E-02 Eh
   gradient norm :     0.0094021 Eh/α   predicted    -0.1133298E-02 ( -17.32%)
   displ. norm   :     0.7772038 α      lambda       -0.1578126E-02
   maximum displ.:     0.5244988 α      in ANC's #2, #4, #1, ...

........................................................................
.............................. CYCLE   29 ..............................
........................................................................

 iter      E             dE          RMSdq      gap      omega  full diag
   1   -404.7426608 -0.404743E+03  0.570E-02    0.12       0.0  T
   2   -404.7426589  0.191106E-05  0.343E-02    0.11       1.0  T
   3   -404.7426304  0.285782E-04  0.262E-02    0.12       1.0  T
   4   -404.7425680  0.623250E-04  0.268E-02    0.11       1.0  T
   5   -404.7426740 -0.105933E-03  0.338E-03    0.12       1.9  T
   6   -404.7426755 -0.151036E-05  0.137E-03    0.12       4.7  T
   7   -404.7426756 -0.141044E-06  0.782E-04    0.12       8.2  T
   8   -404.7426757 -0.397960E-07  0.478E-04    0.12      13.5  T
     SCC iter.                  ...        0 min,  0.577 sec
     gradient                   ...        0 min,  0.313 sec
 * total energy  :  -399.3839947 Eh     change       -0.1450369E-02 Eh
   gradient norm :     0.0075803 Eh/α   predicted    -0.1265694E-02 ( -12.73%)
   displ. norm   :     0.8131584 α      lambda       -0.1568688E-02
   maximum displ.:     0.5540361 α      in ANC's #2, #4, #1, ...

........................................................................
.............................. CYCLE   30 ..............................
........................................................................

 iter      E             dE          RMSdq      gap      omega  full diag
   1   -404.7456418 -0.404746E+03  0.572E-02    0.12       0.0  T
   2   -404.7456424 -0.576832E-06  0.341E-02    0.11       1.0  T
   3   -404.7456068  0.355686E-04  0.264E-02    0.12       1.0  T
   4   -404.7455645  0.423203E-04  0.247E-02    0.11       1.0  T
   5   -404.7456547 -0.901640E-04  0.305E-03    0.12       2.1  T
   6   -404.7456558 -0.115880E-05  0.152E-03    0.12       4.2  T
   7   -404.7456560 -0.145570E-06  0.995E-04    0.12       6.5  T
   8   -404.7456560 -0.590545E-07  0.649E-04    0.12       9.9  T
     SCC iter.                  ...        0 min,  0.566 sec
     gradient                   ...        0 min,  0.310 sec
 * total energy  :  -399.3854013 Eh     change       -0.1406599E-02 Eh
   gradient norm :     0.0077602 Eh/α   predicted    -0.1302975E-02 (  -7.37%)
   displ. norm   :     0.7957852 α      lambda       -0.1330159E-02
   maximum displ.:     0.5542530 α      in ANC's #2, #4, #1, ...

........................................................................
.............................. CYCLE   31 ..............................
........................................................................

 iter      E             dE          RMSdq      gap      omega  full diag
   1   -404.7479445 -0.404748E+03  0.536E-02    0.12       0.0  T
   2   -404.7479474 -0.292645E-05  0.317E-02    0.12       1.0  T
   3   -404.7479169  0.305357E-04  0.235E-02    0.12       1.0  T
   4   -404.7478957  0.211408E-04  0.202E-02    0.11       1.0  T
   5   -404.7479557 -0.599498E-04  0.283E-03    0.12       2.3  T
   6   -404.7479565 -0.825039E-06  0.182E-03    0.12       3.5  T
   7   -404.7479567 -0.187836E-06  0.131E-03    0.12       4.9  T
   8   -404.7479568 -0.952490E-07  0.875E-04    0.12       7.4  T
   9   -404.7479568 -0.543279E-07  0.618E-04    0.12      10.4  T
     SCC iter.                  ...        0 min,  0.635 sec
     gradient                   ...        0 min,  0.312 sec
 * total energy  :  -399.3865361 Eh     change       -0.1134820E-02 Eh
   gradient norm :     0.0081451 Eh/α   predicted    -0.1086259E-02 (  -4.28%)
   displ. norm   :     0.7212514 α      lambda       -0.9598334E-03
   maximum displ.:     0.5124366 α      in ANC's #2, #4, #1, ...

........................................................................
.............................. CYCLE   32 ..............................
........................................................................

 iter      E             dE          RMSdq      gap      omega  full diag
   1   -404.7491794 -0.404749E+03  0.456E-02    0.12       0.0  T
   2   -404.7491828 -0.333479E-05  0.268E-02    0.12       1.0  T
   3   -404.7491592  0.235132E-04  0.192E-02    0.12       1.0  T
   4   -404.7491532  0.601927E-05  0.156E-02    0.11       1.0  T
   5   -404.7491884 -0.351294E-04  0.240E-03    0.12       2.7  T
   6   -404.7491889 -0.550020E-06  0.169E-03    0.12       3.8  T
   7   -404.7491891 -0.168630E-06  0.120E-03    0.12       5.4  T
   8   -404.7491892 -0.878590E-07  0.806E-04    0.12       8.0  T
   9   -404.7491892 -0.487410E-07  0.544E-04    0.12      11.8  T
     SCC iter.                  ...        0 min,  0.643 sec
     gradient                   ...        0 min,  0.314 sec
 * total energy  :  -399.3873419 Eh     change       -0.8058112E-03 Eh
   gradient norm :     0.0063458 Eh/α   predicted    -0.7295746E-03 (  -9.46%)
   displ. norm   :     0.6229241 α      lambda       -0.6798710E-03
   maximum displ.:     0.4539830 α      in ANC's #2, #1, #4, ...

........................................................................
.............................. CYCLE   33 ..............................
........................................................................

 iter      E             dE          RMSdq      gap      omega  full diag
   1   -404.7513988 -0.404751E+03  0.359E-02    0.11       0.0  T
   2   -404.7514015 -0.272456E-05  0.211E-02    0.12       1.0  T
   3   -404.7513767  0.248047E-04  0.149E-02    0.12       1.0  T
   4   -404.7513925 -0.157245E-04  0.992E-03    0.11       1.0  T
   5   -404.7514052 -0.127842E-04  0.221E-03    0.12       2.9  T
   6   -404.7514058 -0.536021E-06  0.167E-03    0.12       3.9  T
   7   -404.7514060 -0.179948E-06  0.116E-03    0.12       5.6  T
   8   -404.7514061 -0.125468E-06  0.709E-04    0.12       9.1  T
   9   -404.7514061 -0.348855E-07  0.467E-04    0.12      13.8  T
     SCC iter.                  ...        0 min,  0.639 sec
     gradient                   ...        0 min,  0.311 sec
 * total energy  :  -399.3878858 Eh     change       -0.5438811E-03 Eh
   gradient norm :     0.0042887 Eh/α   predicted    -0.4718527E-03 ( -13.24%)
   displ. norm   :     0.4940638 α      lambda       -0.4188596E-03
   maximum displ.:     0.3665960 α      in ANC's #2, #1, #4, ...

........................................................................
.............................. CYCLE   34 ..............................
........................................................................

 iter      E             dE          RMSdq      gap      omega  full diag
   1   -404.7516269 -0.404752E+03  0.290E-02    0.11       0.0  T
   2   -404.7516285 -0.161781E-05  0.171E-02    0.11       1.0  T
   3   -404.7516027  0.258335E-04  0.131E-02    0.11       1.0  T
   4   -404.7516260 -0.233559E-04  0.678E-03    0.11       1.0  T
   5   -404.7516315 -0.542513E-05  0.194E-03    0.11       3.3  T
   6   -404.7516320 -0.532953E-06  0.134E-03    0.11       4.8  T
   7   -404.7516321 -0.971340E-07  0.939E-04    0.11       6.9  T
   8   -404.7516322 -0.899253E-07  0.550E-04    0.11      11.7  T
     SCC iter.                  ...        0 min,  0.567 sec
     gradient                   ...        0 min,  0.310 sec
 * total energy  :  -399.3882107 Eh     change       -0.3248990E-03 Eh
   gradient norm :     0.0045297 Eh/α   predicted    -0.2605683E-03 ( -19.80%)
   displ. norm   :     0.3823299 α      lambda       -0.2916292E-03
   maximum displ.:     0.2829063 α      in ANC's #2, #1, #7, ...

........................................................................
.............................. CYCLE   35 ..............................
........................................................................

 iter      E             dE          RMSdq      gap      omega  full diag
   1   -404.7544937 -0.404754E+03  0.259E-02    0.11       0.0  T
   2   -404.7544949 -0.122988E-05  0.156E-02    0.11       1.0  T
   3   -404.7544863  0.862967E-05  0.119E-02    0.11       1.0  T
   4   -404.7544937 -0.737020E-05  0.621E-03    0.11       1.0  T
   5   -404.7544978 -0.412839E-05  0.200E-03    0.11       3.2  T
   6   -404.7544981 -0.343038E-06  0.143E-03    0.11       4.5  T
   7   -404.7544983 -0.132008E-06  0.103E-03    0.11       6.2  T
   8   -404.7544984 -0.858706E-07  0.545E-04    0.11      11.8  T
   9   -404.7544984 -0.248500E-07  0.359E-04    0.11      17.9  T
     SCC iter.                  ...        0 min,  0.638 sec
     gradient                   ...        0 min,  0.311 sec
 * total energy  :  -399.3884328 Eh     change       -0.2220638E-03 Eh
   gradient norm :     0.0060288 Eh/α   predicted    -0.1671310E-03 ( -24.74%)
   displ. norm   :     0.3758154 α      lambda       -0.2540885E-03
   maximum displ.:     0.2707951 α      in ANC's #2, #7, #1, ...

........................................................................
.............................. CYCLE   36 ..............................
........................................................................

 iter      E             dE          RMSdq      gap      omega  full diag
   1   -404.7518554 -0.404752E+03  0.287E-02    0.11       0.0  T
   2   -404.7518562 -0.827000E-06  0.171E-02    0.11       1.0  T
   3   -404.7518257  0.305578E-04  0.146E-02    0.11       1.0  T
   4   -404.7518558 -0.301433E-04  0.532E-03    0.11       1.2  T
   5   -404.7518590 -0.320496E-05  0.164E-03    0.11       3.9  T
   6   -404.7518593 -0.305085E-06  0.104E-03    0.11       6.2  T
   7   -404.7518594 -0.646669E-07  0.767E-04    0.11       8.4  T
   8   -404.7518594 -0.458367E-07  0.441E-04    0.11      14.6  T
     SCC iter.                  ...        0 min,  0.574 sec
     gradient                   ...        0 min,  0.310 sec
 * total energy  :  -399.3886092 Eh     change       -0.1764483E-03 Eh
   gradient norm :     0.0045215 Eh/α   predicted    -0.1449893E-03 ( -17.83%)
   displ. norm   :     0.2892467 α      lambda       -0.1724058E-03
   maximum displ.:     0.1783705 α      in ANC's #2, #7, #10, ...

........................................................................
.............................. CYCLE   37 ..............................
........................................................................

 iter      E             dE          RMSdq      gap      omega  full diag
   1   -404.7537091 -0.404754E+03  0.284E-02    0.11       0.0  T
   2   -404.7537101 -0.988540E-06  0.171E-02    0.11       1.0  T
   3   -404.7537064  0.372702E-05  0.122E-02    0.11       1.0  T
   4   -404.7537082 -0.179971E-05  0.650E-03    0.11       1.0  T
   5   -404.7537128 -0.459378E-05  0.198E-03    0.11       3.3  T
   6   -404.7537131 -0.325261E-06  0.138E-03    0.11       4.7  T
   7   -404.7537133 -0.133425E-06  0.955E-04    0.11       6.7  T
   8   -404.7537133 -0.715203E-07  0.617E-04    0.11      10.4  T
     SCC iter.                  ...        0 min,  0.620 sec
     gradient                   ...        0 min,  0.316 sec
 * total energy  :  -399.3887305 Eh     change       -0.1212776E-03 Eh
   gradient norm :     0.0029694 Eh/α   predicted    -0.9341804E-04 ( -22.97%)
   displ. norm   :     0.2420814 α      lambda       -0.1146295E-03
   maximum displ.:     0.1292308 α      in ANC's #7, #2, #10, ...

........................................................................
.............................. CYCLE   38 ..............................
........................................................................

 iter      E             dE          RMSdq      gap      omega  full diag
   1   -404.7529786 -0.404753E+03  0.239E-02    0.11       0.0  T
   2   -404.7529790 -0.336015E-06  0.143E-02    0.11       1.0  T
   3   -404.7529762  0.274783E-05  0.102E-02    0.11       1.0  T
   4   -404.7529771 -0.904183E-06  0.544E-03    0.11       1.2  T
   5   -404.7529805 -0.331629E-05  0.143E-03    0.11       4.5  T
   6   -404.7529807 -0.223029E-06  0.846E-04    0.11       7.6  T
   7   -404.7529807 -0.437809E-07  0.579E-04    0.11      11.1  T
     SCC iter.                  ...        0 min,  0.502 sec
     gradient                   ...        0 min,  0.309 sec
 * total energy  :  -399.3888164 Eh     change       -0.8588081E-04 Eh
   gradient norm :     0.0023864 Eh/α   predicted    -0.6067431E-04 ( -29.35%)
   displ. norm   :     0.2549572 α      lambda       -0.1049161E-03
   maximum displ.:     0.1280505 α      in ANC's #7, #1, #4, ...

........................................................................
.............................. CYCLE   39 ..............................
........................................................................

 iter      E             dE          RMSdq      gap      omega  full diag
   1   -404.7531266 -0.404753E+03  0.239E-02    0.11       0.0  T
   2   -404.7531271 -0.558096E-06  0.143E-02    0.11       1.0  T
   3   -404.7531252  0.199324E-05  0.992E-03    0.11       1.0  T
   4   -404.7531247  0.447931E-06  0.566E-03    0.11       1.1  T
   5   -404.7531284 -0.367289E-05  0.143E-03    0.11       4.5  T
   6   -404.7531286 -0.188164E-06  0.913E-04    0.11       7.1  T
   7   -404.7531286 -0.599181E-07  0.601E-04    0.11      10.7  T
     SCC iter.                  ...        0 min,  0.492 sec
     gradient                   ...        0 min,  0.310 sec
 * total energy  :  -399.3888927 Eh     change       -0.7636398E-04 Eh
   gradient norm :     0.0033334 Eh/α   predicted    -0.5586895E-04 ( -26.84%)
   displ. norm   :     0.1982690 α      lambda       -0.7363647E-04
   maximum displ.:     0.1029831 α      in ANC's #7, #1, #2, ...

........................................................................
.............................. CYCLE   40 ..............................
........................................................................

 iter      E             dE          RMSdq      gap      omega  full diag
   1   -404.7518459 -0.404752E+03  0.170E-02    0.11       0.0  T
   2   -404.7518462 -0.222288E-06  0.101E-02    0.11       1.0  T
   3   -404.7518434  0.274084E-05  0.740E-03    0.11       1.0  T
   4   -404.7518415  0.194520E-05  0.634E-03    0.11       1.0  T
   5   -404.7518468 -0.528325E-05  0.596E-04    0.11      10.8  T
   6   -404.7518468 -0.103370E-07  0.517E-04    0.11      12.5  T
   7   -404.7518468 -0.244869E-07  0.298E-04    0.11      21.6  T
     SCC iter.                  ...        0 min,  0.494 sec
     gradient                   ...        0 min,  0.310 sec
 * total energy  :  -399.3889500 Eh     change       -0.5730730E-04 Eh
   gradient norm :     0.0033012 Eh/α   predicted    -0.3826655E-04 ( -33.23%)
   displ. norm   :     0.1621278 α      lambda       -0.6678313E-04
   maximum displ.:     0.1007968 α      in ANC's #1, #7, #2, ...

........................................................................
.............................. CYCLE   41 ..............................
........................................................................

 iter      E             dE          RMSdq      gap      omega  full diag
   1   -404.7519371 -0.404752E+03  0.128E-02    0.11       0.0  T
   2   -404.7519369  0.271171E-06  0.771E-03    0.11       1.0  T
   3   -404.7519293  0.762690E-05  0.836E-03    0.11       1.0  T
   4   -404.7519361 -0.682153E-05  0.390E-03    0.11       1.7  T
   5   -404.7519378 -0.174739E-05  0.495E-04    0.11      13.0  T
   6   -404.7519378 -0.150836E-07  0.374E-04    0.11      17.2  T
   7   -404.7519378 -0.727715E-08  0.277E-04    0.11      23.3  T
     SCC iter.                  ...        0 min,  0.496 sec
     gradient                   ...        0 min,  0.310 sec
 * total energy  :  -399.3890064 Eh     change       -0.5633168E-04 Eh
   gradient norm :     0.0022045 Eh/α   predicted    -0.3426959E-04 ( -39.16%)
   displ. norm   :     0.1501122 α      lambda       -0.6341546E-04
   maximum displ.:     0.0968741 α      in ANC's #1, #2, #7, ...

........................................................................
.............................. CYCLE   42 ..............................
........................................................................

 iter      E             dE          RMSdq      gap      omega  full diag
   1   -404.7522565 -0.404752E+03  0.107E-02    0.11       0.0  T
   2   -404.7522558  0.648398E-06  0.677E-03    0.11       1.0  T
   3   -404.7522466  0.921896E-05  0.895E-03    0.11       1.0  T
   4   -404.7522567 -0.101185E-04  0.202E-03    0.11       3.2  T
   5   -404.7522573 -0.584395E-06  0.107E-03    0.11       6.0  T
   6   -404.7522574 -0.104164E-06  0.290E-04    0.11      22.2  T
   7   -404.7522574 -0.353992E-08  0.213E-04    0.11      30.3  T
     SCC iter.                  ...        0 min,  0.495 sec
     gradient                   ...        0 min,  0.310 sec
 * total energy  :  -399.3890599 Eh     change       -0.5351790E-04 Eh
   gradient norm :     0.0016321 Eh/α   predicted    -0.3242511E-04 ( -39.41%)
   displ. norm   :     0.2576482 α      lambda       -0.6782432E-04
   maximum displ.:     0.1680433 α      in ANC's #1, #2, #9, ...
 * RMSD in coord.:     0.5247010 α      energy gain  -0.1572303E-01 Eh

generating ANC from exact Hessian ...
Using Lindh-Hessian (1995)
 Shifting diagonal of input Hessian by    9.7754443832269809E-003
 Lowest  eigenvalues of input Hessian
    0.000000    0.000000    0.000000    0.000000    0.000000    0.000000
    0.010000    0.010277    0.010767    0.011107    0.011470    0.012006
    0.012962    0.013244    0.015377    0.016961    0.020469    0.022038
 Highest eigenvalues
    3.128359    3.201315    3.212008    3.246321    3.327249    3.334277


........................................................................
.............................. CYCLE   43 ..............................
........................................................................

 iter      E             dE          RMSdq      gap      omega  full diag
   1   -404.7530274 -0.404753E+03  0.183E-02    0.11       0.0  T
   2   -404.7530253  0.213481E-05  0.117E-02    0.11       1.0  T
   3   -404.7530083  0.169492E-04  0.137E-02    0.11       1.0  T
   4   -404.7530269 -0.186331E-04  0.522E-03    0.11       1.2  T
   5   -404.7530305 -0.351801E-05  0.170E-03    0.11       3.8  T
   6   -404.7530308 -0.289380E-06  0.506E-04    0.11      12.7  T
   7   -404.7530308 -0.114359E-07  0.338E-04    0.11      19.1  T
     SCC iter.                  ...        0 min,  0.480 sec
     gradient                   ...        0 min,  0.311 sec
 * total energy  :  -399.3891317 Eh     change       -0.7180451E-04 Eh
   gradient norm :     0.0033550 Eh/α   predicted     0.0000000E+00 (-100.00%)
   displ. norm   :     0.0453880 α      lambda       -0.3259978E-04
   maximum displ.:     0.0361644 α      in ANC's #1, #3, #6, ...

........................................................................
.............................. CYCLE   44 ..............................
........................................................................

 iter      E             dE          RMSdq      gap      omega  full diag
   1   -404.7531930 -0.404753E+03  0.503E-03    0.11       0.0  T
   2   -404.7531930 -0.871700E-08  0.301E-03    0.11       2.1  T
   3   -404.7531923  0.735472E-06  0.264E-03    0.11       2.4  T
   4   -404.7531927 -0.457510E-06  0.191E-03    0.11       3.4  T
   5   -404.7531931 -0.396621E-06  0.452E-04    0.11      14.2  T
   6   -404.7531932 -0.203558E-07  0.190E-04    0.11      33.9  T
     SCC iter.                  ...        0 min,  0.428 sec
     gradient                   ...        0 min,  0.310 sec
 * total energy  :  -399.3891621 Eh     change       -0.3044956E-04 Eh
   gradient norm :     0.0016310 Eh/α   predicted    -0.1814693E-04 ( -40.40%)
   displ. norm   :     0.1474343 α      lambda       -0.5165591E-04
   maximum displ.:     0.1106233 α      in ANC's #1, #3, #6, ...

........................................................................
.............................. CYCLE   45 ..............................
........................................................................

 iter      E             dE          RMSdq      gap      omega  full diag
   1   -404.7532611 -0.404753E+03  0.155E-02    0.11       0.0  T
   2   -404.7532612 -0.140928E-06  0.918E-03    0.11       1.0  T
   3   -404.7532581  0.314516E-05  0.675E-03    0.11       1.0  T
   4   -404.7532559  0.221254E-05  0.689E-03    0.11       1.0  T
   5   -404.7532620 -0.609883E-05  0.845E-04    0.11       7.6  T
   6   -404.7532620 -0.763439E-07  0.469E-04    0.11      13.7  T
   7   -404.7532621 -0.134691E-07  0.314E-04    0.11      20.5  T
     SCC iter.                  ...        0 min,  0.501 sec
     gradient                   ...        0 min,  0.310 sec
 * total energy  :  -399.3892130 Eh     change       -0.5084877E-04 Eh
   gradient norm :     0.0026812 Eh/α   predicted    -0.2607769E-04 ( -48.72%)
   displ. norm   :     0.0676351 α      lambda       -0.2368124E-04
   maximum displ.:     0.0528564 α      in ANC's #1, #6, #3, ...

........................................................................
.............................. CYCLE   46 ..............................
........................................................................

 iter      E             dE          RMSdq      gap      omega  full diag
   1   -404.7531948 -0.404753E+03  0.612E-03    0.11       0.0  T
   2   -404.7531948 -0.625960E-07  0.360E-03    0.11       1.8  T
   3   -404.7531947  0.113771E-06  0.229E-03    0.11       2.8  T
   4   -404.7531942  0.472431E-06  0.224E-03    0.11       2.9  T
   5   -404.7531949 -0.651743E-06  0.296E-04    0.11      21.8  T
   6   -404.7531949 -0.232376E-09  0.266E-04    0.11      24.2  T
     SCC iter.                  ...        0 min,  0.426 sec
     gradient                   ...        0 min,  0.310 sec
 * total energy  :  -399.3892347 Eh     change       -0.2174897E-04 Eh
   gradient norm :     0.0025493 Eh/α   predicted    -0.1189971E-04 ( -45.29%)
   displ. norm   :     0.0841012 α      lambda       -0.3101746E-04
   maximum displ.:     0.0646180 α      in ANC's #1, #6, #3, ...

........................................................................
.............................. CYCLE   47 ..............................
........................................................................

 iter      E             dE          RMSdq      gap      omega  full diag
   1   -404.7531817 -0.404753E+03  0.751E-03    0.11       0.0  T
   2   -404.7531817 -0.694633E-07  0.452E-03    0.11       1.4  T
   3   -404.7531816  0.128740E-06  0.303E-03    0.11       2.1  T
   4   -404.7531816 -0.109306E-07  0.141E-03    0.11       4.6  T
   5   -404.7531819 -0.274686E-06  0.251E-04    0.11      25.7  T
   6   -404.7531819 -0.967475E-09  0.204E-04    0.11      31.5  T
     SCC iter.                  ...        0 min,  0.423 sec
     gradient                   ...        0 min,  0.312 sec
 * total energy  :  -399.3892618 Eh     change       -0.2708412E-04 Eh
   gradient norm :     0.0015154 Eh/α   predicted    -0.1561896E-04 ( -42.33%)
   displ. norm   :     0.1412301 α      lambda       -0.2812087E-04
   maximum displ.:     0.1109676 α      in ANC's #1, #6, #4, ...

........................................................................
.............................. CYCLE   48 ..............................
........................................................................

 iter      E             dE          RMSdq      gap      omega  full diag
   1   -404.7532138 -0.404753E+03  0.121E-02    0.11       0.0  T
   2   -404.7532138  0.428981E-07  0.746E-03    0.11       1.0  T
   3   -404.7532129  0.902352E-06  0.559E-03    0.11       1.2  T
   4   -404.7532127  0.173844E-06  0.338E-03    0.11       1.9  T
   5   -404.7532145 -0.176899E-05  0.115E-03    0.11       5.6  T
   6   -404.7532146 -0.134754E-06  0.360E-04    0.11      17.9  T
   7   -404.7532146 -0.725476E-08  0.229E-04    0.11      28.1  T
     SCC iter.                  ...        0 min,  0.548 sec
     gradient                   ...        0 min,  0.317 sec
 * total energy  :  -399.3892946 Eh     change       -0.3280609E-04 Eh
   gradient norm :     0.0011727 Eh/α   predicted    -0.1418560E-04 ( -56.76%)
   displ. norm   :     0.0860634 α      lambda       -0.1328304E-04
   maximum displ.:     0.0724614 α      in ANC's #1, #6, #4, ...

........................................................................
.............................. CYCLE   49 ..............................
........................................................................

 iter      E             dE          RMSdq      gap      omega  full diag
   1   -404.7533837 -0.404753E+03  0.670E-03    0.11       0.0  T
   2   -404.7533836  0.105885E-06  0.423E-03    0.11       1.5  T
   3   -404.7533831  0.487411E-06  0.349E-03    0.11       1.8  T
   4   -404.7533831  0.809803E-08  0.239E-03    0.11       2.7  T
   5   -404.7533840 -0.870118E-06  0.712E-04    0.11       9.0  T
   6   -404.7533840 -0.487016E-07  0.207E-04    0.11      31.1  T
     SCC iter.                  ...        0 min,  0.440 sec
     gradient                   ...        0 min,  0.312 sec
 * total energy  :  -399.3893126 Eh     change       -0.1793688E-04 Eh
   gradient norm :     0.0011726 Eh/α   predicted    -0.6664241E-05 ( -62.85%)
   displ. norm   :     0.0570375 α      lambda       -0.1004790E-04
   maximum displ.:     0.0515214 α      in ANC's #1, #2, #6, ...

........................................................................
.............................. CYCLE   50 ..............................
........................................................................

 iter      E             dE          RMSdq      gap      omega  full diag
   1   -404.7535976 -0.404754E+03  0.394E-03    0.11       0.0  T
   2   -404.7535975  0.967671E-07  0.255E-03    0.11       2.5  T
   3   -404.7535970  0.453327E-06  0.258E-03    0.11       2.5  T
   4   -404.7535975 -0.438253E-06  0.132E-03    0.11       4.9  T
   5   -404.7535977 -0.253818E-06  0.432E-04    0.11      14.9  T
   6   -404.7535977 -0.165451E-07  0.123E-04    0.11      52.3  T
     SCC iter.                  ...        0 min,  0.430 sec
     gradient                   ...        0 min,  0.310 sec
 * total energy  :  -399.3893264 Eh     change       -0.1386533E-04 Eh
   gradient norm :     0.0007056 Eh/α   predicted    -0.5032056E-05 ( -63.71%)
   displ. norm   :     0.0529876 α      lambda       -0.9381049E-05
   maximum displ.:     0.0479620 α      in ANC's #1, #2, #8, ...

........................................................................
.............................. CYCLE   51 ..............................
........................................................................

 iter      E             dE          RMSdq      gap      omega  full diag
   1   -404.7537297 -0.404754E+03  0.328E-03    0.11       0.0  T
   2   -404.7537296  0.425374E-07  0.203E-03    0.11       3.2  T
   3   -404.7537289  0.762588E-06  0.256E-03    0.11       2.5  T
   4   -404.7537297 -0.821808E-06  0.691E-04    0.11       9.3  T
   5   -404.7537297 -0.540562E-07  0.419E-04    0.11      15.4  T
     SCC iter.                  ...        0 min,  0.349 sec
     gradient                   ...        0 min,  0.310 sec
 * total energy  :  -399.3893394 Eh     change       -0.1291905E-04 Eh
   gradient norm :     0.0004365 Eh/α   predicted    -0.4696569E-05 ( -63.65%)
   displ. norm   :     0.0577195 α      lambda       -0.9441676E-05
   maximum displ.:     0.0493069 α      in ANC's #1, #3, #2, ...

........................................................................
.............................. CYCLE   52 ..............................
........................................................................

 iter      E             dE          RMSdq      gap      omega  full diag
   1   -404.7538255 -0.404754E+03  0.353E-03    0.11       0.0  T
   2   -404.7538255 -0.342947E-07  0.205E-03    0.11       3.1  T
   3   -404.7538255  0.488166E-07  0.127E-03    0.11       5.1  T
   4   -404.7538254  0.109580E-06  0.117E-03    0.11       5.5  T
   5   -404.7538256 -0.187665E-06  0.198E-04    0.11      32.5  T
   6   -404.7538256 -0.139187E-08  0.166E-04    0.11      38.8  T
     SCC iter.                  ...        0 min,  0.419 sec
     gradient                   ...        0 min,  0.310 sec
 * total energy  :  -399.3893526 Eh     change       -0.1320360E-04 Eh
   gradient norm :     0.0006032 Eh/α   predicted    -0.4728537E-05 ( -64.19%)
   displ. norm   :     0.0672205 α      lambda       -0.1024167E-04
   maximum displ.:     0.0540839 α      in ANC's #1, #3, #6, ...

........................................................................
.............................. CYCLE   53 ..............................
........................................................................

 iter      E             dE          RMSdq      gap      omega  full diag
   1   -404.7538777 -0.404754E+03  0.421E-03    0.11       0.0  T
   2   -404.7538777 -0.479029E-07  0.249E-03    0.11       2.6  T
   3   -404.7538777  0.169520E-07  0.159E-03    0.11       4.1  T
   4   -404.7538777  0.707381E-07  0.103E-03    0.11       6.3  T
   5   -404.7538778 -0.131957E-06  0.255E-04    0.11      25.3  T
   6   -404.7538778 -0.144246E-08  0.228E-04    0.11      28.3  T
     SCC iter.                  ...        0 min,  0.427 sec
     gradient                   ...        0 min,  0.309 sec
 * total energy  :  -399.3893671 Eh     change       -0.1450381E-04 Eh
   gradient norm :     0.0007213 Eh/α   predicted    -0.5132037E-05 ( -64.62%)
   displ. norm   :     0.0809783 α      lambda       -0.1173434E-04
   maximum displ.:     0.0627967 α      in ANC's #1, #3, #6, ...

........................................................................
.............................. CYCLE   54 ..............................
........................................................................

 iter      E             dE          RMSdq      gap      omega  full diag
   1   -404.7538733 -0.404754E+03  0.557E-03    0.11       0.0  T
   2   -404.7538734 -0.710206E-07  0.331E-03    0.11       1.9  T
   3   -404.7538734  0.348356E-07  0.217E-03    0.11       3.0  T
   4   -404.7538734  0.481691E-09  0.101E-03    0.11       6.4  T
   5   -404.7538735 -0.119933E-06  0.345E-04    0.11      18.7  T
   6   -404.7538735 -0.206398E-08  0.309E-04    0.11      20.8  T
     SCC iter.                  ...        0 min,  0.426 sec
     gradient                   ...        0 min,  0.311 sec
 * total energy  :  -399.3893837 Eh     change       -0.1662992E-04 Eh
   gradient norm :     0.0006873 Eh/α   predicted    -0.5884877E-05 ( -64.61%)
   displ. norm   :     0.0916119 α      lambda       -0.1267066E-04
   maximum displ.:     0.0710680 α      in ANC's #1, #3, #6, ...

........................................................................
.............................. CYCLE   55 ..............................
........................................................................

 iter      E             dE          RMSdq      gap      omega  full diag
   1   -404.7538416 -0.404754E+03  0.662E-03    0.11       0.0  T
   2   -404.7538417 -0.781188E-07  0.397E-03    0.11       1.6  T
   3   -404.7538416  0.166673E-06  0.279E-03    0.11       2.3  T
   4   -404.7538417 -0.173369E-06  0.103E-03    0.11       6.3  T
   5   -404.7538419 -0.140612E-06  0.362E-04    0.11      17.8  T
   6   -404.7538419 -0.341180E-08  0.295E-04    0.11      21.9  T
     SCC iter.                  ...        0 min,  0.429 sec
     gradient                   ...        0 min,  0.311 sec
 * total energy  :  -399.3894014 Eh     change       -0.1765909E-04 Eh
   gradient norm :     0.0005030 Eh/α   predicted    -0.6362015E-05 ( -63.97%)
   displ. norm   :     0.0910743 α      lambda       -0.1175821E-04
   maximum displ.:     0.0727714 α      in ANC's #1, #6, #3, ...

........................................................................
.............................. CYCLE   56 ..............................
........................................................................

 iter      E             dE          RMSdq      gap      omega  full diag
   1   -404.7538009 -0.404754E+03  0.651E-03    0.11       0.0  T
   2   -404.7538009 -0.585644E-07  0.390E-03    0.11       1.7  T
   3   -404.7538003  0.631395E-06  0.323E-03    0.11       2.0  T
   4   -404.7538008 -0.434286E-06  0.170E-03    0.11       3.8  T
   5   -404.7538011 -0.337361E-06  0.455E-04    0.11      14.1  T
   6   -404.7538011 -0.120966E-07  0.354E-04    0.11      18.2  T
     SCC iter.                  ...        0 min,  0.427 sec
     gradient                   ...        0 min,  0.310 sec
 * total energy  :  -399.3894176 Eh     change       -0.1626938E-04 Eh
   gradient norm :     0.0003529 Eh/α   predicted    -0.5903225E-05 ( -63.72%)
   displ. norm   :     0.0767973 α      lambda       -0.9327977E-05
   maximum displ.:     0.0647205 α      in ANC's #1, #6, #3, ...

........................................................................
.............................. CYCLE   57 ..............................
........................................................................

 iter      E             dE          RMSdq      gap      omega  full diag
   1   -404.7537663 -0.404754E+03  0.528E-03    0.11       0.0  T
   2   -404.7537664 -0.508168E-07  0.314E-03    0.11       2.0  T
   3   -404.7537659  0.419023E-06  0.231E-03    0.10       2.8  T
   4   -404.7537664 -0.443355E-06  0.745E-04    0.11       8.6  T
   5   -404.7537664 -0.566661E-07  0.374E-04    0.11      17.2  T
     SCC iter.                  ...        0 min,  0.353 sec
     gradient                   ...        0 min,  0.312 sec
 * total energy  :  -399.3894308 Eh     change       -0.1313497E-04 Eh
   gradient norm :     0.0002787 Eh/α   predicted    -0.4679396E-05 ( -64.37%)
   displ. norm   :     0.0565474 α      lambda       -0.6942869E-05
   maximum displ.:     0.0506710 α      in ANC's #1, #6, #10, ...

........................................................................
.............................. CYCLE   58 ..............................
........................................................................

 iter      E             dE          RMSdq      gap      omega  full diag
   1   -404.7537763 -0.404754E+03  0.351E-03    0.11       0.0  T
   2   -404.7537763 -0.292857E-07  0.208E-03    0.11       3.1  T
   3   -404.7537762  0.123862E-06  0.107E-03    0.10       6.0  T
   4   -404.7537763 -0.137912E-06  0.546E-04    0.11      11.8  T
   5   -404.7537764 -0.258491E-07  0.274E-04    0.11      23.5  T
     SCC iter.                  ...        0 min,  0.352 sec
     gradient                   ...        0 min,  0.311 sec
 * total energy  :  -399.3894407 Eh     change       -0.9984650E-05 Eh
   gradient norm :     0.0002848 Eh/α   predicted    -0.3477287E-05 ( -65.17%)
   displ. norm   :     0.0440535 α      lambda       -0.5713092E-05
   maximum displ.:     0.0409815 α      in ANC's #1, #8, #10, ...

........................................................................
.............................. CYCLE   59 ..............................
........................................................................

 iter      E             dE          RMSdq      gap      omega  full diag
   1   -404.7538022 -0.404754E+03  0.273E-03    0.11       0.0  T
   2   -404.7538022  0.225069E-07  0.172E-03    0.11       3.7  T
   3   -404.7538020  0.166777E-06  0.161E-03    0.11       4.0  T
   4   -404.7538021 -0.571466E-07  0.118E-03    0.11       5.5  T
   5   -404.7538023 -0.187077E-06  0.256E-04    0.11      25.2  T
   6   -404.7538023 -0.629831E-08  0.178E-04    0.11      36.1  T
     SCC iter.                  ...        0 min,  0.422 sec
     gradient                   ...        0 min,  0.311 sec
 * total energy  :  -399.3894491 Eh     change       -0.8342172E-05 Eh
   gradient norm :     0.0003020 Eh/α   predicted    -0.2859378E-05 ( -65.72%)
   displ. norm   :     0.0418795 α      lambda       -0.5554096E-05
   maximum displ.:     0.0380403 α      in ANC's #1, #5, #8, ...

........................................................................
.............................. CYCLE   60 ..............................
........................................................................

 iter      E             dE          RMSdq      gap      omega  full diag
   1   -404.7538331 -0.404754E+03  0.301E-03    0.11       0.0  T
   2   -404.7538331  0.109594E-07  0.186E-03    0.11       3.5  T
   3   -404.7538330  0.537098E-07  0.140E-03    0.11       4.6  T
   4   -404.7538329  0.170231E-06  0.138E-03    0.10       4.7  T
   5   -404.7538332 -0.283746E-06  0.271E-04    0.11      23.8  T
   6   -404.7538332 -0.772894E-08  0.130E-04    0.11      49.5  T
     SCC iter.                  ...        0 min,  0.480 sec
     gradient                   ...        0 min,  0.318 sec
 * total energy  :  -399.3894571 Eh     change       -0.8055195E-05 Eh
   gradient norm :     0.0002932 Eh/α   predicted    -0.2780020E-05 ( -65.49%)
   displ. norm   :     0.0460774 α      lambda       -0.5848034E-05
   maximum displ.:     0.0400104 α      in ANC's #1, #5, #3, ...

........................................................................
.............................. CYCLE   61 ..............................
........................................................................

 iter      E             dE          RMSdq      gap      omega  full diag
   1   -404.7538814 -0.404754E+03  0.357E-03    0.11       0.0  T
   2   -404.7538814  0.176091E-07  0.222E-03    0.10       2.9  T
   3   -404.7538813  0.666743E-07  0.165E-03    0.11       3.9  T
   4   -404.7538811  0.223207E-06  0.158E-03    0.10       4.1  T
   5   -404.7538815 -0.376545E-06  0.334E-04    0.11      19.3  T
   6   -404.7538815 -0.119491E-07  0.131E-04    0.11      49.1  T
     SCC iter.                  ...        0 min,  0.444 sec
     gradient                   ...        0 min,  0.312 sec
 * total energy  :  -399.3894655 Eh     change       -0.8333412E-05 Eh
   gradient norm :     0.0002607 Eh/α   predicted    -0.2929554E-05 ( -64.85%)
   displ. norm   :     0.0501509 α      lambda       -0.5863601E-05
   maximum displ.:     0.0426948 α      in ANC's #1, #5, #3, ...

........................................................................
.............................. CYCLE   62 ..............................
........................................................................

 iter      E             dE          RMSdq      gap      omega  full diag
   1   -404.7539324 -0.404754E+03  0.397E-03    0.11       0.0  T
   2   -404.7539324  0.149086E-07  0.246E-03    0.10       2.6  T
   3   -404.7539323  0.713571E-07  0.180E-03    0.11       3.6  T
   4   -404.7539321  0.218731E-06  0.157E-03    0.10       4.1  T
   5   -404.7539325 -0.381512E-06  0.384E-04    0.11      16.8  T
   6   -404.7539325 -0.150769E-07  0.136E-04    0.11      47.5  T
     SCC iter.                  ...        0 min,  0.427 sec
     gradient                   ...        0 min,  0.311 sec
 * total energy  :  -399.3894737 Eh     change       -0.8219987E-05 Eh
   gradient norm :     0.0002242 Eh/α   predicted    -0.2936637E-05 ( -64.27%)
   displ. norm   :     0.0485763 α      lambda       -0.5148079E-05
   maximum displ.:     0.0419124 α      in ANC's #1, #5, #3, ...

........................................................................
.............................. CYCLE   63 ..............................
........................................................................

 iter      E             dE          RMSdq      gap      omega  full diag
   1   -404.7539769 -0.404754E+03  0.365E-03    0.11       0.0  T
   2   -404.7539769  0.716045E-08  0.225E-03    0.10       2.9  T
   3   -404.7539768  0.705607E-07  0.167E-03    0.11       3.9  T
   4   -404.7539766  0.185981E-06  0.148E-03    0.10       4.4  T
   5   -404.7539770 -0.334854E-06  0.344E-04    0.11      18.7  T
   6   -404.7539770 -0.121236E-07  0.136E-04    0.11      47.2  T
     SCC iter.                  ...        0 min,  0.455 sec
     gradient                   ...        0 min,  0.311 sec
 * total energy  :  -399.3894809 Eh     change       -0.7253935E-05 Eh
   gradient norm :     0.0001892 Eh/α   predicted    -0.2579642E-05 ( -64.44%)
   displ. norm   :     0.0410861 α      lambda       -0.4065876E-05
   maximum displ.:     0.0366533 α      in ANC's #1, #5, #3, ...

........................................................................
.............................. CYCLE   64 ..............................
........................................................................

 iter      E             dE          RMSdq      gap      omega  full diag
   1   -404.7540175 -0.404754E+03  0.277E-03    0.11       0.0  T
   2   -404.7540175 -0.533987E-08  0.168E-03    0.10       3.8  T
   3   -404.7540174  0.459291E-07  0.123E-03    0.11       5.2  T
   4   -404.7540174  0.738237E-07  0.995E-04    0.10       6.5  T
   5   -404.7540175 -0.152426E-06  0.243E-04    0.11      26.5  T
     SCC iter.                  ...        0 min,  0.358 sec
     gradient                   ...        0 min,  0.312 sec
 * total energy  :  -399.3894868 Eh     change       -0.5813711E-05 Eh
   gradient norm :     0.0001798 Eh/α   predicted    -0.2035492E-05 ( -64.99%)
   displ. norm   :     0.0333300 α      lambda       -0.3242596E-05
   maximum displ.:     0.0309475 α      in ANC's #1, #5, #2, ...

........................................................................
.............................. CYCLE   65 ..............................
........................................................................

 iter      E             dE          RMSdq      gap      omega  full diag
   1   -404.7540299 -0.404754E+03  0.199E-03    0.11       0.0  T
   2   -404.7540299 -0.778653E-08  0.119E-03    0.10       5.4  T
   3   -404.7540299  0.171783E-07  0.815E-04    0.11       7.9  T
   4   -404.7540299  0.780904E-08  0.501E-04    0.10      12.9  T
     SCC iter.                  ...        0 min,  0.285 sec
     gradient                   ...        0 min,  0.312 sec
 * total energy  :  -399.3894915 Eh     change       -0.4690625E-05 Eh
   gradient norm :     0.0001952 Eh/α   predicted    -0.1623179E-05 ( -65.40%)
   displ. norm   :     0.0284693 α      lambda       -0.2809023E-05
   maximum displ.:     0.0271084 α      in ANC's #1, #5, #2, ...

   *** GEOMETRY OPTIMIZATION CONVERGED AFTER 65 ITERATIONS ***

------------------------------------------------------------------------
 total energy gain   :        -0.9420789 Eh     -591.1634 kcal/mol
 total RMSD          :         1.0881196 a0        0.5758 Å
 total power (kW/mol):       -38.0527340 (step)  -39.4640 (real)
------------------------------------------------------------------------

 ANCopt (total)                0 d,  0 h,  1 min,  2.676 sec
 optimizer setup                ...        0 min,  0.001 sec (  0.001%)
 model hessian                  ...        0 min,  0.281 sec (  0.448%)
 ANC generation                 ...        0 min,  0.113 sec (  0.181%)
 coordinate transformation      ...        0 min,  0.014 sec (  0.022%)
 single point calculation       ...        1 min,  2.191 sec ( 99.226%)
 optimization log               ...        0 min,  0.023 sec (  0.036%)
 hessian update                 ...        0 min,  0.009 sec (  0.015%)
 rational function              ...        0 min,  0.035 sec (  0.056%)

================
 final structure:
================
241
 xtb: 6.7.1 (edcfbbe)
N            0.20460088655171       -1.85657725134273       -0.85014288996215
N           -0.00288412165603       -1.19252901727192        1.91251348749496
C           -0.39103773986501       -1.07090621040544       -3.12971552884560
C            0.03773847157960       -2.04328124049459       -2.19939142935635
C            0.42659867218634       -3.39366465236504       -2.55976021021101
H            0.38339479479665       -3.80249309011625       -3.57035357026779
C            0.85420059269841       -4.00037642693190       -1.41229657338590
H            1.23440811501179       -5.01457745406148       -1.28343889229885
C            0.67941087442457       -3.04215676728173       -0.33785991217386
C            0.87225228686669       -3.34153117645397        1.02503921126834
C            0.48303829640076       -2.46778144972581        2.06040357164857
C            0.41852223642468       -2.85160696655754        3.45786436020201
H            0.74471910402506       -3.81649154402198        3.84870880767903
C           -0.15641621574546       -1.81187590345671        4.13068028259973
H           -0.39220166634622       -1.73346728373324        5.19281122206721
C           -0.40382006967983       -0.76754344757011        3.15425580415538
C            1.40370754908156       -4.69956476115601        1.40018904031126
C            2.74674923790529       -4.86675723537032        1.81309415171586
C            3.25175704585086       -6.13031871435311        2.16883446929408
C            2.40878136299194       -7.24363400808950        2.10426975251179
H            2.80162876534706       -8.23364323069772        2.37087501104275
C            1.07623501862224       -7.11874086314385        1.70302031022281
C            0.57568689383999       -5.84752665618770        1.36319374809643
N           -0.73024005880150        1.49866749577232        1.20316960332458
N           -0.47379379439463        0.84115531834260       -1.54354040732926
C           -0.94630474871713        0.49527291567032        3.46935622625184
C           -1.03212642285146        1.55577704997636        2.54003610096461
C           -1.38770008350885        2.91447005967911        2.89814802372382
H           -1.69180611360642        3.23046663228984        3.89688230199011
C           -1.24709757270135        3.67228781046776        1.76867786733781
H           -1.42034898306833        4.74169129488224        1.64481725237028
C           -0.87037803235481        2.76988556151936        0.70068722488248
C           -0.75934259556263        3.14242748061735       -0.65259935215906
C           -0.65606186704132        2.19436511856706       -1.68816660995270
C           -0.86984230459223        2.50949263328069       -3.08675923470677
H           -1.03912177145211        3.51420341874840       -3.47572116543653
C           -0.86782954195622        1.32463877136409       -3.76605326802105
H           -1.03138034534202        1.14940979860288       -4.83018878864231
C           -0.58647165661162        0.28528662879525       -2.79400643792510
C           -0.82242857181979        4.59684507048534       -1.03240747579520
C            0.36640271037002        5.27788638815122       -1.39233608314879
C            0.33946000201500        6.62220763777306       -1.80600583143147
C           -0.88207133813380        7.30213245799654       -1.83268568808517
H           -0.90694261889958        8.35408573029370       -2.14612151822658
C           -2.07307198999358        6.66573844559313       -1.47066829328204
C           -2.04225293845424        5.31153282359378       -1.08765584607764
Fe          -0.15458451000940       -0.14754641530510        0.18172909667764
Cl          -2.38707004624723       -0.75416430421073        0.17692216909008
C           -1.51521439712278        0.70787090809406        4.85094594854779
C           -0.73262159952547        1.23587997284745        5.91251849135220
C           -2.87549206476606        0.36505575106445        5.08968302544953
C           -1.29827150846572        1.42383630101528        7.18990678007149
N            0.61561353315308        1.57525783268963        5.63244819681372
C           -3.43662138377163        0.57771918495568        6.36723438889459
N           -3.61847655382493       -0.21149845587218        4.03188071859157
H           -0.67477277387622        1.81797459441326        7.99700272411932
C           -2.64254588520743        1.09771423488666        7.39284688625269
C            1.60568173954547        1.97028888768520        6.50475993012644
H            0.87863481861037        1.47419765224694        4.65045844536077
H           -4.48883095552289        0.32958161854896        6.52757057184284
C           -4.95214982351259       -0.56985672263428        4.02245782203206
H           -3.09843850224462       -0.38806828681715        3.16719168143032
H           -3.08511485346021        1.25225494882786        8.38539432135039
O            1.47204359764738        2.07541641375793        7.71926693729127
C            2.92843064487873        2.28267263332836        5.83871369795914
O           -5.74054107670520       -0.33025184615673        4.93187118420618
C           -5.38448138867678       -1.31198841370863        2.78046574052636
C            4.18878387535430        1.87999980995873        6.56132073270812
H            2.97296355408318        2.28749567261243        4.74418477786364
C            3.78664087130174        3.33488328511272        6.55081467398533
C           -6.73952958358239       -0.99477847227402        2.19865078438814
H           -4.61154881293413       -1.63023914293887        2.07141757933982
C           -6.56667212998218       -2.26705461699130        2.99389080814149
H            4.07228824055167        1.35425621454021        7.51246036510217
H            5.04282272569958        1.59240248578498        5.94453759275771
H            3.36502337323632        3.73584626801822        7.47584970916957
C            4.56774630089445        4.29446721776212        5.71206324060112
H           -7.31650748556010       -0.20508745657744        2.68816280630223
H           -6.83719404850076       -1.07706628805322        1.11262901008901
H           -6.97764169343121       -2.27162299686877        4.00825319580225
C           -6.56652685100152       -3.58426857140597        2.29351453773366
O            4.68163149431098        5.48704971299953        6.32294056654889
O            5.05323469946416        4.03537815082019        4.62756598314142
O           -7.18136790683795       -4.52544249632941        3.04338021162398
O           -6.09411750432080       -3.80076008413466        1.19564603867790
C            5.43018141841362        6.54694662272372        5.65725042049932
C           -7.29126895353395       -5.87127591730995        2.50071614233088
C            4.45246523277377        7.43990260785843        4.88056836654866
C            6.20787654984972        7.28987216289679        6.74242829610882
H            6.11875502905060        6.05470229150604        4.94739484565672
C           -7.28697854676993       -6.82710566448682        3.69478200843247
C           -8.55530490209773       -5.96836928957901        1.63911369223346
H           -6.40101559625777       -6.03810651795196        1.86489109477865
H            3.92706025201742        6.85413400870632        4.10850264742757
H            3.71086819199819        7.87877360173725        5.56121367561163
H            5.00003344251408        8.25597476581789        4.38926262164130
H            6.88017987828416        6.60674676437014        7.27724311093580
H            6.81661783224181        8.08983778665514        6.30016949208321
H            5.52704776282295        7.74003037806432        7.47614683037040
H           -6.36667075038858       -6.70576274266855        4.28072028359988
H           -8.14895388135732       -6.63556321632404        4.35148430512679
H           -7.34987549871364       -7.86846631847282        3.35029725135675
H           -8.49953073168287       -5.26158773889449        0.80001560193077
H           -8.66383431252819       -6.98380616257258        1.23326785362512
H           -9.45185237455046       -5.74429830414122        2.23703623788677
C           -0.64508360270911       -1.52894861148073       -4.54414141040680
C            0.31039353360038       -1.32601330277291       -5.57655547023441
C           -1.85767373611125       -2.20928896096421       -4.84267763235479
C            0.08898805432518       -1.85112440736451       -6.86513737301981
N            1.46382339493274       -0.56394119568236       -5.26028591543402
C           -2.06748799715783       -2.73889408116355       -6.13366968893687
N           -2.83774765663043       -2.28692265934474       -3.82583415624359
H            0.84100975621749       -1.68926928887324       -7.64265995026368
C           -1.09078493420957       -2.55939565282853       -7.11776242695527
C            2.40724838336548       -0.02870361836725       -6.11016174861890
H            1.49109044225780       -0.23994613238642       -4.29207712736942
H           -2.99503891887154       -3.28084004868868       -6.33685692445720
C           -4.07441416147071       -2.89929700345251       -3.86685339232393
H           -2.61314571384918       -1.78156761088359       -2.96452208723579
H           -1.25921343158336       -2.97537653836622       -8.11960223348929
O            2.50339527352298       -0.28090269075080       -7.30526856750028
C            3.32405860097175        0.97243081939087       -5.43949624706901
O           -4.46755435318625       -3.60894520642766       -4.78723650957860
C           -4.94063163160923       -2.60362077280564       -2.66666233416756
C            3.64891941886762        2.22179797624119       -6.22079417216888
H            3.27054065467791        1.07682713979849       -4.35034591154523
C            4.71142956493180        1.16082002683725       -6.05312905565505
C           -5.85042192663094       -3.68967075813845       -2.15281085334777
H           -4.56776254091910       -1.88969279005915       -1.92284122631744
C           -6.44830224040204       -2.56266828446728       -2.95961214685107
H            3.20783666041157        2.31056114494826       -7.21714306710054
H            3.77111577475468        3.14834153241327       -5.65487603402679
H            4.94212664011173        0.54213301250710       -6.92433108054774
C            5.84559462939884        1.45146372146711       -5.12146141774378
H           -5.79901550603097       -4.65646905514076       -2.66046160316683
H           -6.02549520881780       -3.70431867300292       -1.07375083444593
H           -6.72526909533773       -2.78893674869842       -3.99386815844003
C           -7.27540706375250       -1.51767198229886       -2.28692548608789
O            7.00553148433255        0.98268792183026       -5.61067412958688
O            5.73747321845025        2.04939859694641       -4.06665206638385
O           -8.27184766910057       -1.09837382368319       -3.09621346174936
O           -7.09940247637756       -1.09604203720008       -1.16151211893988
C            8.22609002907160        1.20080193353240       -4.84326302930925
C           -9.18202956383868       -0.08055671063571       -2.59115369331851
C            9.11987307443204       -0.01756868520513       -5.08112668311603
C            8.85857471056273        2.52607355810416       -5.27743836865300
H            7.92941405665910        1.26558782879455       -3.77891396615499
C           -8.60084297081134        1.31108391679876       -2.87208253404497
C          -10.53268969689997       -0.32951718941091       -3.26142837499553
H           -9.25462486510460       -0.22800403899645       -1.49824666326960
H            8.60431541723613       -0.93585723241130       -4.77053576747943
H            9.38445881725138       -0.10488174160819       -6.14592623034245
H           10.05228980186922        0.07836797989963       -4.50841668063014
H            8.17284887180989        3.36071703434040       -5.08321018274464
H            9.78829632791515        2.70709537388664       -4.72078864088516
H            9.10420832565451        2.50675091611794       -6.35045015005042
H           -7.63364163338441        1.43286006032586       -2.35799075477699
H           -8.45346752489777        1.45632543021646       -3.95121027685808
H           -9.28825318742507        2.08795545038725       -2.50959276129134
H          -10.89620208876065       -1.34312017183187       -3.04104078694792
H          -11.28002590756958        0.38904669553051       -2.89899884891913
H          -10.45548208941810       -0.22210121289523       -4.35135525259563
H            4.29517714885072       -6.23565247294097        2.48845857365321
H            0.42365656308013       -7.99776149887384        1.64890678407142
H            1.26512264329186        7.12365193799059       -2.11108639168068
H           -3.02528191789477        7.20900266629596       -1.48761750868637
O            3.50892554986834       -3.71970067090339        1.84528553720417
O           -0.71338329385297       -5.63768898469069        0.93318146611137
O            1.50894184581622        4.50854445509158       -1.38085809652307
O           -3.16116852826345        4.61535807562326       -0.69339894638889
C            4.84676075257150       -3.77936451490754        2.23553211025747
C            5.84037175535441       -4.06451736957054        1.28910237781343
C            5.18686155643578       -3.47337911967092        3.55956876311594
C            7.18555411979816       -4.05031580485991        1.67961227799020
H            5.54977465012232       -4.29008632001260        0.25783569895417
C            6.53574518183161       -3.45995695092571        3.93831218615415
H            4.38800791404302       -3.24340543164849        4.27237600170797
C            7.53669904724712       -3.75013733976980        3.00212521171493
H            7.96616715733718       -4.27270869174396        0.94309827751405
H            6.80752872890244       -3.22004332974297        4.97236678109793
H            8.59290458095539       -3.74056153709070        3.30312437189078
C           -1.69799587849314       -6.60658724822623        1.09845324660061
C           -2.07587787842234       -7.05703549582375        2.37158275208606
C           -2.36456192955291       -7.06382342372793       -0.04668387152282
C           -3.11456674788340       -7.98854288448213        2.49008216124989
H           -1.55733773159784       -6.67184684207691        3.25608269048096
C           -3.40755299222550       -7.98880927714751        0.08641919329014
H           -2.05801040025109       -6.67844243326501       -1.02447694032762
C           -3.78137729636585       -8.45916303742820        1.35159680753264
H           -3.41000842240227       -8.34594888949652        3.48274747175883
H           -3.93081043679311       -8.34639182108393       -0.80699727937620
H           -4.59411884751051       -9.19061876524461        1.45156036696017
C            2.78769605878607        5.03663600230785       -1.27736777728273
C            3.11783277822600        6.08578662589946       -0.40448472735880
C            3.78949121739356        4.39810778339075       -2.02612999070050
C            4.45108381272824        6.50434551349837       -0.30558549284085
H            2.33644912773751        6.56602662433442        0.19467333058500
C            5.11824423208668        4.81806414255394       -1.91024100970281
H            3.51939297804605        3.56759791307425       -2.68613885863346
C            5.45473638436891        5.87748031041629       -1.05590828357660
H            4.70793255012057        7.32750498193743        0.37318773103787
H            5.88371813954828        4.29897412722070       -2.49785491606497
H            6.49627455803987        6.21352129927379       -0.96925061617187
C           -4.44160672687215        5.03475014989102       -1.03547883181225
C           -4.81499391432378        5.26175084964037       -2.36810093910569
C           -5.38621972114407        5.13918906773319       -0.00425899363641
C           -6.13833291740474        5.61420170866432       -2.66027329984549
H           -4.07092949601192        5.15448469853210       -3.16441746497098
C           -6.70795983573703        5.48493299188831       -0.31130669885236
H           -5.06823745576013        4.93835973736454        1.02366682575703
C           -7.08769250916164        5.72971412467718       -1.63692335553927
H           -6.43299410541430        5.79203225134150       -3.70025079753745
H           -7.44734738854985        5.56535105356969        0.49281144358942
H           -8.12401508382982        6.00495866902855       -1.87360204608750
N            1.35582917195695        0.46932740666344        0.30492422627152
C            2.35408781598188        1.27797294314648        0.48146580102082
C            2.34717912762383        2.22325039621942        1.54843766617250
C            3.40771667934547        3.06731457614368        1.74954392617986
C            4.52154067379636        3.01826955046017        0.92099208280181
C            4.56168262354430        2.09026583611274       -0.10886007377054
C            3.52103538299094        1.21959706255654       -0.34262996168451
C            3.64553683075535        0.10882664315813       -1.33985097366227
C            4.01144691615091       -1.22600575465930       -0.62551623325544
C            4.53679761629283       -0.96518319728016        0.75398678633960
C            5.87327525539940       -0.67620362673151        1.01383239764756
C            6.25269309666172       -0.36109598789596        2.30619647486682
N            5.40783963687624       -0.32303358384030        3.32607014728735
C            4.15122671351166       -0.61573844181577        3.07109694751329
Cl           3.07030275797832       -0.59718925364213        4.41919217484432
C            3.65189529518630       -0.94041991274359        1.82498155129031
H            1.48296038228866        2.24914421260750        2.19122956021166
H            3.38921338924956        3.76667724881567        2.57190739052961
H            5.35089058462359        3.68396307388447        1.09143501006994
H            5.43170311018548        2.04031831317882       -0.74608442725277
H            2.69457776090065       -0.02475283837278       -1.85978197242297
H            4.42143320121463        0.37080045169136       -2.06006238303988
H            3.11669197631534       -1.84254978293612       -0.53916460316763
H            4.75447043370662       -1.76096203257031       -1.21667943840595
H            6.60466266731209       -0.69053423727751        0.22233497993521
H            7.27612863062439       -0.12093167221363        2.55573168696157
H            2.60837424244381       -1.16986064182463        1.69195464243702

 Bond Distances (Angstroems)
 ---------------------------
N1-C4=1.3723         N1-C9=1.3760         N1-Fe47=2.0284       N2-C11=1.3727        N2-C16=1.3723        N2-Fe47=2.0275       
C3-C4=1.4124         C3-C39=1.4107        C3-C106=1.5083       C4-N1=1.3723         C4-C3=1.4124         C4-C5=1.4507         
C5-C4=1.4507         C5-H6=1.0910         C5-C7=1.3666         H6-C5=1.0910         C7-C5=1.3666         C7-H8=1.0908         
C7-C9=1.4502         H8-C7=1.0908         C9-N1=1.3760         C9-C7=1.4502         C9-C10=1.4087        C10-C9=1.4087        
C10-C11=1.4096       C10-C17=1.5058       C11-N2=1.3727        C11-C10=1.4096       C11-C12=1.4506       C12-C11=1.4506       
C12-H13=1.0909       C12-C14=1.3654       H13-C12=1.0909       C14-C12=1.3654       C14-H15=1.0908       C14-C16=1.4509       
H15-C14=1.0908       C16-N2=1.3723        C16-C14=1.4509       C16-C26=1.4101       C17-C10=1.5058       C17-C18=1.4150       
C17-C23=1.4159       C18-C17=1.4150       C18-C19=1.4065       C18-O167=1.3776      C19-C18=1.4065       C19-C20=1.3979       
C19-H163=1.0963      C20-C19=1.3979       C20-H21=1.0980       C20-C22=1.3972       H21-C20=1.0980       C22-C20=1.3972       
C22-C23=1.4078       C22-H164=1.0961      C23-C17=1.4159       C23-C22=1.4078       C23-O168=1.3750      N24-C27=1.3717       
N24-C32=1.3741       N24-Fe47=2.0211      N25-C34=1.3731       N25-C39=1.3731       N25-Fe47=2.0139      C26-C16=1.4101       
C26-C27=1.4127       C26-C49=1.5092       C27-N24=1.3717       C27-C26=1.4127       C27-C28=1.4494       C28-C27=1.4494       
C28-H29=1.0908       C28-C30=1.3674       H29-C28=1.0908       C30-C28=1.3674       C30-H31=1.0904       C30-C32=1.4481       
H31-C30=1.0904       C32-N24=1.3741       C32-C30=1.4481       C32-C33=1.4080       C33-C32=1.4080       C33-C34=1.4078       
C33-C40=1.5045       C34-N25=1.3731       C34-C33=1.4078       C34-C35=1.4495       C35-C34=1.4495       C35-H36=1.0906       
C35-C37=1.3658       H36-C35=1.0906       C37-C35=1.3658       C37-H38=1.0908       C37-C39=1.4506       H38-C37=1.0908       
C39-C3=1.4107        C39-N25=1.3731       C39-C37=1.4506       C40-C33=1.5045       C40-C41=1.4166       C40-C46=1.4149       
C41-C40=1.4166       C41-C42=1.4068       C41-O169=1.3775      C42-C41=1.4068       C42-C43=1.3983       C42-H165=1.0961      
C43-C42=1.3983       C43-H44=1.0979       C43-C45=1.3980       H44-C43=1.0979       C45-C43=1.3980       C45-C46=1.4077       
C45-H166=1.0964      C46-C40=1.4149       C46-C45=1.4077       C46-O170=1.3755      Fe47-N1=2.0284       Fe47-N2=2.0275       
Fe47-N24=2.0211      Fe47-N25=2.0139      Fe47-Cl48=2.3134     Fe47-N215=1.6362     Cl48-Fe47=2.3134     C49-C26=1.5092       
C49-C50=1.4206       C49-C51=1.4230       C50-C49=1.4206       C50-C52=1.4096       C50-N53=1.4182       C51-C49=1.4230       
C51-C54=1.4115       C51-N55=1.4154       C52-C50=1.4096       C52-H56=1.0934       C52-C57=1.3981       N53-C50=1.4182       
N53-C58=1.3774       N53-H59=1.0216       C54-C51=1.4115       C54-C57=1.3974       C54-H60=1.0929       N55-C51=1.4154       
N55-C61=1.3810       N55-H62=1.0244       H56-C52=1.0934       C57-C52=1.3981       C57-C54=1.3974       C57-H63=1.0977       
C58-N53=1.3774       C58-O64=1.2264       C58-C65=1.5136       H59-N53=1.0216       H60-C54=1.0929       C61-N55=1.3810       
C61-O66=1.2272       C61-C67=1.5100       H62-N55=1.0244       H63-C57=1.0977       O64-C58=1.2264       C65-C58=1.5136       
C65-C68=1.5076       C65-H69=1.0954       C65-C70=1.5332       O66-C61=1.2272       C67-C61=1.5100       C67-C71=1.5084       
C67-H72=1.0961       C67-C73=1.5347       C68-C65=1.5076       C68-C70=1.5095       C68-H74=1.0930       C68-H75=1.0920       
H69-C65=1.0954       C70-C65=1.5332       C70-C68=1.5095       C70-H76=1.0928       C70-C77=1.4948       C71-C67=1.5084       
C71-C73=1.5103       C71-H78=1.0937       C71-H79=1.0935       H72-C67=1.0961       C73-C67=1.5347       C73-C71=1.5103       
C73-H80=1.0945       C73-C81=1.4918       H74-C68=1.0930       H75-C68=1.0920       H76-C70=1.0928       C77-C70=1.4948       
C77-O82=1.3448       C77-O83=1.2161       H78-C71=1.0937       H79-C71=1.0935       H80-C73=1.0945       C81-C73=1.4918       
C81-O84=1.3513       C81-O85=1.2146       O82-C77=1.3448       O82-C86=1.4584       O83-C77=1.2161       O84-C81=1.3513       
O84-C87=1.4553       O85-C81=1.2146       C86-O82=1.4584       C86-C88=1.5351       C86-C89=1.5279       C86-H90=1.1047       
C87-O84=1.4553       C87-C91=1.5295       C87-C92=1.5328       C87-H93=1.1066       C88-C86=1.5351       C88-H94=1.1024       
C88-H95=1.0981       C88-H96=1.0987       C89-C86=1.5279       C89-H97=1.0976       C89-H98=1.0982       C89-H99=1.0975       
H90-C86=1.1047       C91-C87=1.5295       C91-H100=1.0977      C91-H101=1.1004      C91-H102=1.0987      C92-C87=1.5328       
C92-H103=1.0985      C92-H104=1.0989      C92-H105=1.1007      H93-C87=1.1066       H94-C88=1.1024       H95-C88=1.0981       
H96-C88=1.0987       H97-C89=1.0976       H98-C89=1.0982       H99-C89=1.0975       H100-C91=1.0977      H101-C91=1.1004      
H102-C91=1.0987      H103-C92=1.0985      H104-C92=1.0989      H105-C92=1.1007      C106-C3=1.5083       C106-C107=1.4213     
C106-C108=1.4221     C107-C106=1.4213     C107-C109=1.4090     C107-N110=1.4182     C108-C106=1.4221     C108-C111=1.4111     
C108-N112=1.4144     C109-C107=1.4090     C109-H113=1.0937     C109-C114=1.3990     N110-C107=1.4182     N110-C115=1.3780     
N110-H116=1.0213     C111-C108=1.4111     C111-C114=1.3981     C111-H117=1.0933     N112-C108=1.4144     N112-C118=1.3806     
N112-H119=1.0236     H113-C109=1.0937     C114-C109=1.3990     C114-C111=1.3981     C114-H120=1.0978     C115-N110=1.3780     
C115-O121=1.2252     C115-C122=1.5141     H116-N110=1.0213     H117-C111=1.0933     C118-N112=1.3806     C118-O123=1.2269     
C118-C124=1.5094     H119-N112=1.0236     H120-C114=1.0978     O121-C115=1.2252     C122-C115=1.5141     C122-C125=1.5089     
C122-H126=1.0955     C122-C127=1.5287     O123-C118=1.2269     C124-C118=1.5094     C124-C128=1.5071     C124-H129=1.0964     
C124-C130=1.5364     C125-C122=1.5089     C125-C127=1.5109     C125-H131=1.0932     C125-H132=1.0926     H126-C122=1.0955     
C127-C122=1.5287     C127-C125=1.5109     C127-H133=1.0932     C127-C134=1.4963     C128-C124=1.5071     C128-C130=1.5095     
C128-H135=1.0932     C128-H136=1.0933     H129-C124=1.0964     C130-C124=1.5364     C130-C128=1.5095     C130-H137=1.0943     
C130-C138=1.4929     H131-C125=1.0932     H132-C125=1.0926     H133-C127=1.0932     C134-C127=1.4963     C134-O139=1.3433     
C134-O140=1.2173     H135-C128=1.0932     H136-C128=1.0933     H137-C130=1.0943     C138-C130=1.4929     C138-O141=1.3504     
C138-O142=1.2146     O139-C134=1.3433     O139-C143=1.4582     O140-C134=1.2173     O141-C138=1.3504     O141-C144=1.4558     
O142-C138=1.2146     C143-O139=1.4582     C143-C145=1.5297     C143-C146=1.5313     C143-H147=1.1068     C144-O141=1.4558     
C144-C148=1.5341     C144-C149=1.5282     C144-H150=1.1052     C145-C143=1.5297     C145-H151=1.0980     C145-H152=1.1006     
C145-H153=1.0985     C146-C143=1.5313     C146-H154=1.0975     C146-H155=1.0986     C146-H156=1.1009     H147-C143=1.1068     
C148-C144=1.5341     C148-H157=1.1021     C148-H158=1.0988     C148-H159=1.0988     C149-C144=1.5282     C149-H160=1.0991     
C149-H161=1.0983     C149-H162=1.0979     H150-C144=1.1052     H151-C145=1.0980     H152-C145=1.1006     H153-C145=1.0985     
H154-C146=1.0975     H155-C146=1.0986     H156-C146=1.1009     H157-C148=1.1021     H158-C148=1.0988     H159-C148=1.0988     
H160-C149=1.0991     H161-C149=1.0983     H162-C149=1.0979     H163-C19=1.0963      H164-C22=1.0961      H165-C42=1.0961      
H166-C45=1.0964      O167-C18=1.3776      O167-C171=1.3949     O168-C23=1.3750      O168-C182=1.3912     O169-C41=1.3775      
O169-C193=1.3874     O170-C46=1.3755      O170-C204=1.3901     C171-O167=1.3949     C171-C172=1.4015     C171-C173=1.4008     
C172-C171=1.4015     C172-C174=1.4008     C172-H175=1.0949     C173-C171=1.4008     C173-C176=1.4011     C173-H177=1.0951     
C174-C172=1.4008     C174-C178=1.4009     C174-H179=1.0960     H175-C172=1.0949     C176-C173=1.4011     C176-C178=1.4009     
C176-H180=1.0958     H177-C173=1.0951     C178-C174=1.4009     C178-C176=1.4009     C178-H181=1.0983     H179-C174=1.0960     
H180-C176=1.0958     H181-C178=1.0983     C182-O168=1.3912     C182-C183=1.4023     C182-C184=1.4017     C183-C182=1.4023     
C183-C185=1.4002     C183-H186=1.0953     C184-C182=1.4017     C184-C187=1.4004     C184-H188=1.0948     C185-C183=1.4002     
C185-C189=1.4008     C185-H190=1.0956     H186-C183=1.0953     C187-C184=1.4004     C187-C189=1.4006     C187-H191=1.0954     
H188-C184=1.0948     C189-C185=1.4008     C189-C187=1.4006     C189-H192=1.0980     H190-C185=1.0956     H191-C187=1.0954     
H192-C189=1.0980     C193-O169=1.3874     C193-C194=1.4041     C193-C195=1.4043     C194-C193=1.4041     C194-C196=1.4009     
C194-H197=1.0955     C195-C193=1.4043     C195-C198=1.3983     C195-H199=1.0947     C196-C194=1.4009     C196-C200=1.4012     
C196-H201=1.0974     H197-C194=1.0955     C198-C195=1.3983     C198-C200=1.4020     C198-H202=1.0958     H199-C195=1.0947     
C200-C196=1.4012     C200-C198=1.4020     C200-H203=1.0978     H201-C196=1.0974     H202-C198=1.0958     H203-C200=1.0978     
C204-O170=1.3901     C204-C205=1.4024     C204-C206=1.4024     C205-C204=1.4024     C205-C207=1.4003     C205-H208=1.0951     
C206-C204=1.4024     C206-C209=1.4003     C206-H210=1.0946     C207-C205=1.4003     C207-C211=1.4007     C207-H212=1.0954     
H208-C205=1.0951     C209-C206=1.4003     C209-C211=1.4005     C209-H213=1.0953     H210-C206=1.0946     C211-C207=1.4007     
C211-C209=1.4005     C211-H214=1.0981     H212-C207=1.0954     H213-C209=1.0953     H214-C211=1.0981     N215-Fe47=1.6362     
N215-C216=1.2968     C216-N215=1.2968     C216-C217=1.4255     C216-C221=1.4298     C217-C216=1.4255     C217-C218=1.3703     
C217-H231=1.0774     C218-C217=1.3703     C218-C219=1.3891     C218-H232=1.0797     C219-C218=1.3891     C219-C220=1.3869     
C219-H233=1.0770     C220-C219=1.3869     C220-C221=1.3768     C220-H234=1.0796     C221-C216=1.4298     C221-C220=1.3768     
C221-C222=1.4979     C222-C221=1.4979     C222-C223=1.5575     C222-H235=1.0920     C222-H236=1.0906     C223-C222=1.5575     
C223-C224=1.4990     C223-H237=1.0900     C223-H238=1.0898     C224-C223=1.4990     C224-C225=1.3918     C224-C230=1.3895     
C225-C224=1.3918     C225-C226=1.3833     C225-H239=1.0778     C226-C225=1.3833     C226-N227=1.3249     C226-H240=1.0804     
N227-C226=1.3249     N227-C228=1.3152     C228-N227=1.3152     C228-Cl229=1.7280    C228-C230=1.3811     Cl229-C228=1.7280    
C230-C224=1.3895     C230-C228=1.3811     C230-H241=1.0767     H231-C217=1.0774     H232-C218=1.0797     H233-C219=1.0770     
H234-C220=1.0796     H235-C222=1.0920     H236-C222=1.0906     H237-C223=1.0900     H238-C223=1.0898     H239-C225=1.0778     
H240-C226=1.0804     H241-C230=1.0767     
 C  H  Rav=1.0948 sigma=0.0058  Rmin=1.0767  Rmax=1.1068    95
 C  C  Rav=1.4404 sigma=0.0539  Rmin=1.3654  Rmax=1.5575   113
 N  H  Rav=1.0227 sigma=0.0013  Rmin=1.0213  Rmax=1.0244     4
 N  C  Rav=1.3740 sigma=0.0318  Rmin=1.2968  Rmax=1.4182    19
 O  C  Rav=1.3356 sigma=0.0875  Rmin=1.2146  Rmax=1.4584    24
 Cl C  Rav=1.7280 sigma=0.0000  Rmin=1.7280  Rmax=1.7280     1
 Fe N  Rav=1.9454 sigma=0.1547  Rmin=1.6362  Rmax=2.0284     5
 Fe Cl Rav=2.3134 sigma=0.0000  Rmin=2.3134  Rmax=2.3134     1

 selected bond angles (degree)
 --------------------
C9-N1-C4=106.90                Fe47-N1-C4=126.39              Fe47-N1-C9=126.70              C16-N2-C11=107.08              
Fe47-N2-C11=126.68             Fe47-N2-C16=126.23             C39-C3-C4=123.17               C106-C3-C4=117.37              
C106-C3-C39=119.46             C3-C4-N1=126.22                C5-C4-N1=109.77                C5-C4-C3=123.96                
H6-C5-C4=124.63                C7-C5-C4=106.77                C7-C5-H6=128.59                H8-C7-C5=128.39                
C9-C7-C5=106.92                C9-C7-H8=124.67                C7-C9-N1=109.58                C10-C9-N1=126.20               
C10-C9-C7=124.05               C11-C10-C9=122.76              C17-C10-C9=118.75              C17-C10-C11=118.26             

 selected dihedral angles (degree)
 ---------------------------------
C3-C4-N1-C9=182.21            C3-C4-N1-Fe47=  1.35          C5-C4-N1-C9=359.70            C5-C4-N1-Fe47=178.84          
N1-C4-C3-C39=  6.29           N1-C4-C3-C106=186.27          C5-C4-C3-C39=189.14           C5-C4-C3-C106=  9.11          
H6-C5-C4-N1=179.53            H6-C5-C4-C3=357.09            C7-C5-C4-N1=358.75            C7-C5-C4-C3=176.31            
H8-C7-C5-C4=180.69            H8-C7-C5-H6=359.86            C9-C7-C5-C4=  2.19            C9-C7-C5-H6=181.37            
C7-C9-N1-C4=  1.67            C7-C9-N1-Fe47=182.54          C10-C9-N1-C4=186.42           C10-C9-N1-Fe47=  7.28         
N1-C9-C7-C5=357.52            N1-C9-C7-H8=178.95            C10-C9-C7-C5=172.89           C10-C9-C7-H8=354.33           
C11-C10-C9-N1=  5.56          C11-C10-C9-C7=190.96          C17-C10-C9-N1=180.00          C17-C10-C9-C7=  5.40          
           -------------------------------------------------
          |                Final Singlepoint                |
           -------------------------------------------------

          ...................................................
          :                      SETUP                      :
          :.................................................:
          :  # basis functions                 685          :
          :  # atomic orbitals                 682          :
          :  # shells                          386          :
          :  # electrons                       719          :
          :  max. iterations                   250          :
          :  Hamiltonian                  GFN2-xTB          :
          :  restarted?                      false          :
          :  GBSA solvation                   true          :
          :  PC potential                    false          :
          :  electronic temp.          300.0000000     K    :
          :  accuracy                    1.0000000          :
          :  -> integral cutoff          0.2500000E+02      :
          :  -> integral neglect         0.1000000E-07      :
          :  -> SCF convergence          0.1000000E-05 Eh   :
          :  -> wf. convergence          0.1000000E-03 e    :
          :  Broyden damping             0.4000000          :
          :  net charge                          0          :
          :  unpaired electrons                  0          :
          ...................................................

 iter      E             dE          RMSdq      gap      omega  full diag
   1   -404.7540299 -0.404754E+03  0.173E-04    0.11       0.0  T
   2   -404.7540299  0.591689E-08  0.270E-04    0.11      23.9  T
   3   -404.7540299 -0.851861E-08  0.989E-05    0.11      65.2  T

   *** convergence criteria satisfied after 3 iterations ***

         #    Occupation            Energy/Eh            Energy/eV
      -------------------------------------------------------------
         1        2.0000           -1.0616934             -28.8901
       ...           ...                  ...                  ...
       354        2.0000           -0.3806181             -10.3571
       355        2.0000           -0.3799421             -10.3388
       356        2.0000           -0.3776245             -10.2757
       357        2.0000           -0.3763703             -10.2416
       358        2.0000           -0.3756461             -10.2219
       359        2.0000           -0.3630509              -9.8791
       360        0.8841           -0.3326920              -9.0530 (HOMO)
       361        0.1159           -0.3288317              -8.9480 (LUMO)
       362                         -0.3066503              -8.3444
       363                         -0.3046293              -8.2894
       364                         -0.2681297              -7.2962
       365                         -0.2642195              -7.1898
       ...                                ...                  ...
       682                          1.5874766              43.1974
      -------------------------------------------------------------
                  HL-Gap            0.0038602 Eh            0.1050 eV
             Fermi-level           -0.3393207 Eh           -9.2334 eV

 SCC (total)                   0 d,  0 h,  0 min,  0.577 sec
 SCC setup                      ...        0 min,  0.004 sec (  0.703%)
 Dispersion                     ...        0 min,  0.004 sec (  0.684%)
 classical contributions        ...        0 min,  0.001 sec (  0.137%)
 integral evaluation            ...        0 min,  0.024 sec (  4.194%)
 iterations                     ...        0 min,  0.214 sec ( 37.000%)
 molecular gradient             ...        0 min,  0.310 sec ( 53.752%)
 printout                       ...        0 min,  0.020 sec (  3.527%)

         :::::::::::::::::::::::::::::::::::::::::::::::::::::
         ::                     SUMMARY                     ::
         :::::::::::::::::::::::::::::::::::::::::::::::::::::
         :: total energy            -399.389491489781 Eh    ::
         :: total w/o Gsasa/hb      -399.281770363723 Eh    ::
         :: gradient norm              0.000186991564 Eh/a0 ::
         :: HOMO-LUMO gap              0.105042469901 eV    ::
         ::.................................................::
         :: SCC energy              -404.727899610774 Eh    ::
         :: -> isotropic ES            0.507078451404 Eh    ::
         :: -> anisotropic ES          0.000879225946 Eh    ::
         :: -> anisotropic XC          0.166987044434 Eh    ::
         :: -> dispersion             -0.368290492740 Eh    ::
         :: -> Gsolv                  -0.155559036768 Eh    ::
         ::    -> Gelec               -0.047837910711 Eh    ::
         ::    -> Gsasa               -0.106373159531 Eh    ::
         ::    -> Ghb                 -0.006301404104 Eh    ::
         ::    -> Gshift               0.004953437577 Eh    ::
         :: repulsion energy           5.327728342040 Eh    ::
         :: add. restraining           0.010679778953 Eh    ::
         :: total charge              -0.000000000011 e     ::
         :::::::::::::::::::::::::::::::::::::::::::::::::::::

           -------------------------------------------------
          |                Property Printout                |
           -------------------------------------------------

    * Orbital Energies and Occupations

         #    Occupation            Energy/Eh            Energy/eV
      -------------------------------------------------------------
         1        2.0000           -1.0616934             -28.8901
       ...           ...                  ...                  ...
       348        2.0000           -0.3879899             -10.5577
       349        2.0000           -0.3872790             -10.5384
       350        2.0000           -0.3866968             -10.5226
       351        2.0000           -0.3856164             -10.4932
       352        2.0000           -0.3831614             -10.4264
       353        2.0000           -0.3813801             -10.3779
       354        2.0000           -0.3806181             -10.3571
       355        2.0000           -0.3799421             -10.3388
       356        2.0000           -0.3776245             -10.2757
       357        2.0000           -0.3763703             -10.2416
       358        2.0000           -0.3756461             -10.2219
       359        2.0000           -0.3630509              -9.8791
       360        0.8841           -0.3326920              -9.0530 (HOMO)
       361        0.1159           -0.3288317              -8.9480 (LUMO)
       362                         -0.3066503              -8.3444
       363                         -0.3046293              -8.2894
       364                         -0.2681297              -7.2962
       365                         -0.2642195              -7.1898
       366                         -0.2608930              -7.0993
       367                         -0.2590778              -7.0499
       368                         -0.2560823              -6.9684
       369                         -0.2540443              -6.9129
       370                         -0.2514183              -6.8414
       371                         -0.2474674              -6.7339
       ...                                ...                  ...
       682                          1.5874766              43.1974
      -------------------------------------------------------------
                  HL-Gap            0.0038602 Eh            0.1050 eV
             Fermi-level           -0.3393207 Eh           -9.2334 eV

     #   Z          covCN         q      C6AA      α(0)
     1   7 N        2.612    -0.208    25.543     7.506
     2   7 N        2.615    -0.212    25.627     7.518
     3   6 C        2.949    -0.019    28.488     8.754
     4   6 C        3.093     0.072    26.283     8.403
     5   6 C        2.988    -0.049    29.198     8.864
     6   1 H        0.924     0.045     2.385     2.415
     7   6 C        2.989    -0.041    29.018     8.836
     8   1 H        0.924     0.040     2.446     2.446
     9   6 C        3.091     0.079    26.135     8.379
    10   6 C        2.949     0.009    27.805     8.649
    11   6 C        3.092     0.082    26.072     8.369
    12   6 C        2.991    -0.040    28.979     8.830
    13   1 H        0.924     0.035     2.519     2.482
    14   6 C        2.988    -0.045    29.113     8.851
    15   1 H        0.924     0.042     2.424     2.435
    16   6 C        3.093     0.075    26.229     8.394
    17   6 C        2.960    -0.032    28.785     8.800
    18   6 C        2.855     0.143    24.889     8.177
    19   6 C        2.902    -0.073    29.818     8.953
    20   6 C        2.909    -0.035    28.859     8.809
    21   1 H        0.923     0.055     2.256     2.349
    22   6 C        2.902    -0.072    29.802     8.951
    23   6 C        2.853     0.143    24.893     8.177
    24   7 N        2.620    -0.200    25.357     7.479
    25   7 N        2.621    -0.212    25.618     7.517
    26   6 C        2.949    -0.015    28.386     8.738
    27   6 C        3.089     0.072    26.281     8.403
    28   6 C        2.991    -0.050    29.240     8.870
    29   1 H        0.924     0.044     2.390     2.418
    30   6 C        2.990    -0.042    29.027     8.838
    31   1 H        0.924     0.041     2.441     2.443
    32   6 C        3.091     0.079    26.126     8.378
    33   6 C        2.950     0.010    27.783     8.645
    34   6 C        3.095     0.079    26.118     8.376
    35   6 C        2.991    -0.042    29.045     8.841
    36   1 H        0.924     0.036     2.502     2.473
    37   6 C        2.989    -0.053    29.300     8.879
    38   1 H        0.924     0.044     2.402     2.424
    39   6 C        3.093     0.069    26.347     8.413
    40   6 C        2.961    -0.029    28.727     8.791
    41   6 C        2.849     0.140    24.940     8.185
    42   6 C        2.902    -0.070    29.733     8.941
    43   6 C        2.909    -0.035    28.872     8.811
    44   1 H        0.923     0.058     2.228     2.334
    45   6 C        2.902    -0.070    29.749     8.943
    46   6 C        2.851     0.142    24.898     8.178
    47  26 Fe       4.580     0.852     4.983     7.201
    48  17 Cl       0.750    -0.557   117.597    16.588
    49   6 C        2.966    -0.028    28.691     8.786
    50   6 C        2.893     0.073    26.374     8.420
    51   6 C        2.893     0.075    26.318     8.411
    52   6 C        2.903    -0.055    29.360     8.885
    53   7 N        2.688    -0.158    24.418     7.339
    54   6 C        2.904    -0.054    29.351     8.883
    55   7 N        2.688    -0.161    24.474     7.347
    56   1 H        0.924     0.077     2.014     2.219
    57   6 C        2.908    -0.031    28.781     8.797
    58   6 C        2.746     0.278    22.302     7.733
    59   1 H        0.860     0.192     1.146     1.677
    60   1 H        0.924     0.079     1.994     2.208
    61   6 C        2.747     0.278    22.297     7.732
    62   1 H        0.859     0.198     1.119     1.657
    63   1 H        0.924     0.054     2.277     2.360
    64   8 O        0.857    -0.459    22.901     6.416
    65   6 C        3.856    -0.037    21.189     6.547
    66   8 O        0.857    -0.460    22.928     6.420
    67   6 C        3.856    -0.038    21.213     6.550
    68   6 C        3.803    -0.047    21.411     6.588
    69   1 H        0.924     0.056     2.244     2.343
    70   6 C        3.855    -0.043    21.307     6.565
    71   6 C        3.802    -0.049    21.449     6.594
    72   1 H        0.924     0.066     2.125     2.280
    73   6 C        3.855    -0.041    21.276     6.560
    74   1 H        0.924     0.077     2.011     2.218
    75   1 H        0.924     0.076     2.022     2.224
    76   1 H        0.924     0.082     1.961     2.190
    77   6 C        2.702     0.358    20.923     7.487
    78   1 H        0.924     0.073     2.050     2.239
    79   1 H        0.924     0.087     1.909     2.161
    80   1 H        0.924     0.081     1.973     2.196
    81   6 C        2.703     0.358    20.916     7.486
    82   8 O        1.700    -0.291    18.835     5.860
    83   8 O        0.856    -0.457    22.860     6.410
    84   8 O        1.700    -0.295    18.901     5.870
    85   8 O        0.856    -0.454    22.788     6.400
    86   6 C        3.729     0.118    18.740     6.180
    87   6 C        3.730     0.122    18.687     6.171
    88   6 C        3.745    -0.118    22.828     6.815
    89   6 C        3.747    -0.124    22.952     6.833
    90   1 H        0.922     0.053     2.289     2.366
    91   6 C        3.747    -0.122    22.908     6.827
    92   6 C        3.746    -0.119    22.843     6.818
    93   1 H        0.922     0.045     2.386     2.416
    94   1 H        0.923     0.046     2.370     2.408
    95   1 H        0.923     0.060     2.201     2.320
    96   1 H        0.923     0.061     2.186     2.312
    97   1 H        0.924     0.057     2.236     2.339
    98   1 H        0.923     0.063     2.169     2.303
    99   1 H        0.924     0.064     2.152     2.294
   100   1 H        0.924     0.055     2.255     2.348
   101   1 H        0.923     0.065     2.146     2.291
   102   1 H        0.923     0.061     2.182     2.310
   103   1 H        0.923     0.049     2.329     2.387
   104   1 H        0.923     0.060     2.196     2.317
   105   1 H        0.923     0.058     2.220     2.330
   106   6 C        2.967    -0.028    28.696     8.787
   107   6 C        2.893     0.072    26.395     8.423
   108   6 C        2.894     0.076    26.312     8.410
   109   6 C        2.903    -0.055    29.361     8.885
   110   7 N        2.689    -0.161    24.474     7.347
   111   6 C        2.903    -0.054    29.336     8.881
   112   7 N        2.689    -0.161    24.480     7.348
   113   1 H        0.924     0.077     2.014     2.219
   114   6 C        2.908    -0.031    28.777     8.796
   115   6 C        2.746     0.276    22.327     7.737
   116   1 H        0.860     0.195     1.133     1.667
   117   1 H        0.924     0.077     2.007     2.216
   118   6 C        2.746     0.278    22.299     7.732
   119   1 H        0.859     0.197     1.119     1.657
   120   1 H        0.924     0.054     2.274     2.358
   121   8 O        0.857    -0.457    22.847     6.409
   122   6 C        3.857    -0.040    21.254     6.557
   123   8 O        0.857    -0.460    22.910     6.417
   124   6 C        3.856    -0.038    21.211     6.550
   125   6 C        3.803    -0.051    21.482     6.599
   126   1 H        0.924     0.059     2.216     2.328
   127   6 C        3.855    -0.042    21.286     6.562
   128   6 C        3.803    -0.049    21.455     6.594
   129   1 H        0.924     0.064     2.151     2.294
   130   6 C        3.855    -0.041    21.267     6.559
   131   1 H        0.924     0.078     1.998     2.210
   132   1 H        0.924     0.071     2.078     2.254
   133   1 H        0.924     0.083     1.948     2.183
   134   6 C        2.703     0.358    20.925     7.487
   135   1 H        0.924     0.075     2.031     2.229
   136   1 H        0.924     0.086     1.916     2.165
   137   1 H        0.924     0.080     1.980     2.200
   138   6 C        2.703     0.358    20.919     7.486
   139   8 O        1.700    -0.288    18.788     5.852
   140   8 O        0.856    -0.458    22.874     6.412
   141   8 O        1.700    -0.294    18.890     5.868
   142   8 O        0.856    -0.454    22.782     6.399
   143   6 C        3.730     0.120    18.716     6.176
   144   6 C        3.731     0.120    18.706     6.174
   145   6 C        3.747    -0.125    22.970     6.836
   146   6 C        3.746    -0.120    22.867     6.821
   147   1 H        0.922     0.050     2.323     2.384
   148   6 C        3.745    -0.117    22.817     6.814
   149   6 C        3.747    -0.124    22.949     6.833
   150   1 H        0.922     0.048     2.341     2.393
   151   1 H        0.923     0.058     2.226     2.333
   152   1 H        0.923     0.064     2.150     2.293
   153   1 H        0.923     0.064     2.157     2.297
   154   1 H        0.924     0.051     2.310     2.377
   155   1 H        0.923     0.061     2.185     2.312
   156   1 H        0.923     0.059     2.211     2.326
   157   1 H        0.923     0.048     2.348     2.396
   158   1 H        0.923     0.058     2.225     2.333
   159   1 H        0.923     0.059     2.208     2.324
   160   1 H        0.923     0.057     2.230     2.335
   161   1 H        0.923     0.062     2.170     2.304
   162   1 H        0.923     0.064     2.151     2.293
   163   1 H        0.924     0.046     2.371     2.408
   164   1 H        0.924     0.048     2.344     2.394
   165   1 H        0.924     0.053     2.278     2.361
   166   1 H        0.924     0.050     2.315     2.380
   167   8 O        1.706    -0.297    18.935     5.875
   168   8 O        1.706    -0.289    18.803     5.855
   169   8 O        1.707    -0.286    18.750     5.846
   170   8 O        1.706    -0.288    18.776     5.850
   171   6 C        2.853     0.133    25.092     8.210
   172   6 C        2.906    -0.051    29.259     8.869
   173   6 C        2.906    -0.045    29.124     8.849
   174   6 C        2.909    -0.034    28.838     8.806
   175   1 H        0.924     0.049     2.329     2.387
   176   6 C        2.909    -0.029    28.726     8.789
   177   1 H        0.924     0.045     2.378     2.412
   178   6 C        2.906    -0.036    28.895     8.814
   179   1 H        0.924     0.053     2.277     2.360
   180   1 H        0.924     0.054     2.270     2.356
   181   1 H        0.923     0.053     2.280     2.361
   182   6 C        2.851     0.138    24.977     8.191
   183   6 C        2.905    -0.050    29.235     8.866
   184   6 C        2.906    -0.047    29.166     8.855
   185   6 C        2.909    -0.032    28.790     8.798
   186   1 H        0.924     0.043     2.415     2.430
   187   6 C        2.909    -0.030    28.750     8.792
   188   1 H        0.924     0.052     2.300     2.372
   189   6 C        2.905    -0.036    28.905     8.816
   190   1 H        0.924     0.048     2.345     2.395
   191   1 H        0.924     0.051     2.303     2.373
   192   1 H        0.923     0.048     2.340     2.392
   193   6 C        2.846     0.136    25.023     8.198
   194   6 C        2.905    -0.055    29.362     8.885
   195   6 C        2.907    -0.046    29.153     8.853
   196   6 C        2.909    -0.032    28.788     8.798
   197   1 H        0.924     0.040     2.443     2.444
   198   6 C        2.908    -0.027    28.677     8.781
   199   1 H        0.924     0.047     2.357     2.401
   200   6 C        2.905    -0.038    28.956     8.823
   201   1 H        0.924     0.046     2.371     2.408
   202   1 H        0.924     0.054     2.269     2.356
   203   1 H        0.924     0.047     2.359     2.402
   204   6 C        2.850     0.138    24.984     8.192
   205   6 C        2.905    -0.051    29.266     8.870
   206   6 C        2.906    -0.049    29.208     8.862
   207   6 C        2.910    -0.032    28.802     8.800
   208   1 H        0.924     0.042     2.425     2.435
   209   6 C        2.909    -0.030    28.757     8.793
   210   1 H        0.924     0.052     2.300     2.371
   211   6 C        2.905    -0.037    28.923     8.818
   212   1 H        0.924     0.049     2.330     2.387
   213   1 H        0.924     0.051     2.312     2.378
   214   1 H        0.923     0.049     2.337     2.391
   215   7 N        1.742    -0.298    28.492     7.900
   216   6 C        2.905     0.114    25.495     8.279
   217   6 C        2.922    -0.040    28.992     8.830
   218   6 C        2.915    -0.026    28.657     8.778
   219   6 C        2.917    -0.031    28.779     8.797
   220   6 C        2.919    -0.037    28.912     8.818
   221   6 C        2.972     0.008    27.833     8.654
   222   6 C        3.807    -0.052    21.493     6.600
   223   6 C        3.807    -0.061    21.673     6.627
   224   6 C        2.982     0.042    27.057     8.533
   225   6 C        2.918    -0.054    29.334     8.881
   226   6 C        2.925     0.054    26.779     8.486
   227   7 N        1.895    -0.248    27.313     7.748
   228   6 C        2.894     0.177    24.208     8.067
   229  17 Cl       0.995    -0.179   104.784    15.661
   230   6 C        2.964    -0.053    29.304     8.879
   231   1 H        0.926     0.034     2.532     2.488
   232   1 H        0.926     0.048     2.345     2.394
   233   1 H        0.926     0.050     2.319     2.382
   234   1 H        0.926     0.058     2.227     2.334
   235   1 H        0.924     0.045     2.380     2.413
   236   1 H        0.924     0.056     2.241     2.341
   237   1 H        0.925     0.054     2.265     2.354
   238   1 H        0.925     0.060     2.194     2.316
   239   1 H        0.926     0.064     2.154     2.295
   240   1 H        0.926     0.065     2.141     2.288
   241   1 H        0.926     0.068     2.105     2.269

 Mol. C6AA /au·bohr⁶  :     749923.175737
 Mol. C8AA /au·bohr⁸  :   18574990.704284
 Mol. α(0) /au        :       1358.848426


Wiberg/Mayer (AO) data.
largest (>0.10) Wiberg bond orders for each atom

 ---------------------------------------------------------------------------
     #   Z sym  total        # sym  WBO       # sym  WBO       # sym  WBO
 ---------------------------------------------------------------------------
     1   7 N    3.444 --     4 C    1.243     9 C    1.236    47 Fe   0.609
     2   7 N    3.431 --    11 C    1.249    16 C    1.245    47 Fe   0.573
     3   6 C    3.930 --    39 C    1.307     4 C    1.303   106 C    1.001
     4   6 C    3.929 --     3 C    1.303     1 N    1.243     5 C    1.171
     5   6 C    3.952 --     7 C    1.647     4 C    1.171     6 H    0.969
     6   1 H    0.997 --     5 C    0.969
     7   6 C    3.954 --     5 C    1.647     9 C    1.170     8 H    0.970
     8   1 H    0.998 --     7 C    0.970
     9   6 C    3.925 --    10 C    1.316     1 N    1.236     7 C    1.170
    10   6 C    3.934 --     9 C    1.316    11 C    1.310    17 C    1.004
    11   6 C    3.925 --    10 C    1.310     2 N    1.249    12 C    1.163
    12   6 C    3.955 --    14 C    1.660    11 C    1.163    13 H    0.970
    13   1 H    0.998 --    12 C    0.970
    14   6 C    3.953 --    12 C    1.660    16 C    1.162    15 H    0.970
    15   1 H    0.997 --    14 C    0.970
    16   6 C    3.929 --    26 C    1.313     2 N    1.245    14 C    1.162
    17   6 C    3.972 --    18 C    1.339    23 C    1.337    10 C    1.004
                            20 C    0.100
    18   6 C    3.919 --    19 C    1.365    17 C    1.339   167 O    1.031
    19   6 C    3.977 --    20 C    1.438    18 C    1.365   163 H    0.964
    20   6 C    3.986 --    22 C    1.442    19 C    1.438    21 H    0.968
                            17 C    0.100
    21   1 H    0.996 --    20 C    0.968
    22   6 C    3.979 --    20 C    1.442    23 C    1.362   164 H    0.964
    23   6 C    3.920 --    22 C    1.362    17 C    1.337   168 O    1.037
    24   7 N    3.453 --    27 C    1.246    32 C    1.245    47 Fe   0.580
    25   7 N    3.436 --    34 C    1.247    39 C    1.245    47 Fe   0.584
    26   6 C    3.925 --    16 C    1.313    27 C    1.299    49 C    0.997
    27   6 C    3.928 --    26 C    1.299    24 N    1.246    28 C    1.169
    28   6 C    3.954 --    30 C    1.647    27 C    1.169    29 H    0.969
    29   1 H    0.997 --    28 C    0.969
    30   6 C    3.956 --    28 C    1.647    32 C    1.172    31 H    0.970
    31   1 H    0.998 --    30 C    0.970
    32   6 C    3.926 --    33 C    1.309    24 N    1.245    30 C    1.172
    33   6 C    3.932 --    34 C    1.315    32 C    1.309    40 C    1.006
    34   6 C    3.925 --    33 C    1.315    25 N    1.247    35 C    1.166
    35   6 C    3.954 --    37 C    1.655    34 C    1.166    36 H    0.970
    36   1 H    0.998 --    35 C    0.970
    37   6 C    3.952 --    35 C    1.655    39 C    1.164    38 H    0.969
    38   1 H    0.997 --    37 C    0.969
    39   6 C    3.929 --     3 C    1.307    25 N    1.245    37 C    1.164
    40   6 C    3.972 --    46 C    1.340    41 C    1.338    33 C    1.006
    41   6 C    3.921 --    42 C    1.368    40 C    1.338   169 O    1.032
    42   6 C    3.977 --    43 C    1.439    41 C    1.368   165 H    0.964
    43   6 C    3.985 --    45 C    1.441    42 C    1.439    44 H    0.968
    44   1 H    0.996 --    43 C    0.968
    45   6 C    3.976 --    43 C    1.441    46 C    1.364   166 H    0.964
    46   6 C    3.920 --    45 C    1.364    40 C    1.340   170 O    1.035
    47  26 Fe   5.195 --   215 N    1.559     1 N    0.609    48 Cl   0.599
                            25 N    0.584    24 N    0.580     2 N    0.573
                           217 C    0.107   221 C    0.104
    48  17 Cl   0.755 --    47 Fe   0.599
    49   6 C    3.971 --    50 C    1.347    51 C    1.339    26 C    0.997
    50   6 C    3.950 --    52 C    1.369    49 C    1.347    53 N    1.066
    51   6 C    3.950 --    54 C    1.365    49 C    1.339    55 N    1.075
    52   6 C    3.978 --    57 C    1.439    50 C    1.369    56 H    0.958
    53   7 N    3.499 --    58 C    1.212    50 C    1.066    59 H    0.921
                            64 O    0.165
    54   6 C    3.969 --    57 C    1.443    51 C    1.365    60 H    0.956
    55   7 N    3.500 --    61 C    1.206    51 C    1.075    62 H    0.919
                            66 O    0.160
    56   1 H    0.992 --    52 C    0.958
    57   6 C    3.987 --    54 C    1.443    52 C    1.439    63 H    0.968
    58   6 C    3.949 --    64 O    1.660    53 N    1.212    65 C    0.993
    59   1 H    0.962 --    53 N    0.921
    60   1 H    0.992 --    54 C    0.956
    61   6 C    3.948 --    66 O    1.658    55 N    1.206    67 C    0.999
    62   1 H    0.960 --    55 N    0.919
    63   1 H    0.996 --    57 C    0.968
    64   8 O    1.981 --    58 C    1.660    53 N    0.165
    65   6 C    3.940 --    58 C    0.993    69 H    0.964    68 C    0.959
                            70 C    0.890
    66   8 O    1.987 --    61 C    1.658    55 N    0.160
    67   6 C    3.939 --    61 C    0.999    72 H    0.964    71 C    0.956
                            73 C    0.887
    68   6 C    3.938 --    75 H    0.974    74 H    0.973    65 C    0.959
                            70 C    0.944
    69   1 H    0.997 --    65 C    0.964
    70   6 C    3.937 --    77 C    1.008    76 H    0.964    68 C    0.944
                            65 C    0.890
    71   6 C    3.936 --    78 H    0.974    79 H    0.968    67 C    0.956
                            73 C    0.943
    72   1 H    0.996 --    67 C    0.964
    73   6 C    3.937 --    81 C    1.013    80 H    0.963    71 C    0.943
                            67 C    0.887
    74   1 H    0.994 --    68 C    0.973
    75   1 H    0.994 --    68 C    0.974
    76   1 H    0.993 --    70 C    0.964
    77   6 C    3.919 --    83 O    1.695    82 O    1.144    70 C    1.008
    78   1 H    0.994 --    71 C    0.974
    79   1 H    0.992 --    71 C    0.968
    80   1 H    0.993 --    73 C    0.963
    81   6 C    3.918 --    85 O    1.698    84 O    1.133    73 C    1.013
    82   8 O    2.294 --    77 C    1.144    86 C    0.900    83 O    0.169
    83   8 O    1.997 --    77 C    1.695    82 O    0.169
    84   8 O    2.285 --    81 C    1.133    87 C    0.904    85 O    0.167
    85   8 O    2.004 --    81 C    1.698    84 O    0.167
    86   6 C    3.911 --    89 C    1.007    88 C    1.002    90 H    0.961
                            82 O    0.900
    87   6 C    3.913 --    91 C    1.007    92 C    1.003    93 H    0.962
                            84 O    0.904
    88   6 C    3.990 --    86 C    1.002    94 H    0.986    95 H    0.985
                            96 H    0.982
    89   6 C    3.989 --    86 C    1.007    97 H    0.984    99 H    0.983
                            98 H    0.981
    90   1 H    0.997 --    86 C    0.961
    91   6 C    3.989 --    87 C    1.007   100 H    0.985   101 H    0.983
                           102 H    0.982
    92   6 C    3.990 --    87 C    1.003   103 H    0.985   105 H    0.985
                           104 H    0.982
    93   1 H    0.998 --    87 C    0.962
    94   1 H    0.998 --    88 C    0.986
    95   1 H    0.996 --    88 C    0.985
    96   1 H    0.996 --    88 C    0.982
    97   1 H    0.997 --    89 C    0.984
    98   1 H    0.995 --    89 C    0.981
    99   1 H    0.996 --    89 C    0.983
   100   1 H    0.997 --    91 C    0.985
   101   1 H    0.996 --    91 C    0.983
   102   1 H    0.995 --    91 C    0.982
   103   1 H    0.998 --    92 C    0.985
   104   1 H    0.996 --    92 C    0.982
   105   1 H    0.997 --    92 C    0.985
   106   6 C    3.971 --   107 C    1.343   108 C    1.339     3 C    1.001
   107   6 C    3.950 --   109 C    1.371   106 C    1.343   110 N    1.065
   108   6 C    3.950 --   111 C    1.365   106 C    1.339   112 N    1.076
   109   6 C    3.970 --   114 C    1.437   107 C    1.371   113 H    0.958
   110   7 N    3.496 --   115 C    1.212   107 C    1.065   116 H    0.919
                           121 O    0.166
   111   6 C    3.970 --   114 C    1.444   108 C    1.365   117 H    0.957
   112   7 N    3.499 --   118 C    1.204   108 C    1.076   119 H    0.919
                           123 O    0.161
   113   1 H    0.992 --   109 C    0.958
   114   6 C    3.986 --   111 C    1.444   109 C    1.437   120 H    0.968
   115   6 C    3.950 --   121 O    1.664   110 N    1.212   122 C    0.990
   116   1 H    0.961 --   110 N    0.919
   117   1 H    0.992 --   111 C    0.957
   118   6 C    3.949 --   123 O    1.659   112 N    1.204   124 C    1.000
   119   1 H    0.960 --   112 N    0.919
   120   1 H    0.996 --   114 C    0.968
   121   8 O    1.985 --   115 C    1.664   110 N    0.166
   122   6 C    3.940 --   115 C    0.990   126 H    0.964   125 C    0.956
                           127 C    0.898
   123   8 O    1.979 --   118 C    1.659   112 N    0.161
   124   6 C    3.939 --   118 C    1.000   129 H    0.965   128 C    0.958
                           130 C    0.882
   125   6 C    3.938 --   132 H    0.974   131 H    0.973   122 C    0.956
                           127 C    0.943
   126   1 H    0.997 --   122 C    0.964
   127   6 C    3.937 --   134 C    1.006   133 H    0.964   125 C    0.943
                           122 C    0.898
   128   6 C    3.936 --   135 H    0.973   136 H    0.967   124 C    0.958
                           130 C    0.946
   129   1 H    0.996 --   124 C    0.965
   130   6 C    3.937 --   138 C    1.012   137 H    0.964   128 C    0.946
                           124 C    0.882
   131   1 H    0.994 --   125 C    0.973
   132   1 H    0.995 --   125 C    0.974
   133   1 H    0.993 --   127 C    0.964
   134   6 C    3.919 --   140 O    1.691   139 O    1.150   127 C    1.006
   135   1 H    0.994 --   128 C    0.973
   136   1 H    0.992 --   128 C    0.967
   137   1 H    0.993 --   130 C    0.964
   138   6 C    3.918 --   142 O    1.699   141 O    1.135   130 C    1.012
   139   8 O    2.299 --   134 C    1.150   143 C    0.899   140 O    0.170
   140   8 O    1.993 --   134 C    1.691   139 O    0.170
   141   8 O    2.287 --   138 C    1.135   144 C    0.903   142 O    0.167
   142   8 O    2.005 --   138 C    1.699   141 O    0.167
   143   6 C    3.911 --   145 C    1.007   146 C    1.004   147 H    0.961
                           139 O    0.899
   144   6 C    3.912 --   149 C    1.007   148 C    1.002   150 H    0.961
                           141 O    0.903
   145   6 C    3.988 --   143 C    1.007   151 H    0.984   152 H    0.983
                           153 H    0.981
   146   6 C    3.990 --   143 C    1.004   154 H    0.985   156 H    0.984
                           155 H    0.981
   147   1 H    0.998 --   143 C    0.961
   148   6 C    3.991 --   144 C    1.002   157 H    0.985   158 H    0.985
                           159 H    0.982
   149   6 C    3.989 --   144 C    1.007   160 H    0.984   162 H    0.983
                           161 H    0.982
   150   1 H    0.998 --   144 C    0.961
   151   1 H    0.997 --   145 C    0.984
   152   1 H    0.996 --   145 C    0.983
   153   1 H    0.995 --   145 C    0.981
   154   1 H    0.997 --   146 C    0.985
   155   1 H    0.996 --   146 C    0.981
   156   1 H    0.997 --   146 C    0.984
   157   1 H    0.998 --   148 C    0.985
   158   1 H    0.997 --   148 C    0.985
   159   1 H    0.996 --   148 C    0.982
   160   1 H    0.997 --   149 C    0.984
   161   1 H    0.995 --   149 C    0.982
   162   1 H    0.996 --   149 C    0.983
   163   1 H    0.997 --    19 C    0.964
   164   1 H    0.996 --    22 C    0.964
   165   1 H    0.996 --    42 C    0.964
   166   1 H    0.996 --    45 C    0.964
   167   8 O    2.244 --    18 C    1.031   171 C    0.972
   168   8 O    2.265 --    23 C    1.037   182 C    0.984
   169   8 O    2.278 --    41 C    1.032   193 C    0.998
   170   8 O    2.268 --    46 C    1.035   204 C    0.988
   171   6 C    3.924 --   173 C    1.398   172 C    1.394   167 O    0.972
                           178 C    0.104
   172   6 C    3.986 --   174 C    1.441   171 C    1.394   175 H    0.968
                           176 C    0.112
   173   6 C    3.987 --   176 C    1.439   171 C    1.398   177 H    0.967
                           174 C    0.111
   174   6 C    3.988 --   172 C    1.441   178 C    1.438   179 H    0.969
                           173 C    0.111
   175   1 H    0.998 --   172 C    0.968
   176   6 C    3.988 --   178 C    1.439   173 C    1.439   180 H    0.969
                           172 C    0.112
   177   1 H    0.998 --   173 C    0.967
   178   6 C    3.988 --   176 C    1.439   174 C    1.438   181 H    0.969
                           171 C    0.104
   179   1 H    0.997 --   174 C    0.969
   180   1 H    0.997 --   176 C    0.969
   181   1 H    0.997 --   178 C    0.969
   182   6 C    3.922 --   184 C    1.390   183 C    1.388   168 O    0.984
                           189 C    0.102
   183   6 C    3.986 --   185 C    1.444   182 C    1.388   186 H    0.968
                           187 C    0.111
   184   6 C    3.985 --   187 C    1.442   182 C    1.390   188 H    0.968
                           185 C    0.111
   185   6 C    3.989 --   183 C    1.444   189 C    1.436   190 H    0.969
                           184 C    0.111
   186   1 H    0.998 --   183 C    0.968
   187   6 C    3.988 --   184 C    1.442   189 C    1.438   191 H    0.969
                           183 C    0.111
   188   1 H    0.997 --   184 C    0.968
   189   6 C    3.987 --   187 C    1.438   185 C    1.436   192 H    0.969
                           182 C    0.102
   190   1 H    0.997 --   185 C    0.969
   191   1 H    0.997 --   187 C    0.969
   192   1 H    0.998 --   189 C    0.969
   193   6 C    3.918 --   194 C    1.383   195 C    1.377   169 O    0.998
   194   6 C    3.985 --   196 C    1.442   193 C    1.383   197 H    0.967
                           198 C    0.109
   195   6 C    3.984 --   198 C    1.447   193 C    1.377   199 H    0.967
                           196 C    0.110
   196   6 C    3.988 --   194 C    1.442   200 C    1.437   201 H    0.970
                           195 C    0.110
   197   1 H    0.998 --   194 C    0.967
   198   6 C    3.987 --   195 C    1.447   200 C    1.433   202 H    0.968
                           194 C    0.109
   199   1 H    0.998 --   195 C    0.967
   200   6 C    3.986 --   196 C    1.437   198 C    1.433   203 H    0.970
   201   1 H    0.998 --   196 C    0.970
   202   1 H    0.997 --   198 C    0.968
   203   1 H    0.998 --   200 C    0.970
   204   6 C    3.921 --   205 C    1.387   206 C    1.386   170 O    0.988
                           211 C    0.102
   205   6 C    3.986 --   207 C    1.443   204 C    1.387   208 H    0.968
                           209 C    0.110
   206   6 C    3.985 --   209 C    1.444   204 C    1.386   210 H    0.968
                           207 C    0.110
   207   6 C    3.988 --   205 C    1.443   211 C    1.436   212 H    0.969
                           206 C    0.110
   208   1 H    0.998 --   205 C    0.968
   209   6 C    3.988 --   206 C    1.444   211 C    1.437   213 H    0.969
                           205 C    0.110
   210   1 H    0.997 --   206 C    0.968
   211   6 C    3.987 --   209 C    1.437   207 C    1.436   214 H    0.969
                           204 C    0.102
   212   1 H    0.997 --   207 C    0.969
   213   1 H    0.997 --   209 C    0.969
   214   1 H    0.998 --   211 C    0.969
   215   7 N    3.303 --    47 Fe   1.559   216 C    1.407
   216   6 C    3.971 --   215 N    1.407   217 C    1.177   221 C    1.162
   217   6 C    3.937 --   218 C    1.513   216 C    1.177   231 H    0.964
                            47 Fe   0.107
   218   6 C    3.989 --   217 C    1.513   219 C    1.382   232 H    0.961
   219   6 C    3.885 --   220 C    1.401   218 C    1.382   233 H    0.970
   220   6 C    3.988 --   221 C    1.471   219 C    1.401   234 H    0.960
   221   6 C    3.935 --   220 C    1.471   216 C    1.162   222 C    1.019
                            47 Fe   0.104
   222   6 C    3.993 --   221 C    1.019   236 H    0.974   235 H    0.965
                           223 C    0.952
   223   6 C    3.991 --   224 C    1.018   238 H    0.971   237 H    0.970
                           222 C    0.952
   224   6 C    3.983 --   230 C    1.403   225 C    1.399   223 C    1.018
   225   6 C    3.989 --   226 C    1.444   224 C    1.399   239 H    0.966
   226   6 C    3.974 --   225 C    1.444   227 N    1.408   240 H    0.961
                           230 C    0.109
   227   7 N    3.061 --   228 C    1.421   226 C    1.408
   228   6 C    3.926 --   227 N    1.421   230 C    1.399   229 Cl   0.958
   229  17 Cl   1.114 --   228 C    0.958
   230   6 C    3.986 --   224 C    1.403   228 C    1.399   241 H    0.951
                           226 C    0.109
   231   1 H    0.998 --   217 C    0.964
   232   1 H    0.990 --   218 C    0.961
   233   1 H    0.997 --   219 C    0.970
   234   1 H    0.990 --   220 C    0.960
   235   1 H    0.996 --   222 C    0.965
   236   1 H    0.996 --   222 C    0.974
   237   1 H    0.996 --   223 C    0.970
   238   1 H    0.995 --   223 C    0.971
   239   1 H    0.995 --   225 C    0.966
   240   1 H    0.995 --   226 C    0.961
   241   1 H    0.995 --   230 C    0.951
 ---------------------------------------------------------------------------

Topologies differ in total number of bonds
Writing topology from bond orders to xtbtopo.mol

molecular dipole:
                 x           y           z       tot (Debye)
 q only:        4.091       1.300      -1.561
   full:        4.162       1.412      -1.631      11.916
molecular quadrupole (traceless):
                xx          xy          yy          xz          yz          zz
 q only:       62.825       0.454      60.245       3.360     -34.276    -123.070
  q+dip:       55.636      -4.093      65.267      -0.689     -36.416    -120.903
   full:       57.251      -6.891      74.777       2.880     -44.194    -132.028

           -------------------------------------------------
          |                Geometry Summary                 |
           -------------------------------------------------

      molecular mass/u    :     1979.8078214
   center of mass at/Å    :        0.0191944      -0.0426729       0.3360949
  moments of inertia/u·Å² :        0.4878330E+05   0.6448925E+05   0.6663814E+05
rotational constants/cm⁻¹ :        0.3455616E-03   0.2614022E-03   0.2529727E-03

 * 231 selected distances

     #   Z          #   Z                                           value/Å
     1   7 N        4   6 C                                       1.3722877
     3   6 C        4   6 C                                       1.4123971
     5   6 C        6   1 H                                       1.0910117
     5   6 C        7   6 C                                       1.3666074
     7   6 C        8   1 H                                       1.0907640
     1   7 N        9   6 C                                       1.3760369
     9   6 C       10   6 C                                       1.4086544
     2   7 N       11   6 C                                       1.3726839
    10   6 C       11   6 C                                       1.4095765
    12   6 C       13   1 H                                       1.0909474
    12   6 C       14   6 C                                       1.3653851
    14   6 C       15   1 H                                       1.0908094
     2   7 N       16   6 C                                       1.3723289
    17   6 C       18   6 C                                       1.4149930
    18   6 C       19   6 C                                       1.4064750
    19   6 C       20   6 C                                       1.3979442
    20   6 C       21   1 H                                       1.0979644
    20   6 C       22   6 C                                       1.3972400
    17   6 C       23   6 C                                       1.4159109
    22   6 C       23   6 C                                       1.4078411
    16   6 C       26   6 C                                       1.4100650
    24   7 N       27   6 C                                       1.3717176
    26   6 C       27   6 C                                       1.4126821
    28   6 C       29   1 H                                       1.0907817
    28   6 C       30   6 C                                       1.3673917
    30   6 C       31   1 H                                       1.0904043
    24   7 N       32   6 C                                       1.3740898
    30   6 C       32   6 C                                       1.4480510
    32   6 C       33   6 C                                       1.4080132
    25   7 N       34   6 C                                       1.3730679
    33   6 C       34   6 C                                       1.4077958
    35   6 C       36   1 H                                       1.0905920
    35   6 C       37   6 C                                       1.3657684
    37   6 C       38   1 H                                       1.0907973
     3   6 C       39   6 C                                       1.4107283
    25   7 N       39   6 C                                       1.3730812
    40   6 C       41   6 C                                       1.4165755
    41   6 C       42   6 C                                       1.4067866
    42   6 C       43   6 C                                       1.3982663
    43   6 C       44   1 H                                       1.0979374
    43   6 C       45   6 C                                       1.3980475
    40   6 C       46   6 C                                       1.4148508
    45   6 C       46   6 C                                       1.4076653
    49   6 C       50   6 C                                       1.4206272
    49   6 C       51   6 C                                       1.4229804
    50   6 C       52   6 C                                       1.4096129
    50   6 C       53   7 N                                       1.4182225
    51   6 C       54   6 C                                       1.4114637
    51   6 C       55   7 N                                       1.4154105
    52   6 C       56   1 H                                       1.0933891
    52   6 C       57   6 C                                       1.3980752
    54   6 C       57   6 C                                       1.3974377
    53   7 N       58   6 C                                       1.3773934
    53   7 N       59   1 H                                       1.0216151
    54   6 C       60   1 H                                       1.0928976
    55   7 N       61   6 C                                       1.3810120
    55   7 N       62   1 H                                       1.0243553
    57   6 C       63   1 H                                       1.0976797
    58   6 C       64   8 O                                       1.2263517
    61   6 C       66   8 O                                       1.2271936
    65   6 C       68   6 C                                       1.5075799
    65   6 C       69   1 H                                       1.0954452
    65   6 C       70   6 C                                       1.5332189
    68   6 C       70   6 C                                       1.5094753
    67   6 C       71   6 C                                       1.5084054
    67   6 C       72   1 H                                       1.0961103
    67   6 C       73   6 C                                       1.5346912
    71   6 C       73   6 C                                       1.5102892
    68   6 C       74   1 H                                       1.0929979
    68   6 C       75   1 H                                       1.0920239
    70   6 C       76   1 H                                       1.0928050
    71   6 C       78   1 H                                       1.0936808
    71   6 C       79   1 H                                       1.0935050
    73   6 C       80   1 H                                       1.0944625
    77   6 C       82   8 O                                       1.3447655
    77   6 C       83   8 O                                       1.2161253
    81   6 C       84   8 O                                       1.3513463
    81   6 C       85   8 O                                       1.2146418
    86   6 C       88   6 C                                       1.5351009
    86   6 C       89   6 C                                       1.5278611
    86   6 C       90   1 H                                       1.1046870
    87   6 C       91   6 C                                       1.5295171
    87   6 C       92   6 C                                       1.5328318
    87   6 C       93   1 H                                       1.1066423
    88   6 C       94   1 H                                       1.1023887
    88   6 C       95   1 H                                       1.0981130
    88   6 C       96   1 H                                       1.0987203
    89   6 C       97   1 H                                       1.0975788
    89   6 C       98   1 H                                       1.0982277
    89   6 C       99   1 H                                       1.0975032
    91   6 C      100   1 H                                       1.0977315
    91   6 C      101   1 H                                       1.1004309
    91   6 C      102   1 H                                       1.0986619
    92   6 C      103   1 H                                       1.0985157
    92   6 C      104   1 H                                       1.0989093
    92   6 C      105   1 H                                       1.1006892
   106   6 C      107   6 C                                       1.4212665
   106   6 C      108   6 C                                       1.4220978
   107   6 C      109   6 C                                       1.4089733
   107   6 C      110   7 N                                       1.4181612
   108   6 C      111   6 C                                       1.4110863
   108   6 C      112   7 N                                       1.4144055
   109   6 C      113   1 H                                       1.0937437
   109   6 C      114   6 C                                       1.3990469
   111   6 C      114   6 C                                       1.3980728
   110   7 N      115   6 C                                       1.3779765
   110   7 N      116   1 H                                       1.0213446 (min)
   111   6 C      117   1 H                                       1.0933167
   112   7 N      118   6 C                                       1.3805902
   112   7 N      119   1 H                                       1.0235665
   114   6 C      120   1 H                                       1.0977666
   115   6 C      121   8 O                                       1.2252058
   118   6 C      123   8 O                                       1.2268925
   122   6 C      125   6 C                                       1.5089333
   122   6 C      126   1 H                                       1.0954503
   122   6 C      127   6 C                                       1.5286708
   125   6 C      127   6 C                                       1.5108653
   124   6 C      128   6 C                                       1.5070722
   124   6 C      129   1 H                                       1.0963551
   124   6 C      130   6 C                                       1.5364139
   128   6 C      130   6 C                                       1.5094781
   125   6 C      131   1 H                                       1.0932265
   125   6 C      132   1 H                                       1.0925559
   127   6 C      133   1 H                                       1.0931550
   128   6 C      135   1 H                                       1.0931839
   128   6 C      136   1 H                                       1.0932685
   130   6 C      137   1 H                                       1.0943463
   134   6 C      139   8 O                                       1.3433293
   134   6 C      140   8 O                                       1.2173083
   138   6 C      141   8 O                                       1.3504267
   138   6 C      142   8 O                                       1.2146213
   143   6 C      145   6 C                                       1.5296583
   143   6 C      146   6 C                                       1.5313035
   143   6 C      147   1 H                                       1.1068211
   144   6 C      148   6 C                                       1.5340675
   144   6 C      149   6 C                                       1.5282450
   144   6 C      150   1 H                                       1.1051954
   145   6 C      151   1 H                                       1.0979620
   145   6 C      152   1 H                                       1.1006487
   145   6 C      153   1 H                                       1.0984543
   146   6 C      154   1 H                                       1.0975311
   146   6 C      155   1 H                                       1.0986402
   146   6 C      156   1 H                                       1.1009377
   148   6 C      157   1 H                                       1.1020882
   148   6 C      158   1 H                                       1.0987864
   148   6 C      159   1 H                                       1.0988454
   149   6 C      160   1 H                                       1.0991375
   149   6 C      161   1 H                                       1.0982718
   149   6 C      162   1 H                                       1.0979253
    19   6 C      163   1 H                                       1.0963487
    22   6 C      164   1 H                                       1.0961133
    42   6 C      165   1 H                                       1.0960712
    45   6 C      166   1 H                                       1.0964156
    18   6 C      167   8 O                                       1.3775660
    23   6 C      168   8 O                                       1.3750072
    41   6 C      169   8 O                                       1.3774668
    46   6 C      170   8 O                                       1.3755254
   167   8 O      171   6 C                                       1.3948676
   171   6 C      172   6 C                                       1.4015365
   171   6 C      173   6 C                                       1.4008458
   172   6 C      174   6 C                                       1.4007911
   172   6 C      175   1 H                                       1.0949152
   173   6 C      176   6 C                                       1.4011117
   173   6 C      177   1 H                                       1.0950568
   174   6 C      178   6 C                                       1.4008750
   176   6 C      178   6 C                                       1.4009139
   174   6 C      179   1 H                                       1.0960239
   176   6 C      180   1 H                                       1.0957618
   178   6 C      181   1 H                                       1.0982998
   168   8 O      182   6 C                                       1.3912372
   182   6 C      183   6 C                                       1.4023400
   182   6 C      184   6 C                                       1.4016828
   183   6 C      185   6 C                                       1.4002225
   183   6 C      186   1 H                                       1.0952600
   184   6 C      187   6 C                                       1.4004092
   184   6 C      188   1 H                                       1.0947931
   185   6 C      189   6 C                                       1.4008101
   187   6 C      189   6 C                                       1.4005899
   185   6 C      190   1 H                                       1.0956320
   187   6 C      191   1 H                                       1.0953798
   189   6 C      192   1 H                                       1.0979842
   169   8 O      193   6 C                                       1.3873729
   193   6 C      194   6 C                                       1.4041483
   193   6 C      195   6 C                                       1.4042639
   194   6 C      196   6 C                                       1.4009037
   194   6 C      197   1 H                                       1.0955279
   195   6 C      198   6 C                                       1.3983485
   195   6 C      199   1 H                                       1.0946742
   196   6 C      200   6 C                                       1.4011649
   198   6 C      200   6 C                                       1.4019538
   196   6 C      201   1 H                                       1.0974043
   198   6 C      202   1 H                                       1.0957623
   200   6 C      203   1 H                                       1.0978320
   170   8 O      204   6 C                                       1.3901190
   204   6 C      205   6 C                                       1.4024369
   204   6 C      206   6 C                                       1.4023608
   205   6 C      207   6 C                                       1.4002902
   205   6 C      208   1 H                                       1.0951064
   206   6 C      209   6 C                                       1.4002908
   206   6 C      210   1 H                                       1.0945670
   207   6 C      211   6 C                                       1.4006685
   209   6 C      211   6 C                                       1.4004908
   207   6 C      212   1 H                                       1.0954462
   209   6 C      213   1 H                                       1.0953389
   211   6 C      214   1 H                                       1.0980624
    47  26 Fe     215   7 N                                       1.6361725
   215   7 N      216   6 C                                       1.2967633
   216   6 C      217   6 C                                       1.4254917
   217   6 C      218   6 C                                       1.3702658
   218   6 C      219   6 C                                       1.3890672
   219   6 C      220   6 C                                       1.3868663
   216   6 C      221   6 C                                       1.4297932
   220   6 C      221   6 C                                       1.3768295
   224   6 C      225   6 C                                       1.3918340
   225   6 C      226   6 C                                       1.3832773
   226   6 C      227   7 N                                       1.3249033
   227   7 N      228   6 C                                       1.3152049
   228   6 C      229  17 Cl                                      1.7280341 (max)
   224   6 C      230   6 C                                       1.3894947
   228   6 C      230   6 C                                       1.3811422
   217   6 C      231   1 H                                       1.0773700
   218   6 C      232   1 H                                       1.0796909
   219   6 C      233   1 H                                       1.0770423
   220   6 C      234   1 H                                       1.0795765
   222   6 C      235   1 H                                       1.0920142
   222   6 C      236   1 H                                       1.0905733
   223   6 C      237   1 H                                       1.0900320
   223   6 C      238   1 H                                       1.0898332
   225   6 C      239   1 H                                       1.0777761
   226   6 C      240   1 H                                       1.0804477
   230   6 C      241   1 H                                       1.0766966

 * 7 distinct bonds (by element types)

   Z      Z             #   av. dist./Å        max./Å        min./Å
   1 H    6 C          95     1.0948237     1.1068211     1.0766966
   6 C    6 C          91     1.4286115     1.5364139     1.3653851
   1 H    7 N           4     1.0227204     1.0243553     1.0213446
   6 C    7 N          19     1.3739651     1.4182225     1.2967633
   6 C    8 O          20     1.3113685     1.3948676     1.2146213
   6 C   17 Cl          1     1.7280341     1.7280341     1.7280341
   7 N   26 Fe          1     1.6361725     1.6361725     1.6361725


optimized geometry written to: xtbopt.xyz


           -------------------------------------------------
          | TOTAL ENERGY             -399.389491489781 Eh   |
          | GRADIENT NORM               0.000186991564 Eh/α |
          | HOMO-LUMO GAP               0.105042469901 eV   |
           -------------------------------------------------

------------------------------------------------------------------------
 * finished run on 2026/07/31 at 15:24:31.554     
------------------------------------------------------------------------
 total:
 * wall-time:     0 d,  0 h,  1 min,  5.751 sec
 *  cpu-time:     0 d,  0 h,  2 min, 28.312 sec
 * ratio c/w:     2.256 speedup
 SCF:
 * wall-time:     0 d,  0 h,  0 min,  2.436 sec
 *  cpu-time:     0 d,  0 h,  0 min,  5.421 sec
 * ratio c/w:     2.225 speedup
 ANC optimizer:
 * wall-time:     0 d,  0 h,  1 min,  3.260 sec
 *  cpu-time:     0 d,  0 h,  2 min, 22.799 sec
 * ratio c/w:     2.257 speedup

