28

N      2.131057   -2.331523   -0.121213
C      2.692954   -1.021344   -0.157663
C      4.054765   -0.854718    0.121959
C      4.625722    0.420090    0.107801
C      3.837702    1.535830   -0.181292
C      2.477627    1.379527   -0.461877
C      1.893749    0.100597   -0.465871
C      0.416515   -0.040548   -0.739379
C     -0.380081   -0.004451    0.568295
C     -1.852950   -0.147880    0.294447
C     -2.441117   -1.422036    0.232894
C     -3.802797   -1.555529   -0.054617
C     -4.583637   -0.421123   -0.292242
C     -4.003031    0.850521   -0.246957
Br    -5.068434    2.399278   -0.584183
C     -2.640394    0.987585    0.040768
H      4.671309   -1.713979    0.354679
H      5.678619    0.543643    0.326089
H      4.280289    2.523568   -0.184684
H      1.878537    2.256393   -0.674814
H      0.216952   -0.992311   -1.278520
H      0.075496    0.783554   -1.404705
H     -0.187345    0.954925    1.097675
H     -0.041222   -0.824932    1.238666
H     -1.845224   -2.309799    0.405534
H     -4.252236   -2.539245   -0.096807
H     -5.637010   -0.531057   -0.515713
H     -2.195814    1.974963    0.064713
