28

N     -1.571068    2.688973    0.711228
C     -2.405805    1.559927    0.462040
C     -3.755472    1.764462    0.150514
C     -4.590225    0.675800   -0.112792
C     -4.079484   -0.622971   -0.070791
C     -2.733805   -0.837146    0.239436
C     -1.886470    0.248728    0.521383
C     -0.429540   -0.004553    0.821638
C      0.404580    0.058687   -0.461375
C      1.857737   -0.191506   -0.160298
C      2.705320    0.876745    0.176815
C      4.047250    0.639054    0.488879
C      4.549516   -0.665028    0.476587
C      3.709034   -1.736006    0.155913
Br     4.393487   -3.518970    0.151633
C      2.365405   -1.501455   -0.157135
H     -4.157727    2.768965    0.108308
H     -5.632479    0.839400   -0.354552
H     -4.726078   -1.464839   -0.282200
H     -2.351406   -1.850334    0.258487
H     -0.309871   -1.005203    1.293311
H     -0.054838    0.743048    1.554468
H      0.034393   -0.699749   -1.186310
H      0.286475    1.056468   -0.938760
H      2.326383    1.891097    0.199467
H      4.697357    1.465966    0.743932
H      5.589009   -0.842781    0.720468
H      1.718325   -2.336779   -0.395165
