28

N      1.961115   -2.203442    1.265597
C      2.607940   -1.011456    0.824674
C      3.933469   -0.772652    1.207330
C      4.584230    0.394787    0.801222
C      3.912194    1.332142    0.014356
C      2.589178    1.102517   -0.372765
C      1.927562   -0.075362    0.016412
C      0.488644   -0.286510   -0.385935
C     -0.457352    0.249968    0.692564
C     -1.892055    0.036490    0.291364
C     -2.550566   -1.158519    0.625309
C     -3.872836   -1.369598    0.223184
C     -4.542838   -0.395737   -0.522299
C     -3.889995    0.790950   -0.871303
Br    -4.802521    2.115705   -1.900757
C     -2.566570    1.005405   -0.470171
H      4.459369   -1.490895    1.823909
H      5.608475    0.575319    1.100953
H      4.415688    2.239529   -0.293314
H      2.079306    1.844237   -0.975282
H      0.294338   -1.367929   -0.556601
H      0.286057    0.232556   -1.349068
H     -0.268128    1.334886    0.850493
H     -0.257273   -0.263802    1.658702
H     -2.039644   -1.925415    1.194383
H     -4.377280   -2.290277    0.486549
H     -5.566032   -0.565597   -0.831879
H     -2.064475    1.922700   -0.752320
