28

N      2.311001   -2.120373   -0.306394
C      2.766194   -0.781647   -0.121359
C      4.109885   -0.556076    0.201277
C      4.576909    0.744942    0.402688
C      3.702458    1.827281    0.287352
C      2.359672    1.612155   -0.034530
C      1.880121    0.309026   -0.254703
C      0.419324    0.098418   -0.568815
C     -0.379427   -0.142183    0.715703
C     -1.835681   -0.354688    0.400950
C     -2.319756   -1.644086    0.124677
C     -3.665961   -1.835827   -0.200319
C     -4.534876   -0.742999   -0.261674
C     -4.058113    0.545986   -0.001974
Br    -5.243749    2.040117   -0.098365
C     -2.711241    0.741280    0.323827
H      4.792947   -1.390497    0.300184
H      5.616217    0.913814    0.653348
H      4.064505    2.834106    0.450881
H      1.692570    2.462037   -0.110809
H      0.297402   -0.765372   -1.258273
H      0.014309    0.990542   -1.096236
H     -0.264928    0.730162    1.396657
H      0.023155   -1.031720    1.248680
H     -1.654871   -2.498335    0.159333
H     -4.035060   -2.831813   -0.408287
H     -5.575744   -0.897710   -0.515207
H     -2.347261    1.743460    0.514325
