28

N      1.023572   -1.977837    0.379214
C      1.611863   -0.685178    0.507195
C      2.225036   -0.334139    1.715787
C      2.797540    0.929835    1.874450
C      2.758766    1.851242    0.826517
C      2.147978    1.511135   -0.383230
C      1.573746    0.240096   -0.559622
C      0.875095   -0.079670   -1.862191
C     -0.537300    0.520267   -1.914987
C     -1.444204   -0.090657   -0.877698
C     -2.079514   -1.317973   -1.128027
C     -2.879575   -1.909556   -0.145967
C     -3.043343   -1.286341    1.094137
C     -2.406800   -0.068753    1.355219
Br    -2.613197    0.772339    3.057057
C     -1.609659    0.528355    0.372948
H      2.254764   -1.040876    2.535669
H      3.268870    1.196331    2.811621
H      3.198573    2.832077    0.952984
H      2.116308    2.241337   -1.182551
H      1.468939    0.338769   -2.703891
H      0.825449   -1.176399   -2.034121
H     -0.483485    1.623182   -1.781109
H     -0.964130    0.343204   -2.926204
H     -1.948881   -1.818195   -2.079628
H     -3.367681   -2.855034   -0.344047
H     -3.659746   -1.751963    1.852294
H     -1.108985    1.464404    0.588182
