28

N      2.414602   -2.150625   -1.558673
C      2.355356   -0.926758   -0.829334
C      3.182793    0.136199   -1.211022
C      3.134555    1.349396   -0.520345
C      2.258871    1.507028    0.555436
C      1.431048    0.451257    0.945301
C      1.473308   -0.777329    0.262095
C      0.529815   -1.887305    0.666088
C     -0.722641   -1.925107   -0.221467
C     -1.547652   -0.671664   -0.076990
C     -2.430315   -0.526617    1.005738
C     -3.156542    0.656903    1.168159
C     -2.999896    1.706090    0.258353
C     -2.115535    1.574030   -0.816972
Br    -1.885216    3.015570   -2.047938
C     -1.391106    0.389218   -0.985154
H      3.861547    0.023851   -2.047223
H      3.774050    2.169035   -0.821494
H      2.217961    2.449906    1.085282
H      0.747482    0.595434    1.773010
H      1.052900   -2.865216    0.595362
H      0.227644   -1.771899    1.730469
H     -1.338709   -2.804846    0.065781
H     -0.429004   -2.075362   -1.283424
H     -2.550106   -1.326870    1.725526
H     -3.836511    0.763232    2.003480
H     -3.561102    2.621870    0.392382
H     -0.697595    0.300578   -1.812428
