28

N     -2.189240    1.951963    1.353622
C     -2.716498    0.773311    0.748309
C     -4.078805    0.720833    0.429178
C     -4.616461   -0.416373   -0.178290
C     -3.794542   -1.505501   -0.474386
C     -2.433686   -1.462555   -0.159442
C     -1.882863   -0.330192    0.465811
C     -0.404653   -0.293259    0.766615
C      0.366776    0.338741   -0.395860
C      1.840573    0.377347   -0.093640
C      2.396948    1.477581    0.579514
C      3.760141    1.497302    0.889308
C      4.574349    0.416788    0.539155
C      4.025785   -0.688951   -0.118607
Br     5.136997   -2.170402   -0.585476
C      2.661724   -0.711713   -0.430329
H     -4.721650    1.564209    0.648455
H     -5.669917   -0.451320   -0.424289
H     -4.211475   -2.382935   -0.951663
H     -1.808223   -2.312193   -0.404502
H     -0.029595   -1.325836    0.943282
H     -0.219041    0.280322    1.700908
H     -0.006120    1.370696   -0.578698
H      0.188361   -0.246014   -1.325389
H      1.775196    2.317156    0.865089
H      4.184934    2.349197    1.404381
H      5.628742    0.437343    0.782983
H      2.242242   -1.575546   -0.931294
