28

N     -2.529490    2.225574   -1.238350
C     -2.409225    1.041692   -0.452697
C     -3.219793    0.887695    0.678444
C     -3.112237   -0.257259    1.471364
C     -2.193770   -1.254492    1.138320
C     -1.382315   -1.110952    0.010102
C     -1.484061    0.034209   -0.799980
C     -0.558070    0.193720   -1.984265
C      0.659589    1.065600   -1.645209
C      1.524289    0.429961   -0.586486
C      2.449623   -0.567760   -0.933963
C      3.214331   -1.193727    0.054922
C      3.054179   -0.836076    1.396382
C      2.127784    0.149280    1.752363
Br     1.893361    0.622832    3.587344
C      1.364625    0.781074    0.764798
H     -3.931518    1.658520    0.946471
H     -3.738973   -0.369920    2.346556
H     -2.107016   -2.137934    1.757542
H     -0.665198   -1.887699   -0.225611
H     -1.110710    0.657263   -2.829633
H     -0.214116   -0.800836   -2.344943
H      0.323266    2.073445   -1.317054
H      1.260719    1.215750   -2.568296
H      2.573034   -0.863808   -1.968358
H      3.927066   -1.961096   -0.218167
H      3.645467   -1.327985    2.157942
H      0.639157    1.532929    1.050462
