28

N      1.158547   -1.885174   -0.659206
C      1.684369   -0.560232   -0.620842
C      2.378941   -0.072165   -1.734062
C      2.893255    1.226307   -1.730054
C      2.714594    2.045409   -0.613895
C      2.021691    1.568225    0.501634
C      1.504518    0.261029    0.514443
C      0.715125   -0.208483    1.715887
C     -0.727152    0.317707    1.692769
C     -1.507090   -0.237549    0.528700
C     -2.093769   -1.510839    0.613125
C     -2.773229   -2.046914   -0.484812
C     -2.863683   -1.321403   -1.675831
C     -2.274319   -0.056754   -1.771662
Br    -2.379429    0.925650   -3.405713
C     -1.598086    0.484662   -0.673296
H      2.517349   -0.698963   -2.606148
H      3.428037    1.598897   -2.594139
H      3.109560    3.053111   -0.614503
H      1.881839    2.220151    1.355182
H      0.710691   -1.317443    1.786775
H      1.210888    0.158584    2.640916
H     -0.722175    1.429541    1.660550
H     -1.228904    0.029396    2.642093
H     -2.018225   -2.089210    1.525602
H     -3.224336   -3.028221   -0.414455
H     -3.386510   -1.744064   -2.524106
H     -1.132498    1.458745   -0.760353
