34

C      5.585250   -0.997981   -0.226478
C      4.144282   -0.665142   -0.476584
C      3.737423    0.672781   -0.591055
C      2.388837    0.985553   -0.785876
C      1.429139   -0.035698   -0.865868
C     -0.027186    0.302932   -1.037172
C     -0.696343    0.509553    0.326290
C     -2.171647    0.798556    0.161587
C     -2.551938    2.113756   -0.163676
C     -3.893705    2.441772   -0.357758
C     -4.875996    1.461930   -0.235259
C     -4.520379    0.149684    0.078766
C     -3.173725   -0.203327    0.274029
S     -2.794064   -1.885753    0.684669
N     -2.203458   -1.966595    2.306194
O     -4.027380   -2.738620    0.579812
O     -1.759666   -2.428379   -0.259810
C      1.832783   -1.372143   -0.719264
C      3.181381   -1.684540   -0.524334
H      5.776354   -1.012216    0.866830
H      6.249401   -0.244366   -0.700849
H      5.836923   -1.993002   -0.651512
H      4.463468    1.473877   -0.526655
H      2.091622    2.023739   -0.868854
H     -0.127558    1.227509   -1.647483
H     -0.539562   -0.510740   -1.594492
H     -0.524350   -0.373620    0.973021
H     -0.210609    1.366341    0.843999
H     -1.803100    2.889451   -0.269708
H     -4.171866    3.458141   -0.605144
H     -5.916767    1.719117   -0.384581
H     -5.304346   -0.590378    0.170109
H      1.102776   -2.171372   -0.750619
H      3.474005   -2.720821   -0.407981
