34

C      4.770547   -0.970928    0.166861
C      3.466641   -0.242166    0.031215
C      2.534054   -0.261210    1.079130
C      1.333452    0.445592    0.967356
C      1.055774    1.193117   -0.188616
C     -0.256509    1.921386   -0.329730
C     -1.254601    1.154114   -1.212889
C     -1.749843   -0.114514   -0.547562
C     -0.968252   -1.277969   -0.682045
C     -1.335449   -2.463977   -0.047741
C     -2.492372   -2.511626    0.725219
C     -3.291502   -1.376022    0.859418
C     -2.939843   -0.168827    0.229839
S     -4.043580    1.211777    0.385967
N     -3.224463    2.571787    1.064774
O     -5.193333    0.857550    1.287148
O     -4.591254    1.573111   -0.965901
C      1.995719    1.222540   -1.230599
C      3.196980    0.516679   -1.117663
H      4.649641   -1.875606    0.800112
H      5.521542   -0.299856    0.633429
H      5.143177   -1.295991   -0.827895
H      2.733898   -0.827151    1.980651
H      0.616872    0.403280    1.778357
H     -0.067998    2.917193   -0.786720
H     -0.697910    2.109584    0.671275
H     -0.775105    0.906507   -2.185647
H     -2.097347    1.825542   -1.467396
H     -0.061106   -1.263853   -1.273937
H     -0.719500   -3.347584   -0.154451
H     -2.776104   -3.433666    1.216106
H     -4.192888   -1.447812    1.453370
H      1.796283    1.790712   -2.130788
H      3.914380    0.558288   -1.927966
