34

C      4.587169    0.799377    1.293955
C      3.418265    0.487252    0.407509
C      3.322696   -0.762815   -0.222306
C      2.213263   -1.069931   -1.015315
C      1.180487   -0.134163   -1.182147
C     -0.034771   -0.483695   -2.002721
C     -1.012991   -1.389711   -1.236375
C     -1.690926   -0.662178   -0.092506
C     -1.017128   -0.602213    1.142406
C     -1.557116    0.100274    2.218838
C     -2.781866    0.748375    2.084110
C     -3.475817    0.688784    0.875353
C     -2.949618   -0.012694   -0.223921
S     -3.923800   -0.106345   -1.704092
N     -3.045642    0.522420   -3.051249
O     -4.300985   -1.536744   -1.968182
O     -5.183994    0.697986   -1.547566
C      1.267535    1.108971   -0.534668
C      2.376349    1.414951    0.259310
H      5.499219    0.273492    0.939470
H      4.798273    1.890013    1.294292
H      4.361156    0.473822    2.330772
H      4.105259   -1.500972   -0.096963
H      2.153791   -2.040474   -1.492228
H     -0.550278    0.441988   -2.333775
H      0.293433   -1.012117   -2.924161
H     -1.758121   -1.794900   -1.948001
H     -0.468404   -2.278223   -0.847233
H     -0.060389   -1.094078    1.269570
H     -1.022746    0.143721    3.159105
H     -3.199735    1.292481    2.921346
H     -4.432677    1.188768    0.805634
H      0.469694    1.834923   -0.631961
H      2.420418    2.373656    0.761222
