34

C      5.619092   -0.643638    0.676996
C      4.187770   -0.372315    0.320030
C      3.696621    0.942008    0.318301
C      2.353253    1.192439    0.023151
C      1.482876    0.131260   -0.271329
C      0.028423    0.397825   -0.551343
C     -0.780132    0.396115    0.750857
C     -2.250419    0.611509    0.469730
C     -2.693601    1.930485    0.259825
C     -4.031390    2.196315   -0.032163
C     -4.946377    1.150212   -0.124126
C     -4.526845   -0.165996    0.072479
C     -3.182485   -0.456430    0.363280
S     -2.721089   -2.149608    0.615456
N     -2.282300   -2.389773    2.269083
O     -1.564948   -2.509047   -0.273703
O     -3.873085   -3.057832    0.287615
C      1.967683   -1.185691   -0.238008
C      3.311023   -1.435762    0.057301
H      5.706363   -0.778504    1.775288
H      5.982122   -1.562398    0.168912
H      6.268136    0.201381    0.362760
H      4.352637    1.772575    0.548178
H      1.989943    2.212743    0.029495
H     -0.367879   -0.372318   -1.247778
H     -0.081213    1.381592   -1.058867
H     -0.409707    1.212151    1.410340
H     -0.605852   -0.546623    1.306474
H     -1.996978    2.757958    0.320718
H     -4.358641    3.216089   -0.188838
H     -5.984379    1.358989   -0.349094
H     -5.259564   -0.958552   -0.002463
H      1.304467   -2.018657   -0.435423
H      3.666473   -2.458505    0.083692
