34

C      5.673315    0.034333   -0.057842
C      4.193697    0.124506   -0.286579
C      3.550610    1.371441   -0.270197
C      2.165979    1.453143   -0.445095
C      1.406061    0.288442   -0.635798
C     -0.088989    0.373610   -0.785698
C     -0.772014    0.318225    0.585396
C     -2.276696    0.350729    0.436917
C     -2.891478    1.601342    0.241517
C     -4.272152    1.699102    0.068935
C     -5.059921    0.550541    0.083659
C     -4.470042   -0.700517    0.267948
C     -3.080032   -0.821968    0.439248
S     -2.398690   -2.440540    0.682812
N     -1.788432   -2.575237    2.293445
O     -3.458370   -3.487488    0.481756
O     -1.291888   -2.689829   -0.301721
C      2.046012   -0.960847   -0.620086
C      3.430587   -1.042192   -0.445042
H      6.185903    0.939298   -0.448164
H      6.096867   -0.851088   -0.578127
H      5.873806   -0.054623    1.030247
H      4.120400    2.280058   -0.119209
H      1.685206    2.423484   -0.426393
H     -0.360436    1.321200   -1.301242
H     -0.450864   -0.459312   -1.426389
H     -0.437274   -0.579548    1.141983
H     -0.444506    1.192490    1.190746
H     -2.296240    2.506304    0.220585
H     -4.731748    2.668003   -0.077972
H     -6.131358    0.628943   -0.048718
H     -5.106405   -1.575497    0.277509
H      1.472288   -1.871664   -0.738043
H      3.906804   -2.014841   -0.430387
