34

C     -5.595781   -0.345248   -0.860373
C     -4.180879   -0.238064   -0.374274
C     -3.321575   -1.344597   -0.450524
C     -1.991866   -1.234896   -0.033216
C     -1.503289   -0.016039    0.462955
C     -0.061816    0.112202    0.876001
C      0.804682    0.534408   -0.315810
C      2.261687    0.613934    0.081665
C      2.700562    1.775917    0.742991
C      4.024926    1.901796    1.162293
C      4.930359    0.868597    0.932772
C      4.514522   -0.295722    0.285852
C      3.183434   -0.445032   -0.140918
S      2.726680   -1.944568   -0.969225
N      2.361987   -1.604115   -2.623248
O      1.530044   -2.560622   -0.302139
O      3.858814   -2.932170   -0.920632
C     -2.354809    1.098941    0.508859
C     -3.684551    0.988853    0.091567
H     -5.985396   -1.374357   -0.708077
H     -6.254670    0.356565   -0.305950
H     -5.633929   -0.099854   -1.942211
H     -3.679954   -2.291395   -0.835467
H     -1.341909   -2.098327   -0.101783
H      0.029061    0.864667    1.690208
H      0.299301   -0.855298    1.286776
H      0.467898    1.532092   -0.675325
H      0.651631   -0.162015   -1.163989
H      2.010933    2.588662    0.936797
H      4.349117    2.802382    1.667689
H      5.958028    0.969174    1.257469
H      5.239726   -1.081039    0.118532
H     -1.987112    2.054330    0.862529
H     -4.325858    1.860840    0.129089
