      -----------------------------------------------------------      
     |                   =====================                   |     
     |                           x T B                           |     
     |                   =====================                   |     
     |                         S. Grimme                         |     
     |          Mulliken Center for Theoretical Chemistry        |     
     |                    University of Bonn                     |     
      -----------------------------------------------------------      

   * xtb version 6.7.1 (edcfbbe) compiled by 'runner@sat12-gn217-0cbadaec-b866-44ae-a866-732403219ae3-6E01A8DFFD18.local' on 2026-06-10

   xtb is free software: you can redistribute it and/or modify it under
   the terms of the GNU Lesser General Public License as published by
   the Free Software Foundation, either version 3 of the License, or
   (at your option) any later version.
   
   xtb is distributed in the hope that it will be useful,
   but WITHOUT ANY WARRANTY; without even the implied warranty of
   MERCHANTABILITY or FITNESS FOR A PARTICULAR PURPOSE.  See the
   GNU Lesser General Public License for more details.
   
   Cite this work as:
   * C. Bannwarth, E. Caldeweyher, S. Ehlert, A. Hansen, P. Pracht,
     J. Seibert, S. Spicher, S. Grimme, WIREs Comput. Mol. Sci., 2020, 11,
     e01493. DOI: 10.1002/wcms.1493
   
   for GFN2-xTB:
   * C. Bannwarth, S. Ehlert and S. Grimme., J. Chem. Theory Comput., 2019,
     15, 1652-1671. DOI: 10.1021/acs.jctc.8b01176
   for GFN1-xTB:
   * S. Grimme, C. Bannwarth, P. Shushkov, J. Chem. Theory Comput., 2017,
     13, 1989-2009. DOI: 10.1021/acs.jctc.7b00118
   for GFN0-xTB:
   * P. Pracht, E. Caldeweyher, S. Ehlert, S. Grimme, ChemRxiv, 2019, preprint.
     DOI: 10.26434/chemrxiv.8326202.v1
   for GFN-FF:
   * S. Spicher and S. Grimme, Angew. Chem. Int. Ed., 2020, 59, 15665-15673.
     DOI: 10.1002/anie.202004239
   
   for ALPB and GBSA implicit solvation:
   * S. Ehlert, M. Stahn, S. Spicher, S. Grimme, J. Chem. Theory Comput.,
     2021, 17, 4250-4261. DOI: 10.1021/acs.jctc.1c00471
   
   for ddCOSMO and CPCM-X implicit solvation:
   * M. Stahn, S. Ehlert, S. Grimme, J. Phys. Chem. A,
     2023, XX, XXXX-XXXX. DOI: 10.1021/acs.jpca.3c04382
   
   for DFT-D4:
   * E. Caldeweyher, C. Bannwarth and S. Grimme, J. Chem. Phys., 2017,
     147, 034112. DOI: 10.1063/1.4993215
   * E. Caldeweyher, S. Ehlert, A. Hansen, H. Neugebauer, S. Spicher,
     C. Bannwarth and S. Grimme, J. Chem. Phys., 2019, 150, 154122.
     DOI: 10.1063/1.5090222
   * E. Caldeweyher, J.-M. Mewes, S. Ehlert and S. Grimme, Phys. Chem. Chem. Phys.
     2020, 22, 8499-8512. DOI: 10.1039/D0CP00502A
   
   for sTDA-xTB:
   * S. Grimme and C. Bannwarth, J. Chem. Phys., 2016, 145, 054103.
     DOI: 10.1063/1.4959605
   
   in the mass-spec context:
   * V. Asgeirsson, C. Bauer and S. Grimme, Chem. Sci., 2017, 8, 4879.
     DOI: 10.1039/c7sc00601b
   * J. Koopman and S. Grimme, ACS Omega 2019, 4, 12, 15120-15133.
     DOI: 10.1021/acsomega.9b02011
   
   for metadynamics refer to:
   * S. Grimme, J. Chem. Theory Comput., 2019, 155, 2847-2862
     DOI: 10.1021/acs.jctc.9b00143
   
   for SPH calculations refer to:
   * S. Spicher and S. Grimme, J. Chem. Theory Comput., 2021, 17, 1701-1714
     DOI: 10.1021/acs.jctc.0c01306
   
   for ONIOM refer to:
   * C. Plett, A. Katbashev, S. Ehlert, S. Grimme, M. Bursch,
     Phys. Chem. Chem. Phys., 2023, 25, 17860-17868. DOI: 10.1039/D3CP02178E
   
   for DIPRO refer to:
   * J. Kohn, N. Gildemeister, S. Grimme, D. Fazzi, A. Hansen,
     J. Chem. Phys., 2023, just accepted.
   
   for PTB refer to:
   * S. Grimme, M. Mueller, A. Hansen, J. Chem. Phys., 2023, 158, 124111.
     DOI: 10.1063/5.0137838
   
   with help from (in alphabetical order)
   P. Atkinson, C. Bannwarth, F. Bohle, G. Brandenburg, E. Caldeweyher
   M. Checinski, S. Dohm, S. Ehlert, S. Ehrlich, I. Gerasimov, C. Hölzer
   A. Katbashev, J. Kohn, J. Koopman, C. Lavigne, S. Lehtola, F. März, M. Müller,
   F. Musil, H. Neugebauer, J. Pisarek, C. Plett, P. Pracht, F. Pultar,
   J. Seibert, P. Shushkov, S. Spicher, M. Stahn, M. Steiner, T. Strunk,
   J. Stückrath, T. Rose, and J. Unsleber
   
 * started run on 2026/09/07 at 18:12:01.111     
   ID    Z sym.   atoms
    1    7 N      1, 2, 24, 25, 53, 55, 110, 112, 215
    2    6 C      3-5, 7, 9-12, 14, 16-20, 22, 23, 26-28, 30, 32-35, 37,
                  39-43, 45, 46, 49-52, 54, 57, 58, 61, 65, 67, 68, 70, 71,
                  73, 77, 81, 86-89, 91, 92, 106-109, 111, 114, 115, 118,
                  122, 124, 125, 127, 128, 130, 134, 138, 143-146, 148, 149,
                  171-174, 176, 178, 182-185, 187, 189, 193-196, 198, 200,
                  204-207, 209, 211, 216-229
    3    1 H      6, 8, 13, 15, 21, 29, 31, 36, 38, 44, 56, 59, 60, 62, 63,
                  69, 72, 74-76, 78-80, 90, 93-105, 113, 116, 117, 119, 120,
                  126, 129, 131-133, 135-137, 147, 150-166, 175, 177,
                  179-181, 186, 188, 190-192, 197, 199, 201-203, 208, 210,
                  212-214, 230-242
    4   26 Fe     47
    5   17 Cl     48
    6    8 O      64, 66, 82-85, 121, 123, 139-142, 167-170

           -------------------------------------------------
          |                Calculation Setup                |
           -------------------------------------------------

          program call               : /Users/haywoodau3/Documents/genaisubstrate/.chem-env/bin/xtb gfnff-optimized.xyz --gfn 2 --alpb ether
          coordinate file            : gfnff-optimized.xyz
          omp threads                :                     1


molecular fragmentation (1/2 indicates fragments):
111111111111111111111111111111112112121222222211111111111111111111111111
111111111111111111111111111111111111111111111111111111111112111111111111
111111111111111111112211221111111111111111111111222222222222222222222211
11111111111111111111111111
# atoms in fragment 1/2:   205    37
 fragment masses (1/2) :     1668.04      276.33
CMA distance (Bohr)    :  12.153
constraining FC (au)   :  0.0500

           -------------------------------------------------
          |                 G F N 2 - x T B                 |
           -------------------------------------------------

        Reference                      10.1021/acs.jctc.8b01176
      * Hamiltonian:
        H0-scaling (s, p, d)           1.850000    2.230000    2.230000
        zeta-weighting                 0.500000
      * Dispersion:
        s8                             2.700000
        a1                             0.520000
        a2                             5.000000
        s9                             5.000000
      * Repulsion:
        kExp                           1.500000    1.000000
        rExp                           1.000000
      * Coulomb:
        alpha                          2.000000
        third order                    shell-resolved
        anisotropic                    true
        a3                             3.000000
        a5                             4.000000
        cn-shift                       1.200000
        cn-exp                         4.000000
        max-rad                        5.000000

      * Solvation model:               ALPB
        Solvent                        ether
        Parameter file                 internal GFN2-xTB/ALPB
        Dielectric constant                4.3300E+00
        Reference state                gsolv [1 M gas/solution]
        Free energy shift                  4.9534E-03 Eh       3.1083E+00 kcal/mol
        Temperature                        2.9815E+02 K
        Density                            7.1300E-01 kg/L
        Solvent mass                       7.4120E+01 g/mol
        Interaction kernel             P16
        Born radius scaling (c1)           1.5847E+00
        Born radii integrator          GBOBC
        Born offset                        0.0000E+00 a0       0.0000E+00 AA
        H-bond correction              true
        Ion screening                  false
        Surface tension                    1.0000E-05 Eh       1.5569E+01 dyn/cm
        Grid points                               230 per atom

          ...................................................
          :                      SETUP                      :
          :.................................................:
          :  # basis functions                 677          :
          :  # atomic orbitals                 675          :
          :  # shells                          385          :
          :  # electrons                       713          :
          :  max. iterations                   250          :
          :  Hamiltonian                  GFN2-xTB          :
          :  restarted?                      false          :
          :  GBSA solvation                   true          :
          :  PC potential                    false          :
          :  electronic temp.          300.0000000     K    :
          :  accuracy                    1.0000000          :
          :  -> integral cutoff          0.2500000E+02      :
          :  -> integral neglect         0.1000000E-07      :
          :  -> SCF convergence          0.1000000E-05 Eh   :
          :  -> wf. convergence          0.1000000E-03 e    :
          :  Broyden damping             0.4000000          :
          :  net charge                          0          :
          :  unpaired electrons                  0          :
          ...................................................

 iter      E             dE          RMSdq      gap      omega  full diag
   1   -396.4439346 -0.396444E+03  0.505E+00    0.18       0.0  T
   2   -388.7354908  0.770844E+01  0.583E+00    0.33       1.0  T
   3   -390.1168842 -0.138139E+01  0.502E+00    0.07       1.0  T
   4   -396.1239984 -0.600711E+01  0.291E+00    0.07       1.0  T
   5   -392.9750582  0.314894E+01  0.325E+00    0.24       1.0  T
   6   -396.4571476 -0.348209E+01  0.243E+00    0.09       1.0  T
   7   -397.4477029 -0.990555E+00  0.172E+00    0.08       1.0  T
   8   -397.8485623 -0.400859E+00  0.128E+00    0.10       1.0  T
   9   -397.6326705  0.215892E+00  0.146E+00    0.03       1.0  T
  10   -397.8408044 -0.208134E+00  0.140E+00    0.05       1.0  T
  11   -398.1534129 -0.312608E+00  0.966E-01    0.05       1.0  T
  12   -397.5284551  0.624958E+00  0.156E+00    0.14       1.0  T
  13   -397.9578034 -0.429348E+00  0.106E+00    0.05       1.0  T
  14   -397.8371749  0.120628E+00  0.114E+00    0.03       1.0  T
  15   -398.0710631 -0.233888E+00  0.813E-01    0.03       1.0  T
  16   -398.2191118 -0.148049E+00  0.558E-01    0.02       1.0  T
  17   -398.2538164 -0.347046E-01  0.434E-01    0.03       1.0  T
  18   -398.2641093 -0.102929E-01  0.413E-01    0.03       1.0  T
  19   -398.2730124 -0.890317E-02  0.374E-01    0.01       1.0  T
  20   -398.3034420 -0.304295E-01  0.221E-01    0.01       1.0  T
  21   -398.2986180  0.482390E-02  0.254E-01    0.01       1.0  T
  22   -398.3072297 -0.861165E-02  0.173E-01    0.01       1.0  T
  23   -398.3045165  0.271324E-02  0.192E-01    0.01       1.0  T
  24   -398.3127446 -0.822813E-02  0.122E-01    0.01       1.0  T
  25   -398.3180483 -0.530367E-02  0.358E-02    0.01       1.0  T
  26   -398.3172648  0.783489E-03  0.548E-02    0.01       1.0  T
  27   -398.3183747 -0.110994E-02  0.152E-02    0.01       1.0  T
  28   -398.3183660  0.869774E-05  0.153E-02    0.01       1.0  T
  29   -398.3183692 -0.316961E-05  0.129E-02    0.01       1.0  T
  30   -398.3183396  0.295459E-04  0.168E-02    0.01       1.0  T
  31   -398.3183972 -0.575643E-04  0.997E-03    0.01       1.0  T
  32   -398.3184110 -0.138497E-04  0.770E-03    0.01       1.0  T
  33   -398.3184109  0.165871E-06  0.766E-03    0.01       1.0  T
  34   -398.3184264 -0.155653E-04  0.261E-03    0.01       2.5  T
  35   -398.3184274 -0.942747E-06  0.169E-03    0.01       3.8  T
  36   -398.3184275 -0.116659E-06  0.161E-03    0.01       4.0  T
  37   -398.3184275 -0.783308E-08  0.155E-03    0.01       4.1  T
  38   -398.3184282 -0.684962E-06  0.418E-04    0.01      15.4  T
  39   -398.3184282 -0.196874E-07  0.359E-04    0.01      17.9  T

   *** convergence criteria satisfied after 39 iterations ***

         #    Occupation            Energy/Eh            Energy/eV
      -------------------------------------------------------------
         1        2.0000           -1.0245028             -27.8781
       ...           ...                  ...                  ...
       351        2.0000           -0.3216553              -8.7527
       352        2.0000           -0.3153111              -8.5801
       353        1.9997           -0.3128843              -8.5140
       354        1.9411           -0.3078231              -8.3763
       355        1.6270           -0.3058589              -8.3228
       356        1.3139           -0.3050287              -8.3003
       357        1.1761           -0.3047274              -8.2921 (HOMO)
       358        0.9373           -0.3042314              -8.2786 (LUMO)
       359        0.0044           -0.2984010              -8.1199
       360        0.0005           -0.2963258              -8.0634
       361        0.0000           -0.2918598              -7.9419
       362        0.0000           -0.2899114              -7.8889
       ...           ...                  ...                  ...
       675                         40.5517395            1103.4690
      -------------------------------------------------------------
                  HL-Gap            0.0004960 Eh            0.0135 eV
             Fermi-level           -0.3043608 Eh           -8.2821 eV

 SCC (total)                   0 d,  0 h,  0 min,  3.234 sec
 SCC setup                      ...        0 min,  0.006 sec (  0.193%)
 Dispersion                     ...        0 min,  0.005 sec (  0.143%)
 classical contributions        ...        0 min,  0.001 sec (  0.040%)
 integral evaluation            ...        0 min,  0.048 sec (  1.494%)
 iterations                     ...        0 min,  2.710 sec ( 83.793%)
 molecular gradient             ...        0 min,  0.417 sec ( 12.893%)
 printout                       ...        0 min,  0.047 sec (  1.443%)

         :::::::::::::::::::::::::::::::::::::::::::::::::::::
         ::                     SUMMARY                     ::
         :::::::::::::::::::::::::::::::::::::::::::::::::::::
         :: total energy            -386.792481813217 Eh    ::
         :: total w/o Gsasa/hb      -386.679100209346 Eh    ::
         :: gradient norm             15.216297026371 Eh/a0 ::
         :: HOMO-LUMO gap              0.013498101954 eV    ::
         ::.................................................::
         :: SCC energy              -398.295969828767 Eh    ::
         :: -> isotropic ES            0.494633015144 Eh    ::
         :: -> anisotropic ES          0.019845323081 Eh    ::
         :: -> anisotropic XC          0.170977354930 Eh    ::
         :: -> dispersion             -0.362614278950 Eh    ::
         :: -> Gsolv                  -0.175188085430 Eh    ::
         ::    -> Gelec               -0.061806481559 Eh    ::
         ::    -> Gsasa               -0.111515875883 Eh    ::
         ::    -> Ghb                 -0.006819165566 Eh    ::
         ::    -> Gshift               0.004953437577 Eh    ::
         :: repulsion energy          11.503488015550 Eh    ::
         :: add. restraining           0.000000000000 Eh    ::
         :: total charge               0.000000000019 e     ::
         :::::::::::::::::::::::::::::::::::::::::::::::::::::

           -------------------------------------------------
          |                Property Printout                |
           -------------------------------------------------

    * Orbital Energies and Occupations

         #    Occupation            Energy/Eh            Energy/eV
      -------------------------------------------------------------
         1        2.0000           -1.0245028             -27.8781
       ...           ...                  ...                  ...
       345        2.0000           -0.3601929              -9.8013
       346        2.0000           -0.3593672              -9.7789
       347        2.0000           -0.3435024              -9.3472
       348        2.0000           -0.3401721              -9.2566
       349        2.0000           -0.3313758              -9.0172
       350        2.0000           -0.3270371              -8.8991
       351        2.0000           -0.3216553              -8.7527
       352        2.0000           -0.3153111              -8.5801
       353        1.9997           -0.3128843              -8.5140
       354        1.9411           -0.3078231              -8.3763
       355        1.6270           -0.3058589              -8.3228
       356        1.3139           -0.3050287              -8.3003
       357        1.1761           -0.3047274              -8.2921 (HOMO)
       358        0.9373           -0.3042314              -8.2786 (LUMO)
       359        0.0044           -0.2984010              -8.1199
       360        0.0005           -0.2963258              -8.0634
       361        0.0000           -0.2918598              -7.9419
       362        0.0000           -0.2899114              -7.8889
       363                         -0.2820182              -7.6741
       364                         -0.2770888              -7.5400
       365                         -0.2705791              -7.3628
       366                         -0.2596128              -7.0644
       367                         -0.2587208              -7.0402
       368                         -0.2575420              -7.0081
       ...                                ...                  ...
       675                         40.5517395            1103.4690
      -------------------------------------------------------------
                  HL-Gap            0.0004960 Eh            0.0135 eV
             Fermi-level           -0.3043608 Eh           -8.2821 eV

     #   Z          covCN         q      C6AA      α(0)
     1   7 N        2.576    -0.253    26.607     7.661
     2   7 N        2.601    -0.142    24.084     7.288
     3   6 C        2.733     0.107    25.617     8.286
     4   6 C        2.530     0.075    26.416     8.398
     5   6 C        2.413    -0.137    32.174     9.247
     6   1 H        0.915     0.076     2.024     2.225
     7   6 C        2.907    -0.028    28.691     8.783
     8   1 H        0.703     0.047     2.514     2.519
     9   6 C        3.135     0.185    23.851     7.994
    10   6 C        2.934    -0.093    30.328     9.032
    11   6 C        3.415     0.141    21.177     7.065
    12   6 C        2.923    -0.106    30.669     9.082
    13   1 H        0.930     0.059     2.214     2.327
    14   6 C        3.065    -0.072    29.733     8.941
    15   1 H        0.925     0.028     2.610     2.526
    16   6 C        3.269     0.048    25.692     8.176
    17   6 C        2.953    -0.021    28.521     8.759
    18   6 C        2.890     0.131    25.137     8.220
    19   6 C        2.897    -0.064    29.598     8.920
    20   6 C        2.918    -0.021    28.522     8.758
    21   1 H        0.903     0.020     2.740     2.590
    22   6 C        2.859    -0.109    30.746     9.089
    23   6 C        2.847     0.150    24.746     8.153
    24   7 N        2.425    -0.307    28.001     7.858
    25   7 N        2.603     0.021    20.897     6.789
    26   6 C        2.943    -0.036    28.893     8.816
    27   6 C        3.602     0.087    19.678     6.415
    28   6 C        3.382    -0.111    26.983     8.085
    29   1 H        0.927     0.073     2.051     2.239
    30   6 C        2.739    -0.104    30.611     9.059
    31   1 H        0.926     0.085     1.930     2.172
    32   6 C        3.854     0.241    16.851     5.838
    33   6 C        2.018    -0.201    36.863     9.806
    34   6 C        2.947     0.340    21.240     7.559
    35   6 C        3.406    -0.042    24.871     7.684
    36   1 H        0.439     0.012     5.190     3.999
    37   6 C        1.714    -0.173    36.387     9.765
    38   1 H        0.249     0.105     4.178     3.721
    39   6 C        3.079    -0.318    36.840     9.951
    40   6 C        2.964     0.024    27.456     8.595
    41   6 C        2.923     0.110    25.578     8.294
    42   6 C        2.886    -0.102    30.577     9.066
    43   6 C        2.907    -0.035    28.863     8.809
    44   1 H        0.916     0.029     2.606     2.525
    45   6 C        2.902    -0.062    29.545     8.912
    46   6 C        2.890     0.135    25.053     8.206
    47  26 Fe       4.074     0.565     5.144     7.316
    48  17 Cl       0.797    -0.483   114.993    16.404
    49   6 C        2.974    -0.042    29.026     8.837
    50   6 C        2.888     0.077    26.286     8.406
    51   6 C        2.888     0.082    26.180     8.389
    52   6 C        2.905    -0.054    29.346     8.882
    53   7 N        2.689    -0.164    24.553     7.359
    54   6 C        2.904    -0.052    29.282     8.873
    55   7 N        2.688    -0.155    24.353     7.329
    56   1 H        0.921     0.074     2.042     2.235
    57   6 C        2.904    -0.043    29.074     8.841
    58   6 C        2.746     0.275    22.348     7.741
    59   1 H        0.859     0.193     1.142     1.674
    60   1 H        0.920     0.076     2.019     2.222
    61   6 C        2.748     0.272    22.408     7.751
    62   1 H        0.859     0.200     1.106     1.648
    63   1 H        0.928     0.068     2.108     2.270
    64   8 O        0.857    -0.463    22.977     6.427
    65   6 C        3.855    -0.038    21.221     6.552
    66   8 O        0.856    -0.472    23.173     6.454
    67   6 C        3.854    -0.035    21.153     6.541
    68   6 C        3.800    -0.047    21.417     6.589
    69   1 H        0.923     0.061     2.191     2.315
    70   6 C        3.854    -0.039    21.232     6.553
    71   6 C        3.800    -0.049    21.450     6.594
    72   1 H        0.922     0.070     2.085     2.258
    73   6 C        3.854    -0.040    21.256     6.557
    74   1 H        0.923     0.078     2.004     2.214
    75   1 H        0.924     0.070     2.084     2.257
    76   1 H        0.923     0.083     1.948     2.183
    77   6 C        2.702     0.352    21.028     7.505
    78   1 H        0.923     0.076     2.026     2.226
    79   1 H        0.923     0.091     1.869     2.138
    80   1 H        0.923     0.084     1.941     2.179
    81   6 C        2.701     0.357    20.943     7.490
    82   8 O        1.699    -0.285    18.742     5.845
    83   8 O        0.856    -0.469    23.113     6.446
    84   8 O        1.699    -0.304    19.062     5.895
    85   8 O        0.856    -0.442    22.543     6.366
    86   6 C        3.727     0.119    18.726     6.178
    87   6 C        3.729     0.122    18.680     6.170
    88   6 C        3.742    -0.115    22.777     6.809
    89   6 C        3.742    -0.121    22.904     6.828
    90   1 H        0.921     0.054     2.271     2.357
    91   6 C        3.742    -0.118    22.845     6.819
    92   6 C        3.742    -0.116    22.799     6.812
    93   1 H        0.921     0.045     2.390     2.418
    94   1 H        0.922     0.047     2.358     2.402
    95   1 H        0.922     0.058     2.223     2.332
    96   1 H        0.922     0.060     2.197     2.318
    97   1 H        0.922     0.056     2.242     2.342
    98   1 H        0.922     0.063     2.168     2.303
    99   1 H        0.922     0.063     2.160     2.298
   100   1 H        0.922     0.053     2.280     2.362
   101   1 H        0.922     0.063     2.167     2.302
   102   1 H        0.922     0.059     2.209     2.325
   103   1 H        0.922     0.048     2.342     2.393
   104   1 H        0.922     0.058     2.220     2.330
   105   1 H        0.922     0.057     2.239     2.340
   106   6 C        2.923    -0.061    29.528     8.911
   107   6 C        2.880     0.099    25.794     8.326
   108   6 C        2.887     0.078    26.258     8.401
   109   6 C        2.913    -0.073    29.811     8.953
   110   7 N        2.697    -0.144    24.123     7.295
   111   6 C        2.910    -0.043    29.058     8.839
   112   7 N        2.699    -0.179    24.867     7.406
   113   1 H        0.923     0.067     2.115     2.274
   114   6 C        2.905    -0.040    28.999     8.830
   115   6 C        2.786     0.262    22.582     7.784
   116   1 H        0.857     0.210     1.056     1.610
   117   1 H        0.910     0.068     2.106     2.270
   118   6 C        2.749     0.286    22.150     7.706
   119   1 H        0.862     0.208     1.064     1.616
   120   1 H        0.927     0.066     2.128     2.281
   121   8 O        0.857    -0.325    20.241     6.032
   122   6 C        3.804    -0.046    21.389     6.584
   123   8 O        0.858    -0.495    23.683     6.525
   124   6 C        3.853    -0.042    21.295     6.563
   125   6 C        3.249     0.135    24.130     7.953
   126   1 H        0.877     0.077     2.020     2.225
   127   6 C        3.762     0.019    20.303     6.423
   128   6 C        3.794    -0.050    21.479     6.600
   129   1 H        0.911     0.056     2.248     2.345
   130   6 C        3.844    -0.041    21.278     6.562
   131   1 H        0.636    -0.091     5.992     3.950
   132   1 H        0.577    -0.152     9.831     5.170
   133   1 H        0.851     0.045     2.404     2.430
   134   6 C        2.698     0.108    25.591     8.280
   135   1 H        0.919     0.070     2.087     2.260
   136   1 H        0.927     0.092     1.864     2.135
   137   1 H        0.918     0.075     2.027     2.227
   138   6 C        2.703     0.366    20.796     7.464
   139   8 O        1.694    -0.252    18.179     5.756
   140   8 O        2.634    -0.070    15.385     5.297
   141   8 O        1.696    -0.305    19.086     5.898
   142   8 O        0.856    -0.435    22.396     6.345
   143   6 C        3.734     0.062    19.617     6.321
   144   6 C        3.728     0.118    18.749     6.182
   145   6 C        3.742    -0.127    23.006     6.843
   146   6 C        3.742    -0.126    23.001     6.842
   147   1 H        1.122     0.124     1.573     1.958
   148   6 C        3.742    -0.114    22.767     6.807
   149   6 C        3.742    -0.120    22.882     6.824
   150   1 H        0.923     0.051     2.302     2.373
   151   1 H        0.922     0.061     2.193     2.316
   152   1 H        0.922     0.063     2.160     2.299
   153   1 H        0.922     0.065     2.138     2.287
   154   1 H        0.922     0.043     2.412     2.429
   155   1 H        0.922     0.063     2.165     2.301
   156   1 H        0.922     0.066     2.135     2.285
   157   1 H        0.922     0.049     2.333     2.389
   158   1 H        0.922     0.059     2.215     2.328
   159   1 H        0.921     0.057     2.232     2.336
   160   1 H        0.922     0.057     2.240     2.340
   161   1 H        0.921     0.060     2.198     2.319
   162   1 H        0.922     0.064     2.154     2.295
   163   1 H        0.921     0.041     2.432     2.439
   164   1 H        0.930     0.062     2.177     2.307
   165   1 H        0.929     0.059     2.212     2.326
   166   1 H        0.923     0.042     2.426     2.436
   167   8 O        1.697    -0.306    19.106     5.901
   168   8 O        1.711    -0.176    16.951     5.559
   169   8 O        1.717    -0.182    17.044     5.574
   170   8 O        1.705    -0.319    19.319     5.934
   171   6 C        2.843     0.147    24.792     8.160
   172   6 C        2.910    -0.062    29.551     8.914
   173   6 C        2.909    -0.059    29.459     8.900
   174   6 C        2.899    -0.034    28.857     8.808
   175   1 H        0.921     0.032     2.552     2.498
   176   6 C        2.900    -0.036    28.883     8.812
   177   1 H        0.923     0.032     2.554     2.499
   178   6 C        2.906    -0.022    28.552     8.762
   179   1 H        0.925     0.053     2.287     2.365
   180   1 H        0.926     0.052     2.297     2.370
   181   1 H        0.908     0.020     2.738     2.589
   182   6 C        2.846     0.139    24.956     8.187
   183   6 C        2.896    -0.045    29.111     8.846
   184   6 C        2.907    -0.056    29.402     8.891
   185   6 C        2.900    -0.039    28.958     8.823
   186   1 H        0.922     0.042     2.425     2.435
   187   6 C        2.898    -0.016    28.403     8.738
   188   1 H        0.924     0.060     2.202     2.321
   189   6 C        2.897    -0.029    28.715     8.786
   190   1 H        0.926     0.060     2.199     2.319
   191   1 H        0.915     0.047     2.362     2.404
   192   1 H        0.918     0.046     2.375     2.410
   193   6 C        3.291     0.141    23.491     7.779
   194   6 C        2.906    -0.065    29.630     8.925
   195   6 C        3.491    -0.133    25.038     7.449
   196   6 C        2.899    -0.039    28.957     8.823
   197   1 H        0.920     0.020     2.741     2.589
   198   6 C        2.965    -0.112    30.836     9.108
   199   1 H        0.934     0.132     1.517     1.925
   200   6 C        2.904    -0.023    28.578     8.766
   201   1 H        0.927     0.049     2.328     2.386
   202   1 H        1.146     0.129     1.529     1.931
   203   1 H        0.907     0.013     2.843     2.638
   204   6 C        2.847     0.141    24.923     8.182
   205   6 C        2.901    -0.050    29.234     8.865
   206   6 C        2.901    -0.049    29.207     8.861
   207   6 C        2.907    -0.031    28.763     8.794
   208   1 H        0.924     0.047     2.353     2.399
   209   6 C        2.907    -0.033    28.829     8.804
   210   1 H        0.924     0.048     2.343     2.394
   211   6 C        2.900    -0.041    29.007     8.831
   212   1 H        0.922     0.045     2.384     2.415
   213   1 H        0.923     0.046     2.367     2.406
   214   1 H        0.925     0.050     2.317     2.380
   215   7 N        1.590    -0.387    30.435     8.106
   216   6 C        2.888     0.101    25.760     8.321
   217   6 C        2.916    -0.060    29.486     8.904
   218   6 C        2.909    -0.040    28.998     8.830
   219   6 C        2.909    -0.051    29.265     8.870
   220   6 C        2.910    -0.059    29.455     8.899
   221   6 C        2.964    -0.024    28.604     8.773
   222   6 C        3.824    -0.159    23.567     6.908
   223   6 C        3.808    -0.068    21.796     6.646
   224   6 C        3.030    -0.001    28.011     8.681
   225   6 C        3.974     0.091    19.016     6.196
   226   6 C        3.956     0.079    19.200     6.226
   227   6 C        3.137    -0.047    28.917     8.801
   228   6 C        2.924    -0.039    28.981     8.828
   229   6 C        2.934    -0.031    28.780     8.798
   230   1 H        0.926     0.001     3.037     2.725
   231   1 H        0.925     0.009     2.914     2.669
   232   1 H        0.926     0.021     2.715     2.577
   233   1 H        0.924     0.020     2.730     2.584
   234   1 H        1.803     0.219     1.002     1.563
   235   1 H        0.922     0.034     2.537     2.491
   236   1 H        0.913     0.048     2.350     2.398
   237   1 H        0.924     0.064     2.158     2.297
   238   1 H        0.928     0.135     1.499     1.914
   239   1 H        0.927     0.111     1.691     2.034
   240   1 H        0.923     0.090     1.879     2.144
   241   1 H        0.922     0.060     2.199     2.319
   242   1 H        0.920     0.052     2.290     2.367

 Mol. C6AA /au·bohr⁶  :     738518.841378
 Mol. C8AA /au·bohr⁸  :   18118790.698113
 Mol. α(0) /au        :       1345.837879


Wiberg/Mayer (AO) data.
largest (>0.10) Wiberg bond orders for each atom

 ---------------------------------------------------------------------------
     #   Z sym  total        # sym  WBO       # sym  WBO       # sym  WBO
 ---------------------------------------------------------------------------
     1   7 N    3.334 --     9 C    1.837    47 Fe   0.568     4 C    0.352
                           106 C    0.182     5 C    0.121
     2   7 N    3.460 --    11 C    1.754    16 C    0.894    47 Fe   0.501
     3   6 C    3.970 --     4 C    3.046    39 C    0.492   106 C    0.323
     4   6 C    3.929 --     3 C    3.046     1 N    0.352     5 C    0.240
                            39 C    0.112
     5   6 C    3.523 --     7 C    1.516     6 H    0.949    39 C    0.276
                             4 C    0.240     1 N    0.121    47 Fe   0.118
                            10 C    0.106
     6   1 H    0.992 --     5 C    0.949
     7   6 C    3.865 --     5 C    1.516     9 C    1.327     8 H    0.839
     8   1 H    0.952 --     7 C    0.839
     9   6 C    3.959 --     1 N    1.837     7 C    1.327    10 C    0.617
    10   6 C    3.605 --    17 C    1.118    11 C    1.035     9 C    0.617
                            12 C    0.133    16 C    0.114     5 C    0.106
    11   6 C    3.961 --     2 N    1.754    10 C    1.035    12 C    1.026
    12   6 C    3.895 --    14 C    1.454    11 C    1.026    13 H    0.981
                            10 C    0.133
    13   1 H    0.996 --    12 C    0.981
    14   6 C    3.966 --    12 C    1.454    16 C    1.383    15 H    0.969
    15   1 H    0.998 --    14 C    0.969
    16   6 C    3.921 --    14 C    1.383    26 C    1.301     2 N    0.894
                            10 C    0.114
    17   6 C    3.959 --    23 C    1.385    18 C    1.201    10 C    1.118
    18   6 C    3.883 --    19 C    1.524    17 C    1.201   167 O    0.921
                            22 C    0.108
    19   6 C    3.972 --    18 C    1.524    20 C    1.291   163 H    0.956
    20   6 C    3.974 --    22 C    1.646    19 C    1.291    21 H    0.953
    21   1 H    0.997 --    20 C    0.953
    22   6 C    3.963 --    20 C    1.646    23 C    1.065   164 H    0.974
                            18 C    0.108
    23   6 C    3.866 --    17 C    1.385   168 O    1.206    22 C    1.065
    24   7 N    3.176 --    32 C    1.431    27 C    0.623    47 Fe   0.526
                            30 C    0.232    28 C    0.119
    25   7 N    3.455 --    34 C    2.506    35 C    0.228    47 Fe   0.221
                            39 C    0.114
    26   6 C    3.933 --    27 C    1.397    16 C    1.301    49 C    0.902
    27   6 C    3.897 --    28 C    1.422    26 C    1.397    24 N    0.623
                            32 C    0.234
    28   6 C    3.566 --    27 C    1.422    29 H    0.945    30 C    0.474
                            32 C    0.298    24 N    0.119
    29   1 H    0.988 --    28 C    0.945
    30   6 C    3.831 --    32 C    1.792    31 H    0.955    28 C    0.474
                            24 N    0.232    33 C    0.203
    31   1 H    0.990 --    30 C    0.955
    32   6 C    3.907 --    30 C    1.792    24 N    1.431    28 C    0.298
                            27 C    0.234
    33   6 C    2.656 --    40 C    1.409    35 C    0.262    30 C    0.203
    34   6 C    3.923 --    25 N    2.506    35 C    0.999    39 C    0.299
    35   6 C    3.550 --    37 C    1.335    34 C    0.999    39 C    0.412
                            33 C    0.262    25 N    0.228
    36   1 H    0.900 --    37 C    0.772
    37   6 C    3.243 --    35 C    1.335    36 H    0.772    38 H    0.607
                            39 C    0.261
    38   1 H    0.933 --    37 C    0.607    39 C    0.196
    39   6 C    2.600 --     3 C    0.492    35 C    0.412    34 C    0.299
                             5 C    0.276    37 C    0.261    38 H    0.196
                            25 N    0.114     4 C    0.112   106 C    0.106
    40   6 C    3.977 --    33 C    1.409    46 C    1.267    41 C    1.093
    41   6 C    3.813 --    42 C    1.309    40 C    1.093   169 O    1.083
    42   6 C    3.963 --    43 C    1.416    41 C    1.309   165 H    0.972
    43   6 C    3.914 --    45 C    1.455    42 C    1.416    44 H    0.962
    44   1 H    0.998 --    43 C    0.962
    45   6 C    3.969 --    43 C    1.455    46 C    1.351   166 H    0.960
    46   6 C    3.854 --    45 C    1.351    40 C    1.267   170 O    0.981
    47  26 Fe   4.342 --   215 N    0.729    48 Cl   0.712     1 N    0.568
                            24 N    0.526     2 N    0.501    25 N    0.221
                             5 C    0.118
    48  17 Cl   0.858 --    47 Fe   0.712
    49   6 C    3.956 --    50 C    1.360    51 C    1.315    26 C    0.902
                            57 C    0.123
    50   6 C    3.953 --    52 C    1.399    49 C    1.360    53 N    1.048
    51   6 C    3.955 --    54 C    1.406    49 C    1.315    55 N    1.083
    52   6 C    3.977 --    57 C    1.420    50 C    1.399    56 H    0.956
    53   7 N    3.494 --    58 C    1.222    50 C    1.048    59 H    0.924
                            64 O    0.169
    54   6 C    3.970 --    57 C    1.422    51 C    1.406    60 H    0.952
    55   7 N    3.505 --    61 C    1.204    51 C    1.083    62 H    0.917
                            66 O    0.158
    56   1 H    0.993 --    52 C    0.956
    57   6 C    3.982 --    54 C    1.422    52 C    1.420    63 H    0.973
                            49 C    0.123
    58   6 C    3.950 --    64 O    1.652    53 N    1.222    65 C    0.993
    59   1 H    0.962 --    53 N    0.924
    60   1 H    0.992 --    54 C    0.952
    61   6 C    3.948 --    66 O    1.638    55 N    1.204    67 C    1.016
    62   1 H    0.959 --    55 N    0.917
    63   1 H    0.994 --    57 C    0.973
    64   8 O    1.976 --    58 C    1.652    53 N    0.169
    65   6 C    3.940 --    58 C    0.993    69 H    0.962    68 C    0.959
                            70 C    0.889
    66   8 O    1.967 --    61 C    1.638    55 N    0.158
    67   6 C    3.940 --    61 C    1.016    72 H    0.962    71 C    0.954
                            73 C    0.881
    68   6 C    3.937 --    75 H    0.973    74 H    0.973    65 C    0.959
                            70 C    0.941
    69   1 H    0.996 --    65 C    0.962
    70   6 C    3.937 --    77 C    1.018    76 H    0.963    68 C    0.941
                            65 C    0.889
    71   6 C    3.934 --    78 H    0.973    79 H    0.966    67 C    0.954
                            73 C    0.940
    72   1 H    0.995 --    67 C    0.962
    73   6 C    3.935 --    81 C    1.019    80 H    0.962    71 C    0.940
                            67 C    0.881
    74   1 H    0.994 --    68 C    0.973
    75   1 H    0.995 --    68 C    0.973
    76   1 H    0.993 --    70 C    0.963
    77   6 C    3.920 --    83 O    1.673    82 O    1.156    70 C    1.018
    78   1 H    0.994 --    71 C    0.973
    79   1 H    0.991 --    71 C    0.966
    80   1 H    0.993 --    73 C    0.962
    81   6 C    3.918 --    85 O    1.711    84 O    1.113    73 C    1.019
    82   8 O    2.302 --    77 C    1.156    86 C    0.895    83 O    0.169
    83   8 O    1.975 --    77 C    1.673    82 O    0.169
    84   8 O    2.270 --    81 C    1.113    87 C    0.908    85 O    0.166
    85   8 O    2.019 --    81 C    1.711    84 O    0.166
    86   6 C    3.908 --    89 C    1.008    88 C    1.005    90 H    0.959
                            82 O    0.895
    87   6 C    3.915 --    91 C    1.007    92 C    1.004    93 H    0.961
                            84 O    0.908
    88   6 C    3.990 --    86 C    1.005    94 H    0.985    95 H    0.984
                            96 H    0.981
    89   6 C    3.989 --    86 C    1.008    97 H    0.984    99 H    0.983
                            98 H    0.981
    90   1 H    0.997 --    86 C    0.959
    91   6 C    3.990 --    87 C    1.007   100 H    0.985   101 H    0.983
                           102 H    0.982
    92   6 C    3.991 --    87 C    1.004   103 H    0.985   105 H    0.984
                           104 H    0.982
    93   1 H    0.998 --    87 C    0.961
    94   1 H    0.998 --    88 C    0.985
    95   1 H    0.997 --    88 C    0.984
    96   1 H    0.996 --    88 C    0.981
    97   1 H    0.997 --    89 C    0.984
    98   1 H    0.995 --    89 C    0.981
    99   1 H    0.996 --    89 C    0.983
   100   1 H    0.997 --    91 C    0.985
   101   1 H    0.996 --    91 C    0.983
   102   1 H    0.996 --    91 C    0.982
   103   1 H    0.998 --    92 C    0.985
   104   1 H    0.996 --    92 C    0.982
   105   1 H    0.997 --    92 C    0.984
   106   6 C    3.745 --   107 C    1.353   108 C    1.287     3 C    0.323
                             1 N    0.182    39 C    0.106
   107   6 C    3.957 --   106 C    1.353   110 N    1.246   109 C    1.218
   108   6 C    3.943 --   111 C    1.490   106 C    1.287   112 N    0.997
   109   6 C    3.942 --   114 C    1.515   107 C    1.218   113 H    0.959
   110   7 N    3.511 --   107 C    1.246   115 C    1.038   116 H    0.880
                           121 O    0.145
   111   6 C    3.968 --   108 C    1.490   114 C    1.345   117 H    0.940
   112   7 N    3.475 --   118 C    1.244   108 C    0.997   119 H    0.923
                           123 O    0.167
   113   1 H    0.990 --   109 C    0.959
   114   6 C    3.970 --   109 C    1.515   111 C    1.345   120 H    0.969
   115   6 C    3.913 --   121 O    1.859   110 N    1.038   122 C    0.815
   116   1 H    0.954 --   110 N    0.880
   117   1 H    0.989 --   111 C    0.940
   118   6 C    3.956 --   123 O    1.599   112 N    1.244   124 C    1.045
   119   1 H    0.956 --   112 N    0.923
   120   1 H    0.993 --   114 C    0.969
   121   8 O    2.200 --   115 C    1.859   110 N    0.145
   122   6 C    3.858 --   125 C    1.173   115 C    0.815   126 H    0.811
                           127 C    0.799
   123   8 O    1.927 --   118 C    1.599   112 N    0.167
   124   6 C    3.931 --   118 C    1.045   129 H    0.963   128 C    0.928
                           130 C    0.864
   125   6 C    3.932 --   127 C    1.213   122 C    1.173   131 H    0.744
                           132 H    0.739
   126   1 H    0.990 --   122 C    0.811
   127   6 C    3.832 --   125 C    1.213   133 H    0.858   134 C    0.802
                           122 C    0.799
   128   6 C    3.938 --   135 H    0.974   136 H    0.969   130 C    0.965
                           124 C    0.928
   129   1 H    0.997 --   124 C    0.963
   130   6 C    3.941 --   138 C    1.004   128 C    0.965   137 H    0.963
                           124 C    0.864
   131   1 H    0.938 --   125 C    0.744
   132   1 H    0.972 --   125 C    0.739
   133   1 H    0.994 --   127 C    0.858
   134   6 C    3.161 --   139 O    1.174   140 O    0.856   127 C    0.802
   135   1 H    0.995 --   128 C    0.974
   136   1 H    0.991 --   128 C    0.969
   137   1 H    0.994 --   130 C    0.963
   138   6 C    3.920 --   142 O    1.722   141 O    1.126   130 C    1.004
   139   8 O    2.211 --   134 C    1.174   143 C    0.860
   140   8 O    2.551 --   134 C    0.856   225 C    0.795   226 C    0.681
   141   8 O    2.271 --   138 C    1.126   144 C    0.892   142 O    0.170
   142   8 O    2.032 --   138 C    1.722   141 O    0.170
   143   6 C    3.869 --   145 C    1.011   146 C    1.006   139 O    0.860
                           147 H    0.820
   144   6 C    3.911 --   149 C    1.010   148 C    1.008   150 H    0.962
                           141 O    0.892
   145   6 C    3.985 --   143 C    1.011   151 H    0.983   152 H    0.980
                           153 H    0.978
   146   6 C    3.984 --   143 C    1.006   156 H    0.980   155 H    0.977
                           154 H    0.972
   147   1 H    0.982 --   143 C    0.820   227 C    0.122
   148   6 C    3.990 --   144 C    1.008   157 H    0.984   158 H    0.984
                           159 H    0.981
   149   6 C    3.989 --   144 C    1.010   160 H    0.984   162 H    0.983
                           161 H    0.981
   150   1 H    0.997 --   144 C    0.962
   151   1 H    0.996 --   145 C    0.983
   152   1 H    0.994 --   145 C    0.980
   153   1 H    0.994 --   145 C    0.978
   154   1 H    0.998 --   146 C    0.972
   155   1 H    0.995 --   146 C    0.977
   156   1 H    0.995 --   146 C    0.980
   157   1 H    0.998 --   148 C    0.984
   158   1 H    0.997 --   148 C    0.984
   159   1 H    0.996 --   148 C    0.981
   160   1 H    0.997 --   149 C    0.984
   161   1 H    0.995 --   149 C    0.981
   162   1 H    0.996 --   149 C    0.983
   163   1 H    0.996 --    19 C    0.956
   164   1 H    0.995 --    22 C    0.974
   165   1 H    0.995 --    42 C    0.972
   166   1 H    0.997 --    45 C    0.960
   167   8 O    2.217 --   171 C    1.067    18 C    0.921
   168   8 O    2.473 --    23 C    1.206   182 C    0.968
   169   8 O    2.446 --    41 C    1.083   193 C    1.061
   170   8 O    2.216 --   204 C    0.999    46 C    0.981
   171   6 C    3.936 --   172 C    1.410   173 C    1.326   167 O    1.067
   172   6 C    3.982 --   171 C    1.410   174 C    1.382   175 H    0.971
                           176 C    0.116
   173   6 C    3.983 --   176 C    1.472   171 C    1.326   177 H    0.972
                           174 C    0.116
   174   6 C    3.989 --   178 C    1.496   172 C    1.382   179 H    0.969
                           173 C    0.116
   175   1 H    0.999 --   172 C    0.971
   176   6 C    3.989 --   173 C    1.472   178 C    1.403   180 H    0.970
                           172 C    0.116
   177   1 H    0.999 --   173 C    0.972
   178   6 C    3.989 --   174 C    1.496   176 C    1.403   181 H    0.961
   179   1 H    0.997 --   174 C    0.969
   180   1 H    0.997 --   176 C    0.970
   181   1 H    1.000 --   178 C    0.961
   182   6 C    3.898 --   184 C    1.638   183 C    1.134   168 O    0.968
   183   6 C    3.982 --   185 C    1.738   182 C    1.134   186 H    0.965
   184   6 C    3.977 --   182 C    1.638   187 C    1.159   188 H    0.965
   185   6 C    3.985 --   183 C    1.738   189 C    1.137   190 H    0.969
   186   1 H    0.998 --   183 C    0.965
   187   6 C    3.989 --   189 C    1.772   184 C    1.159   191 H    0.955
   188   1 H    0.996 --   184 C    0.965
   189   6 C    3.986 --   187 C    1.772   185 C    1.137   192 H    0.959
   190   1 H    0.996 --   185 C    0.969
   191   1 H    0.997 --   187 C    0.955
   192   1 H    0.998 --   189 C    0.959
   193   6 C    3.907 --   194 C    1.388   195 C    1.194   169 O    1.061
   194   6 C    3.966 --   193 C    1.388   196 C    1.388   197 H    0.967
   195   6 C    3.934 --   198 C    1.393   193 C    1.194   199 H    0.871
                           196 C    0.116   234 H    0.100
   196   6 C    3.980 --   200 C    1.443   194 C    1.388   201 H    0.972
                           195 C    0.116
   197   1 H    0.999 --   194 C    0.967
   198   6 C    3.949 --   200 C    1.431   195 C    1.393   202 H    0.852
   199   1 H    0.982 --   195 C    0.871
   200   6 C    3.977 --   196 C    1.443   198 C    1.431   203 H    0.960
   201   1 H    0.997 --   196 C    0.972
   202   1 H    0.983 --   198 C    0.852
   203   1 H    0.999 --   200 C    0.960
   204   6 C    3.924 --   205 C    1.397   206 C    1.371   170 O    0.999
                           211 C    0.101
   205   6 C    3.984 --   207 C    1.430   204 C    1.397   208 H    0.967
                           209 C    0.112
   206   6 C    3.983 --   209 C    1.460   204 C    1.371   210 H    0.968
                           207 C    0.107
   207   6 C    3.988 --   211 C    1.453   205 C    1.430   212 H    0.968
                           206 C    0.107
   208   1 H    0.998 --   205 C    0.967
   209   6 C    3.987 --   206 C    1.460   211 C    1.416   213 H    0.970
                           205 C    0.112
   210   1 H    0.998 --   206 C    0.968
   211   6 C    3.985 --   207 C    1.453   209 C    1.416   214 H    0.971
                           204 C    0.101
   212   1 H    0.998 --   207 C    0.968
   213   1 H    0.997 --   209 C    0.970
   214   1 H    0.997 --   211 C    0.971
   215   7 N    2.598 --   216 C    1.491    47 Fe   0.729
   216   6 C    3.961 --   215 N    1.491   217 C    1.208   221 C    1.136
   217   6 C    3.856 --   218 C    1.482   216 C    1.208   230 H    0.972
   218   6 C    3.981 --   217 C    1.482   219 C    1.403   231 H    0.966
   219   6 C    3.882 --   218 C    1.403   220 C    1.390   232 H    0.971
   220   6 C    3.981 --   221 C    1.476   219 C    1.390   233 H    0.958
   221   6 C    3.871 --   220 C    1.476   216 C    1.136   222 C    1.028
   222   6 C    3.925 --   221 C    1.028   223 C    0.946   235 H    0.930
                           234 H    0.733
   223   6 C    3.984 --   224 C    1.001   236 H    0.957   222 C    0.946
                           237 H    0.900
   224   6 C    3.956 --   229 C    1.642   225 C    1.077   223 C    1.001
   225   6 C    3.836 --   224 C    1.077   238 H    0.900   140 O    0.795
                           226 C    0.794
   226   6 C    3.830 --   227 C    1.130   239 H    0.931   225 C    0.794
                           140 O    0.681
   227   6 C    3.964 --   228 C    1.571   226 C    1.130   240 H    0.931
                           147 H    0.122
   228   6 C    3.956 --   227 C    1.571   229 C    1.225   241 H    0.963
   229   6 C    3.983 --   224 C    1.642   228 C    1.225   242 H    0.962
   230   1 H    0.998 --   217 C    0.972
   231   1 H    0.994 --   218 C    0.966
   232   1 H    0.999 --   219 C    0.971
   233   1 H    0.994 --   220 C    0.958
   234   1 H    0.950 --   222 C    0.733   195 C    0.100
   235   1 H    0.996 --   222 C    0.930
   236   1 H    0.994 --   223 C    0.957
   237   1 H    0.994 --   223 C    0.900
   238   1 H    0.978 --   225 C    0.900
   239   1 H    0.985 --   226 C    0.931
   240   1 H    0.990 --   227 C    0.931
   241   1 H    0.996 --   228 C    0.963
   242   1 H    0.997 --   229 C    0.962
 ---------------------------------------------------------------------------

Topologies differ in total number of bonds
Writing topology from bond orders to xtbtopo.mol

molecular dipole:
                 x           y           z       tot (Debye)
 q only:        7.635       2.251      -4.463
   full:        8.532       2.925      -3.468      24.561
molecular quadrupole (traceless):
                xx          xy          yy          xz          yz          zz
 q only:      103.934      68.462      20.717     -72.174     -45.491    -124.650
  q+dip:       93.368      64.393      37.490     -74.438     -48.523    -130.858
   full:       93.395      61.672      43.247     -73.180     -51.036    -136.643


           -------------------------------------------------
          | TOTAL ENERGY             -386.792481813217 Eh   |
          | GRADIENT NORM              15.216297026371 Eh/α |
          | HOMO-LUMO GAP               0.013498101954 eV   |
           -------------------------------------------------

------------------------------------------------------------------------
 * finished run on 2026/09/07 at 18:12:04.407     
------------------------------------------------------------------------
 total:
 * wall-time:     0 d,  0 h,  0 min,  3.296 sec
 *  cpu-time:     0 d,  0 h,  0 min,  3.276 sec
 * ratio c/w:     0.994 speedup
 SCF:
 * wall-time:     0 d,  0 h,  0 min,  3.235 sec
 *  cpu-time:     0 d,  0 h,  0 min,  3.218 sec
 * ratio c/w:     0.995 speedup

