      -----------------------------------------------------------      
     |                   =====================                   |     
     |                           x T B                           |     
     |                   =====================                   |     
     |                         S. Grimme                         |     
     |          Mulliken Center for Theoretical Chemistry        |     
     |                    University of Bonn                     |     
      -----------------------------------------------------------      

   * xtb version 6.7.1 (edcfbbe) compiled by 'runner@sat12-gn217-0cbadaec-b866-44ae-a866-732403219ae3-6E01A8DFFD18.local' on 2026-06-10

   xtb is free software: you can redistribute it and/or modify it under
   the terms of the GNU Lesser General Public License as published by
   the Free Software Foundation, either version 3 of the License, or
   (at your option) any later version.
   
   xtb is distributed in the hope that it will be useful,
   but WITHOUT ANY WARRANTY; without even the implied warranty of
   MERCHANTABILITY or FITNESS FOR A PARTICULAR PURPOSE.  See the
   GNU Lesser General Public License for more details.
   
   Cite this work as:
   * C. Bannwarth, E. Caldeweyher, S. Ehlert, A. Hansen, P. Pracht,
     J. Seibert, S. Spicher, S. Grimme, WIREs Comput. Mol. Sci., 2020, 11,
     e01493. DOI: 10.1002/wcms.1493
   
   for GFN2-xTB:
   * C. Bannwarth, S. Ehlert and S. Grimme., J. Chem. Theory Comput., 2019,
     15, 1652-1671. DOI: 10.1021/acs.jctc.8b01176
   for GFN1-xTB:
   * S. Grimme, C. Bannwarth, P. Shushkov, J. Chem. Theory Comput., 2017,
     13, 1989-2009. DOI: 10.1021/acs.jctc.7b00118
   for GFN0-xTB:
   * P. Pracht, E. Caldeweyher, S. Ehlert, S. Grimme, ChemRxiv, 2019, preprint.
     DOI: 10.26434/chemrxiv.8326202.v1
   for GFN-FF:
   * S. Spicher and S. Grimme, Angew. Chem. Int. Ed., 2020, 59, 15665-15673.
     DOI: 10.1002/anie.202004239
   
   for ALPB and GBSA implicit solvation:
   * S. Ehlert, M. Stahn, S. Spicher, S. Grimme, J. Chem. Theory Comput.,
     2021, 17, 4250-4261. DOI: 10.1021/acs.jctc.1c00471
   
   for ddCOSMO and CPCM-X implicit solvation:
   * M. Stahn, S. Ehlert, S. Grimme, J. Phys. Chem. A,
     2023, XX, XXXX-XXXX. DOI: 10.1021/acs.jpca.3c04382
   
   for DFT-D4:
   * E. Caldeweyher, C. Bannwarth and S. Grimme, J. Chem. Phys., 2017,
     147, 034112. DOI: 10.1063/1.4993215
   * E. Caldeweyher, S. Ehlert, A. Hansen, H. Neugebauer, S. Spicher,
     C. Bannwarth and S. Grimme, J. Chem. Phys., 2019, 150, 154122.
     DOI: 10.1063/1.5090222
   * E. Caldeweyher, J.-M. Mewes, S. Ehlert and S. Grimme, Phys. Chem. Chem. Phys.
     2020, 22, 8499-8512. DOI: 10.1039/D0CP00502A
   
   for sTDA-xTB:
   * S. Grimme and C. Bannwarth, J. Chem. Phys., 2016, 145, 054103.
     DOI: 10.1063/1.4959605
   
   in the mass-spec context:
   * V. Asgeirsson, C. Bauer and S. Grimme, Chem. Sci., 2017, 8, 4879.
     DOI: 10.1039/c7sc00601b
   * J. Koopman and S. Grimme, ACS Omega 2019, 4, 12, 15120-15133.
     DOI: 10.1021/acsomega.9b02011
   
   for metadynamics refer to:
   * S. Grimme, J. Chem. Theory Comput., 2019, 155, 2847-2862
     DOI: 10.1021/acs.jctc.9b00143
   
   for SPH calculations refer to:
   * S. Spicher and S. Grimme, J. Chem. Theory Comput., 2021, 17, 1701-1714
     DOI: 10.1021/acs.jctc.0c01306
   
   for ONIOM refer to:
   * C. Plett, A. Katbashev, S. Ehlert, S. Grimme, M. Bursch,
     Phys. Chem. Chem. Phys., 2023, 25, 17860-17868. DOI: 10.1039/D3CP02178E
   
   for DIPRO refer to:
   * J. Kohn, N. Gildemeister, S. Grimme, D. Fazzi, A. Hansen,
     J. Chem. Phys., 2023, just accepted.
   
   for PTB refer to:
   * S. Grimme, M. Mueller, A. Hansen, J. Chem. Phys., 2023, 158, 124111.
     DOI: 10.1063/5.0137838
   
   with help from (in alphabetical order)
   P. Atkinson, C. Bannwarth, F. Bohle, G. Brandenburg, E. Caldeweyher
   M. Checinski, S. Dohm, S. Ehlert, S. Ehrlich, I. Gerasimov, C. Hölzer
   A. Katbashev, J. Kohn, J. Koopman, C. Lavigne, S. Lehtola, F. März, M. Müller,
   F. Musil, H. Neugebauer, J. Pisarek, C. Plett, P. Pracht, F. Pultar,
   J. Seibert, P. Shushkov, S. Spicher, M. Stahn, M. Steiner, T. Strunk,
   J. Stückrath, T. Rose, and J. Unsleber
   
 * started run on 2026/09/07 at 18:11:51.323     
   ID    Z sym.   atoms
    1    7 N      1, 2, 24, 25, 53, 55, 110, 112, 215
    2    6 C      3-5, 7, 9-12, 14, 16-20, 22, 23, 26-28, 30, 32-35, 37,
                  39-43, 45, 46, 49-52, 54, 57, 58, 61, 65, 67, 68, 70, 71,
                  73, 77, 81, 86-89, 91, 92, 106-109, 111, 114, 115, 118,
                  122, 124, 125, 127, 128, 130, 134, 138, 143-146, 148, 149,
                  171-174, 176, 178, 182-185, 187, 189, 193-196, 198, 200,
                  204-207, 209, 211, 216-229
    3    1 H      6, 8, 13, 15, 21, 29, 31, 36, 38, 44, 56, 59, 60, 62, 63,
                  69, 72, 74-76, 78-80, 90, 93-105, 113, 116, 117, 119, 120,
                  126, 129, 131-133, 135-137, 147, 150-166, 175, 177,
                  179-181, 186, 188, 190-192, 197, 199, 201-203, 208, 210,
                  212-214, 230-242
    4   26 Fe     47
    5   17 Cl     48
    6    8 O      64, 66, 82-85, 121, 123, 139-142, 167-170

           -------------------------------------------------
          |                Calculation Setup                |
           -------------------------------------------------

          program call               : /Users/haywoodau3/Documents/genaisubstrate/.chem-env/bin/xtb input.xyz --gfnff --alpb ether --opt --input xcontrol
          coordinate file            : input.xyz
          omp threads                :                     1

          GFN-FF topology read from file successfully!
           ------------------------------------------------- 
          |                   G F N - F F                   |
          |          A general generic force-field          |
          |                  Version 1.0.3                  | 
           ------------------------------------------------- 
      * Solvation model:               ALPB
        Solvent                        ether
        Parameter file                 internal GFN-FF/ALPB
        Dielectric constant                4.3300E+00
        Reference state                gsolv [1 M gas/solution]
        Free energy shift                  6.7832E-03 Eh       4.2565E+00 kcal/mol
        Temperature                        2.9815E+02 K
        Density                            7.1300E-01 kg/L
        Solvent mass                       7.4120E+01 g/mol
        Interaction kernel             P16
        Born radius scaling (c1)           1.8092E+00
        Born radii integrator          GBOBC
        Born offset                        0.0000E+00 a0       0.0000E+00 AA
        H-bond correction              true
        Ion screening                  false
        Surface tension                    1.0000E-05 Eh       1.5569E+01 dyn/cm
        Grid points                               230 per atom
          Number of HB bonds (bound hydrogen)     178698
          Number of HB bonds (unbound hydrogen)   12810
          Number of XB bonds                      810

 E+G (total)                   0 d,  0 h,  0 min,  0.020 sec
 distance/D3 list               ...        0 min,  0.000 sec (  0.286%)
 non bonded repulsion           ...        0 min,  0.001 sec (  4.396%)
 dCN                            ...        0 min,  0.000 sec (  1.544%)
 EEQ energy and q               ...        0 min,  0.001 sec (  3.097%)
 D3                             ...        0 min,  0.001 sec (  6.062%)
 EEQ gradient                   ...        0 min,  0.000 sec (  2.104%)
 bonds                          ...        0 min,  0.001 sec (  5.295%)
 bend and torsion               ...        0 min,  0.000 sec (  0.486%)
 bonded ATM                     ...        0 min,  0.000 sec (  0.580%)
 HB/XB (incl list setup)        ...        0 min,  0.011 sec ( 55.354%)
 GBSA                           ...        0 min,  0.004 sec ( 22.123%)

         :::::::::::::::::::::::::::::::::::::::::::::::::::::
         ::                     SUMMARY                     ::
         :::::::::::::::::::::::::::::::::::::::::::::::::::::
         :: total energy             -48.107476133667 Eh    ::
         :: total w/o Gsolv          -47.960266248018 Eh    ::
         :: total w/o Gsasa/hb       -47.988175151439 Eh    ::
         :: gradient norm              0.503568386714 Eh/a0 ::
         ::.................................................::
         :: bond energy              -50.369776826007 Eh    ::
         :: angle energy               0.456022135578 Eh    ::
         :: torsion energy             0.193345311754 Eh    ::
         :: repulsion energy           3.208401935696 Eh    ::
         :: electrostat energy        -1.069635792647 Eh    ::
         :: dispersion energy         -0.319439332059 Eh    ::
         :: HB energy                 -0.013799892454 Eh    ::
         :: XB energy                 -0.000102167264 Eh    ::
         :: bonded atm energy         -0.045281620616 Eh    ::
         :: external energy            0.000000000000 Eh    ::
         :: -> Gsolv                  -0.147209885649 Eh    ::
         ::    -> Gborn               -0.027908903422 Eh    ::
         ::    -> Gsasa               -0.120294652942 Eh    ::
         ::    -> Ghb                 -0.005789540751 Eh    ::
         ::    -> Gshift               0.006783211464 Eh    ::
         :: add. restraining           0.000000000000 Eh    ::
         :: total charge               0.000000000000 e     ::
         :::::::::::::::::::::::::::::::::::::::::::::::::::::

      ----------------------------------------------------------- 
     |                   =====================                   |
     |                        A N C O P T                        |
     |                   =====================                   |
     |               Approximate Normal Coordinate               |
     |                Rational Function Optimizer                |
      ----------------------------------------------------------- 
      ----------------------------------------------------------- 
     |                   =====================                   |
     |                        A N C O P T                        |
     |                   =====================                   |
     |               Approximate Normal Coordinate               |
     |                Rational Function Optimizer                |
      ----------------------------------------------------------- 

          ...................................................
          :                      SETUP                      :
          :.................................................:
          :   optimization level            normal          :
          :   max. optcycles                   726          :
          :   ANC micro-cycles                  20          :
          :   degrees of freedom                81          :
          :.................................................:
          :   RF solver                   davidson          :
          :   write xtbopt.log                true          :
          :   linear?                        false          :
          :   energy convergence         0.5000000E-05 Eh   :
          :   grad. convergence          0.1000000E-02 Eh/α :
          :   maxmium RF displ.          1.0000000          :
          :   Hlow (freq-cutoff)         0.1000000E-01      :
          :   Hmax (freq-cutoff)         5.0000000          :
          :   S6 in model hess.         20.0000000          :
          ...................................................

generating ANC from exact Hessian ...
Using GFN-FF Lindh-Hessian
 Shifting diagonal of input Hessian by    9.9946734242167372E-003
 Lowest  eigenvalues of input Hessian
    0.000000    0.000000    0.000000    0.000000    0.010000    0.010004
    0.000000    0.000000    0.010010    0.010023    0.010026    0.010036
    0.010041    0.010048    0.010055    0.010070    0.010112    0.010130
 Highest eigenvalues
    3.072570    3.198163    3.245146    3.616209    6.783936   20.368696


........................................................................
.............................. CYCLE    1 ..............................
........................................................................
     iter. time                 ...        0 min,  0.021 sec
 * total energy  :   -48.1074761 Eh     change        0.0000000E+00 Eh
   gradient norm :     0.2518821 Eh/α   predicted     0.0000000E+00 (   0.00%)
   displ. norm   :     0.0989419 α      lambda       -0.2240569E-01
   maximum displ.:     0.0661418 α      in ANC's #4, #77, #11, ...

........................................................................
.............................. CYCLE    2 ..............................
........................................................................
     iter. time                 ...        0 min,  0.020 sec
 * total energy  :   -48.1274852 Eh     change       -0.2000906E-01 Eh
   gradient norm :     0.1520140 Eh/α   predicted    -0.1233277E-01 ( -38.36%)
   displ. norm   :     0.1415197 α      lambda       -0.2104281E-01
   maximum displ.:     0.0867627 α      in ANC's #4, #77, #11, ...

........................................................................
.............................. CYCLE    3 ..............................
........................................................................
     iter. time                 ...        0 min,  0.020 sec
 * total energy  :   -48.1386624 Eh     change       -0.1117720E-01 Eh
   gradient norm :     0.0324102 Eh/α   predicted    -0.1073215E-01 (  -3.98%)
   displ. norm   :     0.0108513 α      lambda       -0.3273683E-03
   maximum displ.:     0.0050696 α      in ANC's #77, #80, #30, ...

........................................................................
.............................. CYCLE    4 ..............................
........................................................................
     iter. time                 ...        0 min,  0.020 sec
 * total energy  :   -48.1390303 Eh     change       -0.3679325E-03 Eh
   gradient norm :     0.0259094 Eh/α   predicted    -0.1643153E-03 ( -55.34%)
   displ. norm   :     0.0312092 α      lambda       -0.7530345E-03
   maximum displ.:     0.0173146 α      in ANC's #80, #77, #30, ...

........................................................................
.............................. CYCLE    5 ..............................
........................................................................
     iter. time                 ...        0 min,  0.020 sec
 * total energy  :   -48.1399530 Eh     change       -0.9226309E-03 Eh
   gradient norm :     0.0192939 Eh/α   predicted    -0.3770624E-03 ( -59.13%)
   displ. norm   :     0.0095359 α      lambda       -0.1252527E-03
   maximum displ.:     0.0081438 α      in ANC's #80, #77, #30, ...

........................................................................
.............................. CYCLE    6 ..............................
........................................................................
     iter. time                 ...        0 min,  0.020 sec
 * total energy  :   -48.1404738 Eh     change       -0.5208609E-03 Eh
   gradient norm :     0.0199789 Eh/α   predicted    -0.6271705E-04 ( -87.96%)
   displ. norm   :     0.0626460 α      lambda       -0.8984446E-03
   maximum displ.:     0.0571717 α      in ANC's #80, #77, #30, ...

........................................................................
.............................. CYCLE    7 ..............................
........................................................................
     iter. time                 ...        0 min,  0.020 sec
 * total energy  :   -48.1444182 Eh     change       -0.3944417E-02 Eh
   gradient norm :     0.0273807 Eh/α   predicted    -0.4514290E-03 ( -88.56%)
   displ. norm   :     0.0740137 α      lambda       -0.8377482E-03
   maximum displ.:     0.0690847 α      in ANC's #80, #81, #61, ...

........................................................................
.............................. CYCLE    8 ..............................
........................................................................
     iter. time                 ...        0 min,  0.020 sec
 * total energy  :   -48.1494999 Eh     change       -0.5081642E-02 Eh
   gradient norm :     0.0344090 Eh/α   predicted    -0.4211876E-03 ( -91.71%)
   displ. norm   :     0.1347909 α      lambda       -0.1472063E-02
   maximum displ.:     0.1258558 α      in ANC's #80, #81, #61, ...

........................................................................
.............................. CYCLE    9 ..............................
........................................................................
     iter. time                 ...        0 min,  0.020 sec
 * total energy  :   -48.1589923 Eh     change       -0.9492420E-02 Eh
   gradient norm :     0.0409563 Eh/α   predicted    -0.7494394E-03 ( -92.10%)
   displ. norm   :     0.1639553 α      lambda       -0.1651425E-02
   maximum displ.:     0.1519932 α      in ANC's #80, #81, #61, ...

........................................................................
.............................. CYCLE   10 ..............................
........................................................................
     iter. time                 ...        0 min,  0.020 sec
 * total energy  :   -48.1705014 Eh     change       -0.1150908E-01 Eh
   gradient norm :     0.0413589 Eh/α   predicted    -0.8479645E-03 ( -92.63%)
   displ. norm   :     0.1572835 α      lambda       -0.1554445E-02
   maximum displ.:     0.1431773 α      in ANC's #80, #81, #78, ...

........................................................................
.............................. CYCLE   11 ..............................
........................................................................
     iter. time                 ...        0 min,  0.020 sec
 * total energy  :   -48.1805123 Eh     change       -0.1001096E-01 Eh
   gradient norm :     0.0330578 Eh/α   predicted    -0.7966250E-03 ( -92.04%)
   displ. norm   :     0.0695203 α      lambda       -0.8223377E-03
   maximum displ.:     0.0574182 α      in ANC's #80, #78, #79, ...

........................................................................
.............................. CYCLE   12 ..............................
........................................................................
     iter. time                 ...        0 min,  0.020 sec
 * total energy  :   -48.1841391 Eh     change       -0.3626808E-02 Eh
   gradient norm :     0.0199471 Eh/α   predicted    -0.4132335E-03 ( -88.61%)
   displ. norm   :     0.0292854 α      lambda       -0.2210298E-03
   maximum displ.:     0.0246908 α      in ANC's #80, #79, #78, ...

........................................................................
.............................. CYCLE   13 ..............................
........................................................................
     iter. time                 ...        0 min,  0.020 sec
 * total energy  :   -48.1854488 Eh     change       -0.1309698E-02 Eh
   gradient norm :     0.0134804 Eh/α   predicted    -0.1106897E-03 ( -91.55%)
   displ. norm   :     0.0187807 α      lambda       -0.1465477E-03
   maximum displ.:     0.0139395 α      in ANC's #80, #79, #31, ...

........................................................................
.............................. CYCLE   14 ..............................
........................................................................
     iter. time                 ...        0 min,  0.020 sec
 * total energy  :   -48.1861507 Eh     change       -0.7018818E-03 Eh
   gradient norm :     0.0072168 Eh/α   predicted    -0.7336742E-04 ( -89.55%)
   displ. norm   :     0.0086351 α      lambda       -0.3694569E-04
   maximum displ.:     0.0063397 α      in ANC's #80, #79, #31, ...

........................................................................
.............................. CYCLE   15 ..............................
........................................................................
     iter. time                 ...        0 min,  0.020 sec
 * total energy  :   -48.1864079 Eh     change       -0.2571374E-03 Eh
   gradient norm :     0.0036255 Eh/α   predicted    -0.1850149E-04 ( -92.80%)
   displ. norm   :     0.0038123 α      lambda       -0.1012525E-04
   maximum displ.:     0.0021573 α      in ANC's #80, #31, #11, ...

........................................................................
.............................. CYCLE   16 ..............................
........................................................................
     iter. time                 ...        0 min,  0.020 sec
 * total energy  :   -48.1864737 Eh     change       -0.6585429E-04 Eh
   gradient norm :     0.0014162 Eh/α   predicted    -0.5102192E-05 ( -92.25%)
   displ. norm   :     0.0016527 α      lambda       -0.1426788E-05
   maximum displ.:     0.0012156 α      in ANC's #11, #4, #31, ...

........................................................................
.............................. CYCLE   17 ..............................
........................................................................
     iter. time                 ...        0 min,  0.020 sec
 * total energy  :   -48.1864438 Eh     change        0.2987466E-04 Eh
   gradient norm :     0.0010301 Eh/α   predicted    -0.7278027E-06 (-102.44%)
   displ. norm   :     0.0006633 α      lambda       -0.3300115E-06
   maximum displ.:     0.0003441 α      in ANC's #8, #61, #31, ...

........................................................................
.............................. CYCLE   18 ..............................
........................................................................
     iter. time                 ...        0 min,  0.020 sec
 * total energy  :   -48.1864245 Eh     change        0.1935209E-04 Eh
   gradient norm :     0.0008994 Eh/α   predicted    -0.1985046E-06 (-101.03%)
   displ. norm   :     0.0053289 α      lambda       -0.2694457E-05
   maximum displ.:     0.0031325 α      in ANC's #8, #61, #32, ...

........................................................................
.............................. CYCLE   19 ..............................
........................................................................
     iter. time                 ...        0 min,  0.020 sec
 * total energy  :   -48.1862703 Eh     change        0.1542159E-03 Eh
   gradient norm :     0.0016707 Eh/α   predicted    -0.1366567E-05 (-100.89%)
   displ. norm   :     0.0083345 α      lambda       -0.3066579E-05
   maximum displ.:     0.0050710 α      in ANC's #8, #61, #6, ...

........................................................................
.............................. CYCLE   20 ..............................
........................................................................
     iter. time                 ...        0 min,  0.020 sec
 * total energy  :   -48.1859816 Eh     change        0.2886522E-03 Eh
   gradient norm :     0.0028236 Eh/α   predicted    -0.1541275E-05 (-100.53%)
   displ. norm   :     0.0172052 α      lambda       -0.9272468E-05
   maximum displ.:     0.0105962 α      in ANC's #8, #61, #32, ...
 * RMSD in coord.:     0.0501584 α      energy gain  -0.7850548E-01 Eh

generating ANC from exact Hessian ...
Using GFN-FF Lindh-Hessian
 Shifting diagonal of input Hessian by    9.9947698083185377E-003
 Lowest  eigenvalues of input Hessian
    0.000000    0.000000    0.000000    0.000000    0.010000    0.010004
    0.000000    0.000000    0.010010    0.010022    0.010025    0.010036
    0.010040    0.010048    0.010055    0.010070    0.010115    0.010129
 Highest eigenvalues
    3.071770    3.075491    3.428232    3.551662    3.705542    8.531547


........................................................................
.............................. CYCLE   21 ..............................
........................................................................
     iter. time                 ...        0 min,  0.021 sec
 * total energy  :   -48.1852205 Eh     change        0.7611414E-03 Eh
   gradient norm :     0.0200443 Eh/α   predicted     0.0000000E+00 (-100.00%)
   displ. norm   :     0.0066316 α      lambda       -0.9825695E-04
   maximum displ.:     0.0033351 α      in ANC's #20, #8, #80, ...

........................................................................
.............................. CYCLE   22 ..............................
........................................................................
     iter. time                 ...        0 min,  0.020 sec
 * total energy  :   -48.1853014 Eh     change       -0.8097229E-04 Eh
   gradient norm :     0.0167524 Eh/α   predicted    -0.6382472E-04 ( -21.18%)
   displ. norm   :     0.0283540 α      lambda       -0.4525531E-03
   maximum displ.:     0.0123306 α      in ANC's #79, #80, #20, ...

........................................................................
.............................. CYCLE   23 ..............................
........................................................................
     iter. time                 ...        0 min,  0.020 sec
 * total energy  :   -48.1852455 Eh     change        0.5592539E-04 Eh
   gradient norm :     0.0163725 Eh/α   predicted    -0.2264722E-03 (-504.95%)
   displ. norm   :     0.0133458 α      lambda       -0.1196013E-03
   maximum displ.:     0.0062336 α      in ANC's #79, #81, #80, ...

........................................................................
.............................. CYCLE   24 ..............................
........................................................................
     iter. time                 ...        0 min,  0.021 sec
 * total energy  :   -48.1850387 Eh     change        0.2068386E-03 Eh
   gradient norm :     0.0182369 Eh/α   predicted    -0.6172620E-04 (-129.84%)
   displ. norm   :     0.0720263 α      lambda       -0.7196675E-03
   maximum displ.:     0.0327182 α      in ANC's #81, #79, #71, ...

........................................................................
.............................. CYCLE   25 ..............................
........................................................................
     iter. time                 ...        0 min,  0.020 sec
 * total energy  :   -48.1825616 Eh     change        0.2477130E-02 Eh
   gradient norm :     0.0234685 Eh/α   predicted    -0.3622124E-03 (-114.62%)
   displ. norm   :     0.0609329 α      lambda       -0.4742462E-03
   maximum displ.:     0.0307381 α      in ANC's #71, #81, #79, ...

........................................................................
.............................. CYCLE   26 ..............................
........................................................................
     iter. time                 ...        0 min,  0.020 sec
 * total energy  :   -48.1787604 Eh     change        0.3801115E-02 Eh
   gradient norm :     0.0200620 Eh/α   predicted    -0.2381437E-03 (-106.27%)
   displ. norm   :     0.0403109 α      lambda       -0.2920112E-03
   maximum displ.:     0.0230920 α      in ANC's #71, #81, #79, ...

........................................................................
.............................. CYCLE   27 ..............................
........................................................................
     iter. time                 ...        0 min,  0.020 sec
 * total energy  :   -48.1754245 Eh     change        0.3335981E-02 Eh
   gradient norm :     0.0116035 Eh/α   predicted    -0.1462534E-03 (-104.38%)
   displ. norm   :     0.0085919 α      lambda       -0.7220824E-04
   maximum displ.:     0.0048698 α      in ANC's #71, #81, #80, ...

........................................................................
.............................. CYCLE   28 ..............................
........................................................................
     iter. time                 ...        0 min,  0.020 sec
 * total energy  :   -48.1748290 Eh     change        0.5954208E-03 Eh
   gradient norm :     0.0071481 Eh/α   predicted    -0.3613820E-04 (-106.07%)
   displ. norm   :     0.0055966 α      lambda       -0.3112111E-04
   maximum displ.:     0.0045235 α      in ANC's #80, #79, #12, ...

........................................................................
.............................. CYCLE   29 ..............................
........................................................................
     iter. time                 ...        0 min,  0.020 sec
 * total energy  :   -48.1749105 Eh     change       -0.8150295E-04 Eh
   gradient norm :     0.0052837 Eh/α   predicted    -0.1586103E-04 ( -80.54%)
   displ. norm   :     0.0047719 α      lambda       -0.1861668E-04
   maximum displ.:     0.0031522 α      in ANC's #80, #79, #12, ...

........................................................................
.............................. CYCLE   30 ..............................
........................................................................
     iter. time                 ...        0 min,  0.020 sec
 * total energy  :   -48.1749157 Eh     change       -0.5206958E-05 Eh
   gradient norm :     0.0049087 Eh/α   predicted    -0.9435535E-05 (  81.21%)
   displ. norm   :     0.0061229 α      lambda       -0.1988024E-04
   maximum displ.:     0.0026577 α      in ANC's #80, #81, #12, ...

........................................................................
.............................. CYCLE   31 ..............................
........................................................................
     iter. time                 ...        0 min,  0.020 sec
 * total energy  :   -48.1748443 Eh     change        0.7144695E-04 Eh
   gradient norm :     0.0053561 Eh/α   predicted    -0.9977999E-05 (-113.97%)
   displ. norm   :     0.0086345 α      lambda       -0.2520171E-04
   maximum displ.:     0.0061219 α      in ANC's #81, #12, #26, ...

........................................................................
.............................. CYCLE   32 ..............................
........................................................................
     iter. time                 ...        0 min,  0.020 sec
 * total energy  :   -48.1743581 Eh     change        0.4861772E-03 Eh
   gradient norm :     0.0063960 Eh/α   predicted    -0.1262447E-04 (-102.60%)
   displ. norm   :     0.0172487 α      lambda       -0.4644958E-04
   maximum displ.:     0.0130300 α      in ANC's #81, #12, #26, ...

........................................................................
.............................. CYCLE   33 ..............................
........................................................................
     iter. time                 ...        0 min,  0.020 sec
 * total energy  :   -48.1732606 Eh     change        0.1097534E-02 Eh
   gradient norm :     0.0079098 Eh/α   predicted    -0.2325985E-04 (-102.12%)
   displ. norm   :     0.0254172 α      lambda       -0.6291738E-04
   maximum displ.:     0.0195452 α      in ANC's #81, #12, #2, ...

........................................................................
.............................. CYCLE   34 ..............................
........................................................................
     iter. time                 ...        0 min,  0.020 sec
 * total energy  :   -48.1714784 Eh     change        0.1782197E-02 Eh
   gradient norm :     0.0084186 Eh/α   predicted    -0.3156696E-04 (-101.77%)
   displ. norm   :     0.0275893 α      lambda       -0.6586827E-04
   maximum displ.:     0.0209743 α      in ANC's #81, #12, #2, ...

........................................................................
.............................. CYCLE   35 ..............................
........................................................................
     iter. time                 ...        0 min,  0.019 sec
 * total energy  :   -48.1693673 Eh     change        0.2111104E-02 Eh
   gradient norm :     0.0065616 Eh/α   predicted    -0.3298288E-04 (-101.56%)
   displ. norm   :     0.0139940 α      lambda       -0.3438071E-04
   maximum displ.:     0.0096882 α      in ANC's #81, #12, #2, ...

........................................................................
.............................. CYCLE   36 ..............................
........................................................................
     iter. time                 ...        0 min,  0.020 sec
 * total energy  :   -48.1682829 Eh     change        0.1084410E-02 Eh
   gradient norm :     0.0035201 Eh/α   predicted    -0.1720893E-04 (-101.59%)
   displ. norm   :     0.0031622 α      lambda       -0.9129914E-05
   maximum displ.:     0.0018243 α      in ANC's #52, #34, #20, ...

........................................................................
.............................. CYCLE   37 ..............................
........................................................................
     iter. time                 ...        0 min,  0.021 sec
 * total energy  :   -48.1682186 Eh     change        0.6425981E-04 Eh
   gradient norm :     0.0018285 Eh/α   predicted    -0.4588077E-05 (-107.14%)
   displ. norm   :     0.0028496 α      lambda       -0.2261979E-05
   maximum displ.:     0.0015791 α      in ANC's #52, #12, #26, ...

........................................................................
.............................. CYCLE   38 ..............................
........................................................................
     iter. time                 ...        0 min,  0.021 sec
 * total energy  :   -48.1681372 Eh     change        0.8140782E-04 Eh
   gradient norm :     0.0014161 Eh/α   predicted    -0.1147618E-05 (-101.41%)
   displ. norm   :     0.0015356 α      lambda       -0.1075626E-05
   maximum displ.:     0.0008947 α      in ANC's #81, #26, #20, ...

........................................................................
.............................. CYCLE   39 ..............................
........................................................................
     iter. time                 ...        0 min,  0.022 sec
 * total energy  :   -48.1680894 Eh     change        0.4777123E-04 Eh
   gradient norm :     0.0013677 Eh/α   predicted    -0.5518526E-06 (-101.16%)
   displ. norm   :     0.0055945 α      lambda       -0.3305829E-05
   maximum displ.:     0.0028446 α      in ANC's #12, #26, #5, ...

........................................................................
.............................. CYCLE   40 ..............................
........................................................................
     iter. time                 ...        0 min,  0.021 sec
 * total energy  :   -48.1674573 Eh     change        0.6321714E-03 Eh
   gradient norm :     0.0021619 Eh/α   predicted    -0.1693324E-05 (-100.27%)
   displ. norm   :     0.0094062 α      lambda       -0.7129783E-05
   maximum displ.:     0.0048733 α      in ANC's #12, #26, #5, ...

........................................................................
.............................. CYCLE   41 ..............................
........................................................................
     iter. time                 ...        0 min,  0.020 sec
 * total energy  :   -48.1662935 Eh     change        0.1163751E-02 Eh
   gradient norm :     0.0032167 Eh/α   predicted    -0.3582345E-05 (-100.31%)
   displ. norm   :     0.0393721 α      lambda       -0.2724523E-04
   maximum displ.:     0.0204096 α      in ANC's #12, #26, #5, ...

........................................................................
.............................. CYCLE   42 ..............................
........................................................................
     iter. time                 ...        0 min,  0.020 sec
 * total energy  :   -48.1606020 Eh     change        0.5691489E-02 Eh
   gradient norm :     0.0067337 Eh/α   predicted    -0.1380200E-04 (-100.24%)
   displ. norm   :     0.0468610 α      lambda       -0.2730049E-04
   maximum displ.:     0.0243924 α      in ANC's #12, #26, #5, ...
 * RMSD in coord.:     0.0178408 α      energy gain   0.2537959E-01 Eh

generating ANC from exact Hessian ...
Using GFN-FF Lindh-Hessian
 Shifting diagonal of input Hessian by    9.9947990785671549E-003
 Lowest  eigenvalues of input Hessian
    0.000000    0.000000    0.000000    0.000000    0.010000    0.010004
    0.000000    0.000000    0.010010    0.010022    0.010025    0.010036
    0.010041    0.010049    0.010055    0.010071    0.010114    0.010129
 Highest eigenvalues
    3.115590    3.275691    3.589691    3.711060    4.037799   10.436122


........................................................................
.............................. CYCLE   43 ..............................
........................................................................
     iter. time                 ...        0 min,  0.020 sec
 * total energy  :   -48.1522133 Eh     change        0.8388737E-02 Eh
   gradient norm :     0.0090900 Eh/α   predicted     0.0000000E+00 (-100.00%)
   displ. norm   :     0.0034799 α      lambda       -0.2724055E-04
   maximum displ.:     0.0028037 α      in ANC's #21, #48, #79, ...

........................................................................
.............................. CYCLE   44 ..............................
........................................................................
     iter. time                 ...        0 min,  0.020 sec
 * total energy  :   -48.1522627 Eh     change       -0.4938840E-04 Eh
   gradient norm :     0.0063909 Eh/α   predicted    -0.1547236E-04 ( -68.67%)
   displ. norm   :     0.0072103 α      lambda       -0.4436712E-04
   maximum displ.:     0.0053067 α      in ANC's #21, #79, #68, ...

........................................................................
.............................. CYCLE   45 ..............................
........................................................................
     iter. time                 ...        0 min,  0.020 sec
 * total energy  :   -48.1523872 Eh     change       -0.1245465E-03 Eh
   gradient norm :     0.0041141 Eh/α   predicted    -0.2222294E-04 ( -82.16%)
   displ. norm   :     0.0020675 α      lambda       -0.6035960E-05
   maximum displ.:     0.0010092 α      in ANC's #68, #81, #79, ...

........................................................................
.............................. CYCLE   46 ..............................
........................................................................
     iter. time                 ...        0 min,  0.020 sec
 * total energy  :   -48.1524692 Eh     change       -0.8202278E-04 Eh
   gradient norm :     0.0042544 Eh/α   predicted    -0.3112080E-05 ( -96.21%)
   displ. norm   :     0.0185988 α      lambda       -0.5949097E-04
   maximum displ.:     0.0095209 α      in ANC's #68, #81, #79, ...

........................................................................
.............................. CYCLE   47 ..............................
........................................................................
     iter. time                 ...        0 min,  0.020 sec
 * total energy  :   -48.1532036 Eh     change       -0.7343792E-03 Eh
   gradient norm :     0.0062522 Eh/α   predicted    -0.2980723E-04 ( -95.94%)
   displ. norm   :     0.0183536 α      lambda       -0.4307481E-04
   maximum displ.:     0.0093982 α      in ANC's #68, #81, #79, ...

........................................................................
.............................. CYCLE   48 ..............................
........................................................................
     iter. time                 ...        0 min,  0.020 sec
 * total energy  :   -48.1538174 Eh     change       -0.6137884E-03 Eh
   gradient norm :     0.0071850 Eh/α   predicted    -0.2156682E-04 ( -96.49%)
   displ. norm   :     0.0236002 α      lambda       -0.5270065E-04
   maximum displ.:     0.0117904 α      in ANC's #68, #81, #32, ...

........................................................................
.............................. CYCLE   49 ..............................
........................................................................
     iter. time                 ...        0 min,  0.020 sec
 * total energy  :   -48.1544070 Eh     change       -0.5895674E-03 Eh
   gradient norm :     0.0068119 Eh/α   predicted    -0.2638899E-04 ( -95.52%)
   displ. norm   :     0.0144992 α      lambda       -0.3192752E-04
   maximum displ.:     0.0070782 α      in ANC's #81, #68, #32, ...

........................................................................
.............................. CYCLE   50 ..............................
........................................................................
     iter. time                 ...        0 min,  0.020 sec
 * total energy  :   -48.1546649 Eh     change       -0.2579390E-03 Eh
   gradient norm :     0.0052616 Eh/α   predicted    -0.1598527E-04 ( -93.80%)
   displ. norm   :     0.0074699 α      lambda       -0.1987827E-04
   maximum displ.:     0.0043093 α      in ANC's #32, #31, #81, ...

........................................................................
.............................. CYCLE   51 ..............................
........................................................................
     iter. time                 ...        0 min,  0.020 sec
 * total energy  :   -48.1547631 Eh     change       -0.9815546E-04 Eh
   gradient norm :     0.0031746 Eh/α   predicted    -0.1011616E-04 ( -89.69%)
   displ. norm   :     0.0026526 α      lambda       -0.7144538E-05
   maximum displ.:     0.0016237 α      in ANC's #79, #32, #31, ...

........................................................................
.............................. CYCLE   52 ..............................
........................................................................
     iter. time                 ...        0 min,  0.020 sec
 * total energy  :   -48.1547512 Eh     change        0.1189084E-04 Eh
   gradient norm :     0.0015366 Eh/α   predicted    -0.3704014E-05 (-131.15%)
   displ. norm   :     0.0018829 α      lambda       -0.1661057E-05
   maximum displ.:     0.0014041 α      in ANC's #21, #79, #67, ...

........................................................................
.............................. CYCLE   53 ..............................
........................................................................
     iter. time                 ...        0 min,  0.020 sec
 * total energy  :   -48.1546763 Eh     change        0.7492283E-04 Eh
   gradient norm :     0.0007781 Eh/α   predicted    -0.8961135E-06 (-101.20%)
   displ. norm   :     0.0005549 α      lambda       -0.1445296E-06
   maximum displ.:     0.0003017 α      in ANC's #32, #79, #9, ...

........................................................................
.............................. CYCLE   54 ..............................
........................................................................
     iter. time                 ...        0 min,  0.020 sec
 * total energy  :   -48.1546274 Eh     change        0.4883663E-04 Eh
   gradient norm :     0.0006036 Eh/α   predicted    -0.1296136E-06 (-100.27%)
   displ. norm   :     0.0011273 α      lambda       -0.3458278E-06
   maximum displ.:     0.0004799 α      in ANC's #3, #32, #68, ...

........................................................................
.............................. CYCLE   55 ..............................
........................................................................
     iter. time                 ...        0 min,  0.020 sec
 * total energy  :   -48.1544680 Eh     change        0.1594382E-03 Eh
   gradient norm :     0.0006644 Eh/α   predicted    -0.2089242E-06 (-100.13%)
   displ. norm   :     0.0030995 α      lambda       -0.8983113E-06
   maximum displ.:     0.0014550 α      in ANC's #3, #68, #32, ...

........................................................................
.............................. CYCLE   56 ..............................
........................................................................
     iter. time                 ...        0 min,  0.020 sec
 * total energy  :   -48.1539898 Eh     change        0.4782184E-03 Eh
   gradient norm :     0.0011228 Eh/α   predicted    -0.4660958E-06 (-100.10%)
   displ. norm   :     0.0067094 α      lambda       -0.1655721E-05
   maximum displ.:     0.0032328 α      in ANC's #3, #68, #81, ...

........................................................................
.............................. CYCLE   57 ..............................
........................................................................
     iter. time                 ...        0 min,  0.021 sec
 * total energy  :   -48.1529055 Eh     change        0.1084293E-02 Eh
   gradient norm :     0.0017425 Eh/α   predicted    -0.8608590E-06 (-100.08%)
   displ. norm   :     0.0117280 α      lambda       -0.2610547E-05
   maximum displ.:     0.0057261 α      in ANC's #3, #68, #81, ...

........................................................................
.............................. CYCLE   58 ..............................
........................................................................
     iter. time                 ...        0 min,  0.021 sec
 * total energy  :   -48.1508925 Eh     change        0.2012948E-02 Eh
   gradient norm :     0.0021310 Eh/α   predicted    -0.1344869E-05 (-100.07%)
   displ. norm   :     0.0094353 α      lambda       -0.2937273E-05
   maximum displ.:     0.0046694 α      in ANC's #3, #68, #81, ...

........................................................................
.............................. CYCLE   59 ..............................
........................................................................
     iter. time                 ...        0 min,  0.020 sec
 * total energy  :   -48.1491609 Eh     change        0.1731620E-02 Eh
   gradient norm :     0.0019448 Eh/α   predicted    -0.1483847E-05 (-100.09%)
   displ. norm   :     0.0218912 α      lambda       -0.3912813E-05
   maximum displ.:     0.0110454 α      in ANC's #3, #68, #81, ...

........................................................................
.............................. CYCLE   60 ..............................
........................................................................
     iter. time                 ...        0 min,  0.020 sec
 * total energy  :   -48.1447841 Eh     change        0.4376798E-02 Eh
   gradient norm :     0.0014315 Eh/α   predicted    -0.1983937E-05 (-100.05%)
   displ. norm   :     0.0048613 α      lambda       -0.9410121E-06
   maximum displ.:     0.0022531 α      in ANC's #3, #68, #81, ...

........................................................................
.............................. CYCLE   61 ..............................
........................................................................
     iter. time                 ...        0 min,  0.020 sec
 * total energy  :   -48.1456817 Eh     change       -0.8976325E-03 Eh
   gradient norm :     0.0010906 Eh/α   predicted    -0.5066582E-06 ( -99.94%)
   displ. norm   :     0.0035764 α      lambda       -0.1689779E-05
   maximum displ.:     0.0017117 α      in ANC's #68, #32, #67, ...

........................................................................
.............................. CYCLE   62 ..............................
........................................................................
     iter. time                 ...        0 min,  0.020 sec
 * total energy  :   -48.1455190 Eh     change        0.1627398E-03 Eh
   gradient norm :     0.0011083 Eh/α   predicted    -0.8796647E-06 (-100.54%)
   displ. norm   :     0.0039496 α      lambda       -0.1280224E-05
   maximum displ.:     0.0019680 α      in ANC's #68, #53, #67, ...

........................................................................
.............................. CYCLE   63 ..............................
........................................................................
     iter. time                 ...        0 min,  0.020 sec
 * total energy  :   -48.1452438 Eh     change        0.2751613E-03 Eh
   gradient norm :     0.0013231 Eh/α   predicted    -0.7015307E-06 (-100.25%)
   displ. norm   :     0.0056790 α      lambda       -0.2001909E-05
   maximum displ.:     0.0025564 α      in ANC's #3, #53, #67, ...

........................................................................
.............................. CYCLE   64 ..............................
........................................................................
     iter. time                 ...        0 min,  0.020 sec
 * total energy  :   -48.1441244 Eh     change        0.1119406E-02 Eh
   gradient norm :     0.0016348 Eh/α   predicted    -0.1030037E-05 (-100.09%)
   displ. norm   :     0.0227769 α      lambda       -0.5186845E-05
   maximum displ.:     0.0128597 α      in ANC's #3, #53, #28, ...

........................................................................
.............................. CYCLE   65 ..............................
........................................................................
     iter. time                 ...        0 min,  0.020 sec
 * total energy  :   -48.1384964 Eh     change        0.5628089E-02 Eh
   gradient norm :     0.0021589 Eh/α   predicted    -0.2609208E-05 (-100.05%)
   displ. norm   :     0.0287415 α      lambda       -0.7611725E-05
   maximum displ.:     0.0165408 α      in ANC's #3, #53, #28, ...

........................................................................
.............................. CYCLE   66 ..............................
........................................................................
     iter. time                 ...        0 min,  0.020 sec
 * total energy  :   -48.1305508 Eh     change        0.7945590E-02 Eh
   gradient norm :     0.0022899 Eh/α   predicted    -0.3837639E-05 (-100.05%)
   displ. norm   :     0.0612328 α      lambda       -0.1305058E-04
   maximum displ.:     0.0352810 α      in ANC's #3, #53, #28, ...
 * RMSD in coord.:     0.0128130 α      energy gain   0.3005127E-01 Eh

generating ANC from exact Hessian ...
Using GFN-FF Lindh-Hessian
 Shifting diagonal of input Hessian by    9.9948044212029123E-003
 Lowest  eigenvalues of input Hessian
    0.000000    0.000000    0.000000    0.000000    0.010000    0.010004
    0.000000    0.000000    0.010010    0.010022    0.010025    0.010036
    0.010041    0.010049    0.010055    0.010071    0.010116    0.010128
 Highest eigenvalues
    3.370787    3.507019    3.668939    3.705335    4.728759    9.587806


........................................................................
.............................. CYCLE   67 ..............................
........................................................................
     iter. time                 ...        0 min,  0.020 sec
 * total energy  :   -48.1111898 Eh     change        0.1936096E-01 Eh
   gradient norm :     0.0039791 Eh/α   predicted     0.0000000E+00 (-100.00%)
   displ. norm   :     0.0011712 α      lambda       -0.3511436E-05
   maximum displ.:     0.0007443 α      in ANC's #77, #46, #81, ...

........................................................................
.............................. CYCLE   68 ..............................
........................................................................
     iter. time                 ...        0 min,  0.021 sec
 * total energy  :   -48.1111415 Eh     change        0.4832632E-04 Eh
   gradient norm :     0.0033352 Eh/α   predicted    -0.2255719E-05 (-104.67%)
   displ. norm   :     0.0051363 α      lambda       -0.1584723E-04
   maximum displ.:     0.0032057 α      in ANC's #77, #81, #46, ...

........................................................................
.............................. CYCLE   69 ..............................
........................................................................
     iter. time                 ...        0 min,  0.020 sec
 * total energy  :   -48.1108392 Eh     change        0.3022563E-03 Eh
   gradient norm :     0.0025777 Eh/α   predicted    -0.8234335E-05 (-102.72%)
   displ. norm   :     0.0012046 α      lambda       -0.1695425E-05
   maximum displ.:     0.0009341 α      in ANC's #81, #77, #22, ...

........................................................................
.............................. CYCLE   70 ..............................
........................................................................
     iter. time                 ...        0 min,  0.020 sec
 * total energy  :   -48.1107022 Eh     change        0.1370548E-03 Eh
   gradient norm :     0.0027027 Eh/α   predicted    -0.9976280E-06 (-100.73%)
   displ. norm   :     0.0119907 α      lambda       -0.2222793E-04
   maximum displ.:     0.0099785 α      in ANC's #81, #77, #60, ...

........................................................................
.............................. CYCLE   71 ..............................
........................................................................
     iter. time                 ...        0 min,  0.020 sec
 * total energy  :   -48.1091709 Eh     change        0.1531221E-02 Eh
   gradient norm :     0.0041855 Eh/α   predicted    -0.1118044E-04 (-100.73%)
   displ. norm   :     0.0118841 α      lambda       -0.1661050E-04
   maximum displ.:     0.0102333 α      in ANC's #81, #60, #71, ...

........................................................................
.............................. CYCLE   72 ..............................
........................................................................
     iter. time                 ...        0 min,  0.020 sec
 * total energy  :   -48.1075159 Eh     change        0.1655043E-02 Eh
   gradient norm :     0.0048676 Eh/α   predicted    -0.8448722E-05 (-100.51%)
   displ. norm   :     0.0169361 α      lambda       -0.2435750E-04
   maximum displ.:     0.0147093 α      in ANC's #81, #71, #60, ...

........................................................................
.............................. CYCLE   73 ..............................
........................................................................
     iter. time                 ...        0 min,  0.020 sec
 * total energy  :   -48.1050245 Eh     change        0.2491390E-02 Eh
   gradient norm :     0.0041823 Eh/α   predicted    -0.1219448E-04 (-100.49%)
   displ. norm   :     0.0085797 α      lambda       -0.1174105E-04
   maximum displ.:     0.0073245 α      in ANC's #81, #71, #30, ...

........................................................................
.............................. CYCLE   74 ..............................
........................................................................
     iter. time                 ...        0 min,  0.020 sec
 * total energy  :   -48.1036942 Eh     change        0.1330282E-02 Eh
   gradient norm :     0.0023110 Eh/α   predicted    -0.5952559E-05 (-100.45%)
   displ. norm   :     0.0018200 α      lambda       -0.3675045E-05
   maximum displ.:     0.0011934 α      in ANC's #77, #22, #81, ...

........................................................................
.............................. CYCLE   75 ..............................
........................................................................
     iter. time                 ...        0 min,  0.020 sec
 * total energy  :   -48.1035008 Eh     change        0.1934047E-03 Eh
   gradient norm :     0.0009563 Eh/α   predicted    -0.1845969E-05 (-100.95%)
   displ. norm   :     0.0012278 α      lambda        0.1226614E-05
   maximum displ.:     0.0009231 α      in ANC's #77, #22, #81, ...

........................................................................
.............................. CYCLE   76 ..............................
........................................................................
     iter. time                 ...        0 min,  0.020 sec
 * total energy  :   -48.1034464 Eh     change        0.5443062E-04 Eh
   gradient norm :     0.0012365 Eh/α   predicted     0.1471217E-06 ( -99.73%)
   displ. norm   :     0.0012500 α      lambda       -0.9424548E-06
   maximum displ.:     0.0008893 α      in ANC's #77, #22, #60, ...

........................................................................
.............................. CYCLE   77 ..............................
........................................................................
     iter. time                 ...        0 min,  0.020 sec
 * total energy  :   -48.1033797 Eh     change        0.6665777E-04 Eh
   gradient norm :     0.0006745 Eh/α   predicted    -0.4823214E-06 (-100.72%)
   displ. norm   :     0.0008320 α      lambda       -0.2104243E-06
   maximum displ.:     0.0005239 α      in ANC's #60, #77, #3, ...

........................................................................
.............................. CYCLE   78 ..............................
........................................................................
     iter. time                 ...        0 min,  0.020 sec
 * total energy  :   -48.1032192 Eh     change        0.1605784E-03 Eh
   gradient norm :     0.0006799 Eh/α   predicted    -0.1679204E-06 (-100.10%)
   displ. norm   :     0.0036839 α      lambda       -0.1247416E-05
   maximum displ.:     0.0025624 α      in ANC's #60, #3, #4, ...

........................................................................
.............................. CYCLE   79 ..............................
........................................................................
     iter. time                 ...        0 min,  0.020 sec
 * total energy  :   -48.1024338 Eh     change        0.7853177E-03 Eh
   gradient norm :     0.0010103 Eh/α   predicted    -0.6938233E-06 (-100.09%)
   displ. norm   :     0.0052965 α      lambda       -0.1437163E-05
   maximum displ.:     0.0037221 α      in ANC's #60, #3, #4, ...

........................................................................
.............................. CYCLE   80 ..............................
........................................................................
     iter. time                 ...        0 min,  0.020 sec
 * total energy  :   -48.1011927 Eh     change        0.1241144E-02 Eh
   gradient norm :     0.0011879 Eh/α   predicted    -0.7328123E-06 (-100.06%)
   displ. norm   :     0.0072444 α      lambda       -0.1443745E-05
   maximum displ.:     0.0041452 α      in ANC's #60, #3, #81, ...

........................................................................
.............................. CYCLE   81 ..............................
........................................................................
     iter. time                 ...        0 min,  0.020 sec
 * total energy  :   -48.0991075 Eh     change        0.2085236E-02 Eh
   gradient norm :     0.0010583 Eh/α   predicted    -0.7387248E-06 (-100.04%)
   displ. norm   :     0.0042619 α      lambda       -0.4604993E-06
   maximum displ.:     0.0023319 α      in ANC's #60, #3, #4, ...

........................................................................
.............................. CYCLE   82 ..............................
........................................................................
     iter. time                 ...        0 min,  0.020 sec
 * total energy  :   -48.0978247 Eh     change        0.1282711E-02 Eh
   gradient norm :     0.0006877 Eh/α   predicted    -0.3555229E-06 (-100.03%)
   displ. norm   :     0.0028191 α      lambda       -0.2386123E-06
   maximum displ.:     0.0013920 α      in ANC's #60, #3, #4, ...

........................................................................
.............................. CYCLE   83 ..............................
........................................................................
     iter. time                 ...        0 min,  0.020 sec
 * total energy  :   -48.0969266 Eh     change        0.8981728E-03 Eh
   gradient norm :     0.0006370 Eh/α   predicted    -0.1646052E-06 (-100.02%)
   displ. norm   :     0.0031543 α      lambda       -0.3453274E-06
   maximum displ.:     0.0013931 α      in ANC's #3, #60, #4, ...

........................................................................
.............................. CYCLE   84 ..............................
........................................................................
     iter. time                 ...        0 min,  0.020 sec
 * total energy  :   -48.0958886 Eh     change        0.1037965E-02 Eh
   gradient norm :     0.0008000 Eh/α   predicted    -0.2088534E-06 (-100.02%)
   displ. norm   :     0.0068168 α      lambda       -0.1051927E-05
   maximum displ.:     0.0031296 α      in ANC's #3, #4, #29, ...

........................................................................
.............................. CYCLE   85 ..............................
........................................................................
     iter. time                 ...        0 min,  0.020 sec
 * total energy  :   -48.0936282 Eh     change        0.2260376E-02 Eh
   gradient norm :     0.0013418 Eh/α   predicted    -0.5639173E-06 (-100.02%)
   displ. norm   :     0.0141275 α      lambda       -0.2139365E-05
   maximum displ.:     0.0065825 α      in ANC's #3, #4, #29, ...

........................................................................
.............................. CYCLE   86 ..............................
........................................................................
     iter. time                 ...        0 min,  0.020 sec
 * total energy  :   -48.0887847 Eh     change        0.4843569E-02 Eh
   gradient norm :     0.0021097 Eh/α   predicted    -0.1092747E-05 (-100.02%)
   displ. norm   :     0.0163470 α      lambda       -0.3508752E-05
   maximum displ.:     0.0076613 α      in ANC's #3, #4, #29, ...

........................................................................
.............................. CYCLE   87 ..............................
........................................................................
     iter. time                 ...        0 min,  0.020 sec
 * total energy  :   -48.0829490 Eh     change        0.5835669E-02 Eh
   gradient norm :     0.0024798 Eh/α   predicted    -0.1783063E-05 (-100.03%)
   displ. norm   :     0.0372784 α      lambda       -0.7654516E-05
   maximum displ.:     0.0175122 α      in ANC's #3, #4, #29, ...

........................................................................
.............................. CYCLE   88 ..............................
........................................................................
     iter. time                 ...        0 min,  0.020 sec
 * total energy  :   -48.0687591 Eh     change        0.1418989E-01 Eh
   gradient norm :     0.0027725 Eh/α   predicted    -0.3872798E-05 (-100.03%)
   displ. norm   :     0.0165796 α      lambda       -0.3504522E-05
   maximum displ.:     0.0077596 α      in ANC's #3, #4, #29, ...

........................................................................
.............................. CYCLE   89 ..............................
........................................................................
     iter. time                 ...        0 min,  0.020 sec
 * total energy  :   -48.0620523 Eh     change        0.6706804E-02 Eh
   gradient norm :     0.0023129 Eh/α   predicted    -0.1805128E-05 (-100.03%)
   displ. norm   :     0.0130181 α      lambda       -0.5027841E-05
   maximum displ.:     0.0058894 α      in ANC's #3, #4, #67, ...

........................................................................
.............................. CYCLE   90 ..............................
........................................................................
     iter. time                 ...        0 min,  0.020 sec
 * total energy  :   -48.0568485 Eh     change        0.5203849E-02 Eh
   gradient norm :     0.0014853 Eh/α   predicted    -0.2531505E-05 (-100.05%)
   displ. norm   :     0.0062236 α      lambda       -0.1564750E-05
   maximum displ.:     0.0028173 α      in ANC's #3, #4, #67, ...

........................................................................
.............................. CYCLE   91 ..............................
........................................................................
     iter. time                 ...        0 min,  0.020 sec
 * total energy  :   -48.0544036 Eh     change        0.2444882E-02 Eh
   gradient norm :     0.0016388 Eh/α   predicted    -0.7926372E-06 (-100.03%)
   displ. norm   :     0.0059433 α      lambda        0.1580210E-06
   maximum displ.:     0.0026890 α      in ANC's #3, #4, #67, ...

........................................................................
.............................. CYCLE   92 ..............................
........................................................................
     iter. time                 ...        0 min,  0.020 sec
 * total energy  :   -48.0520351 Eh     change        0.2368494E-02 Eh
   gradient norm :     0.0024544 Eh/α   predicted     0.7811633E-07 (-100.00%)
   displ. norm   :     0.0008568 α      lambda       -0.1617442E-05
   maximum displ.:     0.0004861 α      in ANC's #67, #71, #46, ...
 * RMSD in coord.:     0.0103021 α      energy gain   0.7851568E-01 Eh

generating ANC from exact Hessian ...
Using GFN-FF Lindh-Hessian
 Shifting diagonal of input Hessian by    9.9948607018282200E-003
 Lowest  eigenvalues of input Hessian
    0.000000    0.000000    0.000000    0.000000    0.010000    0.010004
    0.000000    0.000000    0.010010    0.010021    0.010025    0.010036
    0.010041    0.010049    0.010056    0.010071    0.010116    0.010127
 Highest eigenvalues
    3.571704    3.640454    3.690933    4.170371    5.441135    9.865956


........................................................................
.............................. CYCLE   93 ..............................
........................................................................
     iter. time                 ...        0 min,  0.021 sec
 * total energy  :   -48.0520773 Eh     change       -0.4217895E-04 Eh
   gradient norm :     0.0032570 Eh/α   predicted     0.0000000E+00 (-100.00%)
   displ. norm   :     0.0010944 α      lambda       -0.3136434E-05
   maximum displ.:     0.0006723 α      in ANC's #67, #28, #76, ...

........................................................................
.............................. CYCLE   94 ..............................
........................................................................
     iter. time                 ...        0 min,  0.020 sec
 * total energy  :   -48.0520334 Eh     change        0.4386587E-04 Eh
   gradient norm :     0.0025346 Eh/α   predicted    -0.1750344E-05 (-103.99%)
   displ. norm   :     0.0039233 α      lambda       -0.9571785E-05
   maximum displ.:     0.0023021 α      in ANC's #67, #28, #76, ...

........................................................................
.............................. CYCLE   95 ..............................
........................................................................
     iter. time                 ...        0 min,  0.020 sec
 * total energy  :   -48.0518308 Eh     change        0.2026189E-03 Eh
   gradient norm :     0.0018213 Eh/α   predicted    -0.4863135E-05 (-102.40%)
   displ. norm   :     0.0016533 α      lambda       -0.1173416E-05
   maximum displ.:     0.0009470 α      in ANC's #28, #67, #80, ...

........................................................................
.............................. CYCLE   96 ..............................
........................................................................
     iter. time                 ...        0 min,  0.020 sec
 * total energy  :   -48.0517082 Eh     change        0.1225656E-03 Eh
   gradient norm :     0.0020107 Eh/α   predicted    -0.6301808E-06 (-100.51%)
   displ. norm   :     0.0057777 α      lambda       -0.7433106E-05
   maximum displ.:     0.0031745 α      in ANC's #28, #80, #61, ...

........................................................................
.............................. CYCLE   97 ..............................
........................................................................
     iter. time                 ...        0 min,  0.020 sec
 * total energy  :   -48.0512461 Eh     change        0.4621173E-03 Eh
   gradient norm :     0.0022643 Eh/α   predicted    -0.3727982E-05 (-100.81%)
   displ. norm   :     0.0101250 α      lambda       -0.9781465E-05
   maximum displ.:     0.0051961 α      in ANC's #28, #80, #61, ...

........................................................................
.............................. CYCLE   98 ..............................
........................................................................
     iter. time                 ...        0 min,  0.020 sec
 * total energy  :   -48.0503748 Eh     change        0.8712668E-03 Eh
   gradient norm :     0.0029322 Eh/α   predicted    -0.4944533E-05 (-100.57%)
   displ. norm   :     0.0061824 α      lambda       -0.4572851E-05
   maximum displ.:     0.0029296 α      in ANC's #80, #28, #61, ...

........................................................................
.............................. CYCLE   99 ..............................
........................................................................
     iter. time                 ...        0 min,  0.020 sec
 * total energy  :   -48.0497991 Eh     change        0.5757318E-03 Eh
   gradient norm :     0.0028377 Eh/α   predicted    -0.2348802E-05 (-100.41%)
   displ. norm   :     0.0095373 α      lambda       -0.8643562E-05
   maximum displ.:     0.0047012 α      in ANC's #80, #61, #28, ...

........................................................................
.............................. CYCLE  100 ..............................
........................................................................
     iter. time                 ...        0 min,  0.020 sec
 * total energy  :   -48.0488604 Eh     change        0.9386902E-03 Eh
   gradient norm :     0.0018317 Eh/α   predicted    -0.4345386E-05 (-100.46%)
   displ. norm   :     0.0054987 α      lambda       -0.2881668E-05
   maximum displ.:     0.0028235 α      in ANC's #80, #67, #61, ...

........................................................................
.............................. CYCLE  101 ..............................
........................................................................
     iter. time                 ...        0 min,  0.020 sec
 * total energy  :   -48.0482920 Eh     change        0.5684332E-03 Eh
   gradient norm :     0.0009287 Eh/α   predicted    -0.1467867E-05 (-100.26%)
   displ. norm   :     0.0021405 α      lambda       -0.1437276E-06
   maximum displ.:     0.0010517 α      in ANC's #28, #61, #80, ...

........................................................................
.............................. CYCLE  102 ..............................
........................................................................
     iter. time                 ...        0 min,  0.020 sec
 * total energy  :   -48.0484534 Eh     change       -0.1613827E-03 Eh
   gradient norm :     0.0006853 Eh/α   predicted    -0.1988485E-06 ( -99.88%)
   displ. norm   :     0.0016121 α      lambda       -0.2454456E-06
   maximum displ.:     0.0008152 α      in ANC's #28, #61, #78, ...

........................................................................
.............................. CYCLE  103 ..............................
........................................................................
     iter. time                 ...        0 min,  0.020 sec
 * total energy  :   -48.0484589 Eh     change       -0.5586707E-05 Eh
   gradient norm :     0.0006227 Eh/α   predicted    -0.1715716E-06 ( -96.93%)
   displ. norm   :     0.0021836 α      lambda       -0.3367176E-06
   maximum displ.:     0.0011526 α      in ANC's #61, #28, #78, ...

........................................................................
.............................. CYCLE  104 ..............................
........................................................................
     iter. time                 ...        0 min,  0.020 sec
 * total energy  :   -48.0483478 Eh     change        0.1111359E-03 Eh
   gradient norm :     0.0007815 Eh/α   predicted    -0.2205614E-06 (-100.20%)
   displ. norm   :     0.0037921 α      lambda       -0.9573669E-06
   maximum displ.:     0.0016107 α      in ANC's #80, #13, #61, ...

........................................................................
.............................. CYCLE  105 ..............................
........................................................................
     iter. time                 ...        0 min,  0.020 sec
 * total energy  :   -48.0477418 Eh     change        0.6059723E-03 Eh
   gradient norm :     0.0011619 Eh/α   predicted    -0.5189272E-06 (-100.09%)
   displ. norm   :     0.0093223 α      lambda       -0.2143706E-05
   maximum displ.:     0.0042024 α      in ANC's #80, #13, #61, ...

........................................................................
.............................. CYCLE  106 ..............................
........................................................................
     iter. time                 ...        0 min,  0.020 sec
 * total energy  :   -48.0461268 Eh     change        0.1615044E-02 Eh
   gradient norm :     0.0014802 Eh/α   predicted    -0.1132564E-05 (-100.07%)
   displ. norm   :     0.0083888 α      lambda       -0.1644894E-05
   maximum displ.:     0.0048856 α      in ANC's #80, #13, #3, ...

........................................................................
.............................. CYCLE  107 ..............................
........................................................................
     iter. time                 ...        0 min,  0.020 sec
 * total energy  :   -48.0444286 Eh     change        0.1698167E-02 Eh
   gradient norm :     0.0012841 Eh/α   predicted    -0.8732480E-06 (-100.05%)
   displ. norm   :     0.0079739 α      lambda       -0.1370815E-05
   maximum displ.:     0.0044621 α      in ANC's #80, #13, #3, ...

........................................................................
.............................. CYCLE  108 ..............................
........................................................................
     iter. time                 ...        0 min,  0.020 sec
 * total energy  :   -48.0427321 Eh     change        0.1696486E-02 Eh
   gradient norm :     0.0006872 Eh/α   predicted    -0.7032693E-06 (-100.04%)
   displ. norm   :     0.0011036 α      lambda       -0.1853252E-06
   maximum displ.:     0.0005150 α      in ANC's #13, #3, #80, ...

........................................................................
.............................. CYCLE  109 ..............................
........................................................................
     iter. time                 ...        0 min,  0.020 sec
 * total energy  :   -48.0424557 Eh     change        0.2764369E-03 Eh
   gradient norm :     0.0006241 Eh/α   predicted    -0.1107067E-06 (-100.04%)
   displ. norm   :     0.0022389 α      lambda       -0.4406498E-06
   maximum displ.:     0.0010224 α      in ANC's #13, #3, #61, ...

........................................................................
.............................. CYCLE  110 ..............................
........................................................................
     iter. time                 ...        0 min,  0.020 sec
 * total energy  :   -48.0418616 Eh     change        0.5941418E-03 Eh
   gradient norm :     0.0008885 Eh/α   predicted    -0.2932285E-06 (-100.05%)
   displ. norm   :     0.0041337 α      lambda       -0.9109636E-06
   maximum displ.:     0.0018376 α      in ANC's #13, #61, #3, ...

........................................................................
.............................. CYCLE  111 ..............................
........................................................................
     iter. time                 ...        0 min,  0.020 sec
 * total energy  :   -48.0407427 Eh     change        0.1118816E-02 Eh
   gradient norm :     0.0014250 Eh/α   predicted    -0.4711675E-06 (-100.04%)
   displ. norm   :     0.0073958 α      lambda       -0.1570696E-05
   maximum displ.:     0.0032701 α      in ANC's #13, #61, #3, ...

........................................................................
.............................. CYCLE  112 ..............................
........................................................................
     iter. time                 ...        0 min,  0.020 sec
 * total energy  :   -48.0386819 Eh     change        0.2060857E-02 Eh
   gradient norm :     0.0018649 Eh/α   predicted    -0.8099367E-06 (-100.04%)
   displ. norm   :     0.0156047 α      lambda       -0.2539120E-05
   maximum displ.:     0.0075405 α      in ANC's #13, #3, #61, ...

........................................................................
.............................. CYCLE  113 ..............................
........................................................................
     iter. time                 ...        0 min,  0.020 sec
 * total energy  :   -48.0339905 Eh     change        0.4691337E-02 Eh
   gradient norm :     0.0019968 Eh/α   predicted    -0.1319749E-05 (-100.03%)
   displ. norm   :     0.0226414 α      lambda       -0.3290964E-05
   maximum displ.:     0.0113929 α      in ANC's #13, #3, #34, ...

........................................................................
.............................. CYCLE  114 ..............................
........................................................................
     iter. time                 ...        0 min,  0.020 sec
 * total energy  :   -48.0267263 Eh     change        0.7264260E-02 Eh
   gradient norm :     0.0017393 Eh/α   predicted    -0.1671304E-05 (-100.02%)
   displ. norm   :     0.0270884 α      lambda       -0.3587049E-05
   maximum displ.:     0.0137890 α      in ANC's #13, #3, #34, ...

........................................................................
.............................. CYCLE  115 ..............................
........................................................................
     iter. time                 ...        0 min,  0.020 sec
 * total energy  :   -48.0175715 Eh     change        0.9154785E-02 Eh
   gradient norm :     0.0015159 Eh/α   predicted    -0.1804075E-05 (-100.02%)
   displ. norm   :     0.0189120 α      lambda       -0.2239163E-05
   maximum displ.:     0.0096333 α      in ANC's #13, #3, #34, ...

........................................................................
.............................. CYCLE  116 ..............................
........................................................................
     iter. time                 ...        0 min,  0.020 sec
 * total energy  :   -48.0109053 Eh     change        0.6666166E-02 Eh
   gradient norm :     0.0018336 Eh/α   predicted    -0.1159369E-05 (-100.02%)
   displ. norm   :     0.0233298 α      lambda       -0.2943783E-05
   maximum displ.:     0.0119128 α      in ANC's #13, #3, #34, ...

........................................................................
.............................. CYCLE  117 ..............................
........................................................................
     iter. time                 ...        0 min,  0.020 sec
 * total energy  :   -48.0021912 Eh     change        0.8714186E-02 Eh
   gradient norm :     0.0025475 Eh/α   predicted    -0.1481966E-05 (-100.02%)
   displ. norm   :     0.0300669 α      lambda       -0.6390453E-05
   maximum displ.:     0.0153742 α      in ANC's #13, #3, #34, ...

........................................................................
.............................. CYCLE  118 ..............................
........................................................................
     iter. time                 ...        0 min,  0.020 sec
 * total energy  :   -47.9902806 Eh     change        0.1191057E-01 Eh
   gradient norm :     0.0032582 Eh/α   predicted    -0.3244612E-05 (-100.03%)
   displ. norm   :     0.1063470 α      lambda       -0.2114522E-04
   maximum displ.:     0.0546843 α      in ANC's #13, #3, #34, ...

........................................................................
.............................. CYCLE  119 ..............................
........................................................................
     iter. time                 ...        0 min,  0.020 sec
 * total energy  :   -47.9420838 Eh     change        0.4819679E-01 Eh
   gradient norm :     0.0053996 Eh/α   predicted    -0.1072134E-04 (-100.02%)
   displ. norm   :     0.1215661 α      lambda       -0.2184256E-04
   maximum displ.:     0.0627744 α      in ANC's #13, #3, #34, ...

........................................................................
.............................. CYCLE  120 ..............................
........................................................................
     iter. time                 ...        0 min,  0.020 sec
 * total energy  :   -47.8757736 Eh     change        0.6631024E-01 Eh
   gradient norm :     0.0070111 Eh/α   predicted    -0.1113181E-04 (-100.02%)
   displ. norm   :     0.3689982 α      lambda       -0.7631817E-04
   maximum displ.:     0.1908434 α      in ANC's #13, #3, #34, ...
 * RMSD in coord.:     0.0501351 α      energy gain   0.1762615E+00 Eh

generating ANC from exact Hessian ...
Using GFN-FF Lindh-Hessian
 Shifting diagonal of input Hessian by    9.9959684134420454E-003
 Lowest  eigenvalues of input Hessian
    0.000000    0.000000    0.000000    0.000000    0.010000    0.010004
    0.000000    0.000000    0.010011    0.010020    0.010024    0.010036
    0.010044    0.010051    0.010056    0.010071    0.010116    0.010126
 Highest eigenvalues
    3.719967    4.246273    5.228934    7.020353    8.989481    9.809732


........................................................................
.............................. CYCLE  121 ..............................
........................................................................
     iter. time                 ...        0 min,  0.020 sec
 * total energy  :   -47.6015612 Eh     change        0.2742124E+00 Eh
   gradient norm :     0.0106277 Eh/α   predicted     0.0000000E+00 (-100.00%)
   displ. norm   :     0.0030958 α      lambda       -0.3004470E-04
   maximum displ.:     0.0025013 α      in ANC's #76, #21, #42, ...

........................................................................
.............................. CYCLE  122 ..............................
........................................................................
     iter. time                 ...        0 min,  0.020 sec
 * total energy  :   -47.6014527 Eh     change        0.1084582E-03 Eh
   gradient norm :     0.0077341 Eh/α   predicted    -0.1621275E-04 (-114.95%)
   displ. norm   :     0.0081250 α      lambda       -0.5916280E-04
   maximum displ.:     0.0068437 α      in ANC's #76, #21, #42, ...

........................................................................
.............................. CYCLE  123 ..............................
........................................................................
     iter. time                 ...        0 min,  0.020 sec
 * total energy  :   -47.6009830 Eh     change        0.4696947E-03 Eh
   gradient norm :     0.0034016 Eh/α   predicted    -0.3098681E-04 (-106.60%)
   displ. norm   :     0.0015984 α      lambda       -0.4219940E-05
   maximum displ.:     0.0010920 α      in ANC's #76, #62, #26, ...

........................................................................
.............................. CYCLE  124 ..............................
........................................................................
     iter. time                 ...        0 min,  0.020 sec
 * total energy  :   -47.6007807 Eh     change        0.2023831E-03 Eh
   gradient norm :     0.0033758 Eh/α   predicted    -0.2163911E-05 (-101.07%)
   displ. norm   :     0.0131734 α      lambda       -0.3659378E-04
   maximum displ.:     0.0070994 α      in ANC's #76, #62, #26, ...

........................................................................
.............................. CYCLE  125 ..............................
........................................................................
     iter. time                 ...        0 min,  0.020 sec
 * total energy  :   -47.5989343 Eh     change        0.1846400E-02 Eh
   gradient norm :     0.0045331 Eh/α   predicted    -0.1836443E-04 (-100.99%)
   displ. norm   :     0.0088172 α      lambda       -0.1578897E-04
   maximum displ.:     0.0048204 α      in ANC's #62, #26, #76, ...

........................................................................
.............................. CYCLE  126 ..............................
........................................................................
     iter. time                 ...        0 min,  0.020 sec
 * total energy  :   -47.5975788 Eh     change        0.1355473E-02 Eh
   gradient norm :     0.0049928 Eh/α   predicted    -0.7911908E-05 (-100.58%)
   displ. norm   :     0.0150330 α      lambda       -0.2643650E-04
   maximum displ.:     0.0082755 α      in ANC's #62, #26, #81, ...

........................................................................
.............................. CYCLE  127 ..............................
........................................................................
     iter. time                 ...        0 min,  0.020 sec
 * total energy  :   -47.5951062 Eh     change        0.2472570E-02 Eh
   gradient norm :     0.0047965 Eh/α   predicted    -0.1325691E-04 (-100.54%)
   displ. norm   :     0.0110537 α      lambda       -0.1772395E-04
   maximum displ.:     0.0061804 α      in ANC's #26, #62, #81, ...

........................................................................
.............................. CYCLE  128 ..............................
........................................................................
     iter. time                 ...        0 min,  0.020 sec
 * total energy  :   -47.5931657 Eh     change        0.1940528E-02 Eh
   gradient norm :     0.0034885 Eh/α   predicted    -0.8902860E-05 (-100.46%)
   displ. norm   :     0.0056455 α      lambda       -0.1014245E-04
   maximum displ.:     0.0034329 α      in ANC's #26, #42, #62, ...

........................................................................
.............................. CYCLE  129 ..............................
........................................................................
     iter. time                 ...        0 min,  0.020 sec
 * total energy  :   -47.5921466 Eh     change        0.1019121E-02 Eh
   gradient norm :     0.0016352 Eh/α   predicted    -0.5086217E-05 (-100.50%)
   displ. norm   :     0.0023932 α      lambda       -0.2095985E-05
   maximum displ.:     0.0015210 α      in ANC's #62, #42, #76, ...

........................................................................
.............................. CYCLE  130 ..............................
........................................................................
     iter. time                 ...        0 min,  0.020 sec
 * total energy  :   -47.5921331 Eh     change        0.1344984E-04 Eh
   gradient norm :     0.0008518 Eh/α   predicted    -0.1085130E-05 (-108.07%)
   displ. norm   :     0.0012465 α      lambda        0.5572902E-06
   maximum displ.:     0.0006880 α      in ANC's #81, #26, #75, ...

........................................................................
.............................. CYCLE  131 ..............................
........................................................................
     iter. time                 ...        0 min,  0.020 sec
 * total energy  :   -47.5918966 Eh     change        0.2365409E-03 Eh
   gradient norm :     0.0010625 Eh/α   predicted     0.2520750E-06 ( -99.89%)
   displ. norm   :     0.0008705 α      lambda       -0.3545385E-06
   maximum displ.:     0.0004352 α      in ANC's #42, #26, #76, ...

........................................................................
.............................. CYCLE  132 ..............................
........................................................................
     iter. time                 ...        0 min,  0.020 sec
 * total energy  :   -47.5918795 Eh     change        0.1706576E-04 Eh
   gradient norm :     0.0006436 Eh/α   predicted    -0.2483178E-06 (-101.46%)
   displ. norm   :     0.0011074 α      lambda       -0.3728835E-06
   maximum displ.:     0.0005369 α      in ANC's #26, #62, #42, ...

........................................................................
.............................. CYCLE  133 ..............................
........................................................................
     iter. time                 ...        0 min,  0.020 sec
 * total energy  :   -47.5916529 Eh     change        0.2265645E-03 Eh
   gradient norm :     0.0006455 Eh/α   predicted    -0.2089527E-06 (-100.09%)
   displ. norm   :     0.0034549 α      lambda       -0.1052086E-05
   maximum displ.:     0.0014080 α      in ANC's #26, #7, #62, ...

........................................................................
.............................. CYCLE  134 ..............................
........................................................................
     iter. time                 ...        0 min,  0.020 sec
 * total energy  :   -47.5907055 Eh     change        0.9474804E-03 Eh
   gradient norm :     0.0010632 Eh/α   predicted    -0.5469319E-06 (-100.06%)
   displ. norm   :     0.0061931 α      lambda       -0.1593938E-05
   maximum displ.:     0.0028737 α      in ANC's #7, #81, #2, ...

........................................................................
.............................. CYCLE  135 ..............................
........................................................................
     iter. time                 ...        0 min,  0.020 sec
 * total energy  :   -47.5883121 Eh     change        0.2393390E-02 Eh
   gradient norm :     0.0015837 Eh/α   predicted    -0.8224155E-06 (-100.03%)
   displ. norm   :     0.0084058 α      lambda       -0.2059791E-05
   maximum displ.:     0.0039886 α      in ANC's #7, #81, #2, ...

........................................................................
.............................. CYCLE  136 ..............................
........................................................................
     iter. time                 ...        0 min,  0.020 sec
 * total energy  :   -47.5849153 Eh     change        0.3396805E-02 Eh
   gradient norm :     0.0015139 Eh/α   predicted    -0.1059987E-05 (-100.03%)
   displ. norm   :     0.0086581 α      lambda       -0.1838370E-05
   maximum displ.:     0.0043335 α      in ANC's #81, #7, #2, ...

........................................................................
.............................. CYCLE  137 ..............................
........................................................................
     iter. time                 ...        0 min,  0.020 sec
 * total energy  :   -47.5810936 Eh     change        0.3821698E-02 Eh
   gradient norm :     0.0011211 Eh/α   predicted    -0.9735110E-06 (-100.03%)
   displ. norm   :     0.0022774 α      lambda       -0.7996693E-06
   maximum displ.:     0.0010790 α      in ANC's #7, #81, #2, ...

........................................................................
.............................. CYCLE  138 ..............................
........................................................................
     iter. time                 ...        0 min,  0.020 sec
 * total energy  :   -47.5800455 Eh     change        0.1048107E-02 Eh
   gradient norm :     0.0008564 Eh/α   predicted    -0.4125183E-06 (-100.04%)
   displ. norm   :     0.0023838 α      lambda       -0.6917414E-06
   maximum displ.:     0.0013329 α      in ANC's #26, #62, #50, ...

........................................................................
.............................. CYCLE  139 ..............................
........................................................................
     iter. time                 ...        0 min,  0.020 sec
 * total energy  :   -47.5797690 Eh     change        0.2764913E-03 Eh
   gradient norm :     0.0009756 Eh/α   predicted    -0.3695917E-06 (-100.13%)
   displ. norm   :     0.0030464 α      lambda       -0.7925615E-06
   maximum displ.:     0.0015003 α      in ANC's #26, #62, #50, ...

........................................................................
.............................. CYCLE  140 ..............................
........................................................................
     iter. time                 ...        0 min,  0.020 sec
 * total energy  :   -47.5792667 Eh     change        0.5022613E-03 Eh
   gradient norm :     0.0010281 Eh/α   predicted    -0.4451009E-06 (-100.09%)
   displ. norm   :     0.0042931 α      lambda       -0.1364296E-05
   maximum displ.:     0.0025324 α      in ANC's #50, #81, #7, ...

........................................................................
.............................. CYCLE  141 ..............................
........................................................................
     iter. time                 ...        0 min,  0.020 sec
 * total energy  :   -47.5780438 Eh     change        0.1222886E-02 Eh
   gradient norm :     0.0011455 Eh/α   predicted    -0.6988326E-06 (-100.06%)
   displ. norm   :     0.0081531 α      lambda       -0.2699565E-05
   maximum displ.:     0.0040637 α      in ANC's #50, #7, #2, ...

........................................................................
.............................. CYCLE  142 ..............................
........................................................................
     iter. time                 ...        0 min,  0.020 sec
 * total energy  :   -47.5746935 Eh     change        0.3350352E-02 Eh
   gradient norm :     0.0011938 Eh/α   predicted    -0.1370420E-05 (-100.04%)
   displ. norm   :     0.0251022 α      lambda       -0.6350958E-05
   maximum displ.:     0.0142461 α      in ANC's #7, #2, #11, ...

........................................................................
.............................. CYCLE  143 ..............................
........................................................................
     iter. time                 ...        0 min,  0.020 sec
 * total energy  :   -47.5612889 Eh     change        0.1340459E-01 Eh
   gradient norm :     0.0012520 Eh/α   predicted    -0.3243176E-05 (-100.02%)
   displ. norm   :     0.0772271 α      lambda       -0.1639065E-04
   maximum displ.:     0.0452091 α      in ANC's #7, #2, #11, ...

........................................................................
.............................. CYCLE  144 ..............................
........................................................................
     iter. time                 ...        0 min,  0.021 sec
 * total energy  :   -47.5152468 Eh     change        0.4604204E-01 Eh
   gradient norm :     0.0020441 Eh/α   predicted    -0.8246313E-05 (-100.02%)
   displ. norm   :     0.0689021 α      lambda       -0.1746265E-04
   maximum displ.:     0.0406591 α      in ANC's #7, #2, #11, ...

........................................................................
.............................. CYCLE  145 ..............................
........................................................................
     iter. time                 ...        0 min,  0.020 sec
 * total energy  :   -47.4691504 Eh     change        0.4609645E-01 Eh
   gradient norm :     0.0024725 Eh/α   predicted    -0.8817725E-05 (-100.02%)
   displ. norm   :     0.1107907 α      lambda       -0.2381062E-04
   maximum displ.:     0.0654017 α      in ANC's #7, #2, #11, ...

........................................................................
.............................. CYCLE  146 ..............................
........................................................................
     iter. time                 ...        0 min,  0.020 sec
 * total energy  :   -47.3855317 Eh     change        0.8361872E-01 Eh
   gradient norm :     0.0028890 Eh/α   predicted    -0.1211502E-04 (-100.01%)
   displ. norm   :     0.0273220 α      lambda       -0.6425801E-05
   maximum displ.:     0.0159346 α      in ANC's #7, #2, #11, ...

........................................................................
.............................. CYCLE  147 ..............................
........................................................................
     iter. time                 ...        0 min,  0.020 sec
 * total energy  :   -47.3634463 Eh     change        0.2208539E-01 Eh
   gradient norm :     0.0027998 Eh/α   predicted    -0.3270811E-05 (-100.01%)
   displ. norm   :     0.0193048 α      lambda       -0.1020402E-04
   maximum displ.:     0.0099576 α      in ANC's #7, #2, #11, ...

........................................................................
.............................. CYCLE  148 ..............................
........................................................................
     iter. time                 ...        0 min,  0.020 sec
 * total energy  :   -47.3493044 Eh     change        0.1414193E-01 Eh
   gradient norm :     0.0027043 Eh/α   predicted    -0.5118874E-05 (-100.04%)
   displ. norm   :     0.0104368 α      lambda       -0.5979401E-05
   maximum displ.:     0.0053912 α      in ANC's #7, #2, #11, ...

........................................................................
.............................. CYCLE  149 ..............................
........................................................................
     iter. time                 ...        0 min,  0.020 sec
 * total energy  :   -47.3413744 Eh     change        0.7929968E-02 Eh
   gradient norm :     0.0027788 Eh/α   predicted    -0.3037549E-05 (-100.04%)
   displ. norm   :     0.0247673 α      lambda       -0.2058333E-04
   maximum displ.:     0.0126121 α      in ANC's #7, #2, #11, ...

........................................................................
.............................. CYCLE  150 ..............................
........................................................................
     iter. time                 ...        0 min,  0.020 sec
 * total energy  :   -47.3221635 Eh     change        0.1921087E-01 Eh
   gradient norm :     0.0033152 Eh/α   predicted    -0.1034239E-04 (-100.05%)
   displ. norm   :     0.0756900 α      lambda       -0.3148391E-04
   maximum displ.:     0.0445745 α      in ANC's #7, #2, #11, ...
 * RMSD in coord.:     0.0305087 α      energy gain   0.5536100E+00 Eh

generating ANC from exact Hessian ...
Using GFN-FF Lindh-Hessian
 Shifting diagonal of input Hessian by    9.9960220268547444E-003
 Lowest  eigenvalues of input Hessian
    0.000000    0.000000    0.000000    0.000000    0.010000    0.010004
    0.000000    0.000000    0.010011    0.010020    0.010023    0.010036
    0.010044    0.010051    0.010057    0.010071    0.010116    0.010125
 Highest eigenvalues
    4.361569    4.456388    5.477874    7.609877    9.986299   10.489163


........................................................................
.............................. CYCLE  151 ..............................
........................................................................
     iter. time                 ...        0 min,  0.020 sec
 * total energy  :   -47.2514858 Eh     change        0.7067770E-01 Eh
   gradient norm :     0.0062258 Eh/α   predicted     0.0000000E+00 (-100.00%)
   displ. norm   :     0.0019720 α      lambda       -0.9003125E-05
   maximum displ.:     0.0011397 α      in ANC's #38, #72, #4, ...

........................................................................
.............................. CYCLE  152 ..............................
........................................................................
     iter. time                 ...        0 min,  0.020 sec
 * total energy  :   -47.2515239 Eh     change       -0.3806987E-04 Eh
   gradient norm :     0.0049094 Eh/α   predicted    -0.5915229E-05 ( -84.46%)
   displ. norm   :     0.0059254 α      lambda       -0.2709312E-04
   maximum displ.:     0.0030748 α      in ANC's #38, #72, #81, ...

........................................................................
.............................. CYCLE  153 ..............................
........................................................................
     iter. time                 ...        0 min,  0.020 sec
 * total energy  :   -47.2516891 Eh     change       -0.1651805E-03 Eh
   gradient norm :     0.0034528 Eh/α   predicted    -0.1391691E-04 ( -91.57%)
   displ. norm   :     0.0017892 α      lambda       -0.4071779E-05
   maximum displ.:     0.0012037 α      in ANC's #81, #72, #75, ...

........................................................................
.............................. CYCLE  154 ..............................
........................................................................
     iter. time                 ...        0 min,  0.020 sec
 * total energy  :   -47.2517967 Eh     change       -0.1076121E-03 Eh
   gradient norm :     0.0034432 Eh/α   predicted    -0.2147365E-05 ( -98.00%)
   displ. norm   :     0.0076347 α      lambda       -0.1914718E-04
   maximum displ.:     0.0057266 α      in ANC's #81, #72, #75, ...

........................................................................
.............................. CYCLE  155 ..............................
........................................................................
     iter. time                 ...        0 min,  0.020 sec
 * total energy  :   -47.2523472 Eh     change       -0.5505315E-03 Eh
   gradient norm :     0.0042574 Eh/α   predicted    -0.9586799E-05 ( -98.26%)
   displ. norm   :     0.0065165 α      lambda       -0.1168414E-04
   maximum displ.:     0.0052949 α      in ANC's #81, #53, #75, ...

........................................................................
.............................. CYCLE  156 ..............................
........................................................................
     iter. time                 ...        0 min,  0.020 sec
 * total energy  :   -47.2528847 Eh     change       -0.5374844E-03 Eh
   gradient norm :     0.0051593 Eh/α   predicted    -0.6097711E-05 ( -98.87%)
   displ. norm   :     0.0148958 α      lambda       -0.2817978E-04
   maximum displ.:     0.0124742 α      in ANC's #81, #53, #23, ...

........................................................................
.............................. CYCLE  157 ..............................
........................................................................
     iter. time                 ...        0 min,  0.020 sec
 * total energy  :   -47.2541650 Eh     change       -0.1280280E-02 Eh
   gradient norm :     0.0064516 Eh/α   predicted    -0.1430587E-04 ( -98.88%)
   displ. norm   :     0.0181629 α      lambda       -0.3178948E-04
   maximum displ.:     0.0154351 α      in ANC's #81, #23, #53, ...

........................................................................
.............................. CYCLE  158 ..............................
........................................................................
     iter. time                 ...        0 min,  0.020 sec
 * total energy  :   -47.2557295 Eh     change       -0.1564565E-02 Eh
   gradient norm :     0.0062822 Eh/α   predicted    -0.1618620E-04 ( -98.97%)
   displ. norm   :     0.0154926 α      lambda       -0.2784515E-04
   maximum displ.:     0.0131123 α      in ANC's #81, #23, #59, ...

........................................................................
.............................. CYCLE  159 ..............................
........................................................................
     iter. time                 ...        0 min,  0.020 sec
 * total energy  :   -47.2570410 Eh     change       -0.1311441E-02 Eh
   gradient norm :     0.0037134 Eh/α   predicted    -0.1395820E-04 ( -98.94%)
   displ. norm   :     0.0032573 α      lambda       -0.8930589E-05
   maximum displ.:     0.0018836 α      in ANC's #81, #72, #59, ...

........................................................................
.............................. CYCLE  160 ..............................
........................................................................
     iter. time                 ...        0 min,  0.020 sec
 * total energy  :   -47.2572321 Eh     change       -0.1911536E-03 Eh
   gradient norm :     0.0012321 Eh/α   predicted    -0.4483751E-05 ( -97.65%)
   displ. norm   :     0.0037186 α      lambda       -0.9536745E-06
   maximum displ.:     0.0027878 α      in ANC's #81, #53, #51, ...

........................................................................
.............................. CYCLE  161 ..............................
........................................................................
     iter. time                 ...        0 min,  0.020 sec
 * total energy  :   -47.2569541 Eh     change        0.2780022E-03 Eh
   gradient norm :     0.0008800 Eh/α   predicted    -0.6971969E-06 (-100.25%)
   displ. norm   :     0.0005518 α      lambda        0.5729476E-07
   maximum displ.:     0.0002813 α      in ANC's #81, #59, #53, ...

........................................................................
.............................. CYCLE  162 ..............................
........................................................................
     iter. time                 ...        0 min,  0.020 sec
 * total energy  :   -47.2569223 Eh     change        0.3181227E-04 Eh
   gradient norm :     0.0006993 Eh/α   predicted    -0.1195512E-06 (-100.38%)
   displ. norm   :     0.0021019 α      lambda       -0.9130298E-06
   maximum displ.:     0.0008235 α      in ANC's #59, #19, #53, ...

........................................................................
.............................. CYCLE  163 ..............................
........................................................................
     iter. time                 ...        0 min,  0.020 sec
 * total energy  :   -47.2568546 Eh     change        0.6775554E-04 Eh
   gradient norm :     0.0008581 Eh/α   predicted    -0.4665536E-06 (-100.69%)
   displ. norm   :     0.0041507 α      lambda       -0.1273751E-05
   maximum displ.:     0.0016532 α      in ANC's #19, #53, #37, ...

........................................................................
.............................. CYCLE  164 ..............................
........................................................................
     iter. time                 ...        0 min,  0.020 sec
 * total energy  :   -47.2567519 Eh     change        0.1026232E-03 Eh
   gradient norm :     0.0014532 Eh/α   predicted    -0.6613322E-06 (-100.64%)
   displ. norm   :     0.0097631 α      lambda       -0.2673275E-05
   maximum displ.:     0.0040558 α      in ANC's #19, #37, #53, ...

........................................................................
.............................. CYCLE  165 ..............................
........................................................................
     iter. time                 ...        0 min,  0.020 sec
 * total energy  :   -47.2565138 Eh     change        0.2380889E-03 Eh
   gradient norm :     0.0021094 Eh/α   predicted    -0.1386498E-05 (-100.58%)
   displ. norm   :     0.0088043 α      lambda       -0.3215042E-05
   maximum displ.:     0.0039048 α      in ANC's #19, #37, #81, ...

........................................................................
.............................. CYCLE  166 ..............................
........................................................................
     iter. time                 ...        0 min,  0.020 sec
 * total energy  :   -47.2564437 Eh     change        0.7016487E-04 Eh
   gradient norm :     0.0021617 Eh/α   predicted    -0.1647152E-05 (-102.35%)
   displ. norm   :     0.0164760 α      lambda       -0.5314669E-05
   maximum displ.:     0.0073746 α      in ANC's #19, #37, #81, ...

........................................................................
.............................. CYCLE  167 ..............................
........................................................................
     iter. time                 ...        0 min,  0.020 sec
 * total energy  :   -47.2561721 Eh     change        0.2716033E-03 Eh
   gradient norm :     0.0017348 Eh/α   predicted    -0.2710837E-05 (-101.00%)
   displ. norm   :     0.0061108 α      lambda       -0.1222911E-05
   maximum displ.:     0.0027977 α      in ANC's #19, #37, #81, ...

........................................................................
.............................. CYCLE  168 ..............................
........................................................................
     iter. time                 ...        0 min,  0.020 sec
 * total energy  :   -47.2560174 Eh     change        0.1546676E-03 Eh
   gradient norm :     0.0010710 Eh/α   predicted    -0.6723220E-06 (-100.43%)
   displ. norm   :     0.0028280 α      lambda       -0.7411663E-06
   maximum displ.:     0.0011203 α      in ANC's #81, #53, #51, ...

........................................................................
.............................. CYCLE  169 ..............................
........................................................................
     iter. time                 ...        0 min,  0.020 sec
 * total energy  :   -47.2560799 Eh     change       -0.6251059E-04 Eh
   gradient norm :     0.0008598 Eh/α   predicted    -0.4172546E-06 ( -99.33%)
   displ. norm   :     0.0028763 α      lambda        0.2259985E-06
   maximum displ.:     0.0011437 α      in ANC's #81, #53, #51, ...

........................................................................
.............................. CYCLE  170 ..............................
........................................................................
     iter. time                 ...        0 min,  0.020 sec
 * total energy  :   -47.2561378 Eh     change       -0.5785704E-04 Eh
   gradient norm :     0.0013495 Eh/α   predicted     0.1128583E-06 (-100.20%)
   displ. norm   :     0.0008776 α      lambda       -0.4094064E-06
   maximum displ.:     0.0004417 α      in ANC's #72, #59, #23, ...

........................................................................
.............................. CYCLE  171 ..............................
........................................................................
     iter. time                 ...        0 min,  0.020 sec
 * total energy  :   -47.2561474 Eh     change       -0.9579953E-05 Eh
   gradient norm :     0.0007845 Eh/α   predicted    -0.2810852E-06 ( -97.07%)
   displ. norm   :     0.0008776 α      lambda        0.0000000E+00
   maximum displ.:     0.0004417 α      in ANC's #72, #59, #23, ...

........................................................................
.............................. CYCLE  172 ..............................
........................................................................
     iter. time                 ...        0 min,  0.020 sec
 * total energy  :   -47.2561563 Eh     change       -0.8942326E-05 Eh
   gradient norm :     0.0007811 Eh/α   predicted     0.3923442E-08 (-100.04%)
   displ. norm   :     0.0043381 α      lambda       -0.5119047E-06
   maximum displ.:     0.0028122 α      in ANC's #81, #19, #37, ...

........................................................................
.............................. CYCLE  173 ..............................
........................................................................
     iter. time                 ...        0 min,  0.020 sec
 * total energy  :   -47.2563211 Eh     change       -0.1648485E-03 Eh
   gradient norm :     0.0007880 Eh/α   predicted    -0.3687532E-06 ( -99.78%)
   displ. norm   :     0.0040411 α      lambda       -0.5615734E-06
   maximum displ.:     0.0019928 α      in ANC's #19, #81, #37, ...

........................................................................
.............................. CYCLE  174 ..............................
........................................................................
     iter. time                 ...        0 min,  0.020 sec
 * total energy  :   -47.2564266 Eh     change       -0.1054035E-03 Eh
   gradient norm :     0.0009391 Eh/α   predicted    -0.4130130E-06 ( -99.61%)
   displ. norm   :     0.0151962 α      lambda       -0.3599021E-05
   maximum displ.:     0.0078754 α      in ANC's #19, #37, #81, ...

........................................................................
.............................. CYCLE  175 ..............................
........................................................................
     iter. time                 ...        0 min,  0.020 sec
 * total energy  :   -47.2565912 Eh     change       -0.1646907E-03 Eh
   gradient norm :     0.0016174 Eh/α   predicted    -0.1933714E-05 ( -98.83%)
   displ. norm   :     0.0222401 α      lambda       -0.5031173E-05
   maximum displ.:     0.0118756 α      in ANC's #19, #37, #53, ...

........................................................................
.............................. CYCLE  176 ..............................
........................................................................
     iter. time                 ...        0 min,  0.020 sec
 * total energy  :   -47.2562855 Eh     change        0.3057918E-03 Eh
   gradient norm :     0.0021098 Eh/α   predicted    -0.2689563E-05 (-100.88%)
   displ. norm   :     0.0265688 α      lambda       -0.7672473E-05
   maximum displ.:     0.0147827 α      in ANC's #19, #37, #40, ...

........................................................................
.............................. CYCLE  177 ..............................
........................................................................
     iter. time                 ...        0 min,  0.020 sec
 * total energy  :   -47.2550709 Eh     change        0.1214515E-02 Eh
   gradient norm :     0.0021765 Eh/α   predicted    -0.4438780E-05 (-100.37%)
   displ. norm   :     0.0442974 α      lambda       -0.1295302E-04
   maximum displ.:     0.0245948 α      in ANC's #19, #37, #40, ...

........................................................................
.............................. CYCLE  178 ..............................
........................................................................
     iter. time                 ...        0 min,  0.020 sec
 * total energy  :   -47.2518617 Eh     change        0.3209190E-02 Eh
   gradient norm :     0.0021035 Eh/α   predicted    -0.8695144E-05 (-100.27%)
   displ. norm   :     0.0318317 α      lambda       -0.7625811E-05
   maximum displ.:     0.0177046 α      in ANC's #19, #37, #40, ...

........................................................................
.............................. CYCLE  179 ..............................
........................................................................
     iter. time                 ...        0 min,  0.020 sec
 * total energy  :   -47.2487424 Eh     change        0.3119328E-02 Eh
   gradient norm :     0.0022217 Eh/α   predicted    -0.4406286E-05 (-100.14%)
   displ. norm   :     0.0336916 α      lambda       -0.6936035E-05
   maximum displ.:     0.0187319 α      in ANC's #19, #37, #40, ...

........................................................................
.............................. CYCLE  180 ..............................
........................................................................
     iter. time                 ...        0 min,  0.020 sec
 * total energy  :   -47.2448393 Eh     change        0.3903138E-02 Eh
   gradient norm :     0.0026613 Eh/α   predicted    -0.4045739E-05 (-100.10%)
   displ. norm   :     0.0361698 α      lambda       -0.8179823E-05
   maximum displ.:     0.0202075 α      in ANC's #19, #37, #40, ...

........................................................................
.............................. CYCLE  181 ..............................
........................................................................
     iter. time                 ...        0 min,  0.020 sec
 * total energy  :   -47.2400604 Eh     change        0.4778897E-02 Eh
   gradient norm :     0.0032890 Eh/α   predicted    -0.4854368E-05 (-100.10%)
   displ. norm   :     0.0491548 α      lambda       -0.1675434E-04
   maximum displ.:     0.0275586 α      in ANC's #19, #37, #40, ...

........................................................................
.............................. CYCLE  182 ..............................
........................................................................
     iter. time                 ...        0 min,  0.019 sec
 * total energy  :   -47.2326595 Eh     change        0.7400846E-02 Eh
   gradient norm :     0.0041332 Eh/α   predicted    -0.1107095E-04 (-100.15%)
   displ. norm   :     0.2822659 α      lambda       -0.1680132E-03
   maximum displ.:     0.1591467 α      in ANC's #19, #37, #40, ...

........................................................................
.............................. CYCLE  183 ..............................
........................................................................
     iter. time                 ...        0 min,  0.020 sec
 * total energy  :   -47.1670880 Eh     change        0.6557153E-01 Eh
   gradient norm :     0.0085641 Eh/α   predicted    -0.5382513E-04 (-100.08%)
   displ. norm   :     0.4287394 α      lambda       -0.2616555E-03
   maximum displ.:     0.2419027 α      in ANC's #19, #37, #40, ...
 * RMSD in coord.:     0.0656967 α      energy gain   0.1550755E+00 Eh

generating ANC from exact Hessian ...
Using GFN-FF Lindh-Hessian
 Shifting diagonal of input Hessian by    9.9934556469631827E-003
 Lowest  eigenvalues of input Hessian
    0.000000    0.000000    0.000000    0.000000    0.000000    0.010000
    0.000000    0.010005    0.010008    0.010015    0.010022    0.010033
    0.010036    0.010045    0.010053    0.010069    0.010109    0.010119
 Highest eigenvalues
    5.260565    6.819938    8.540180    9.820875   10.144560   11.934844


........................................................................
.............................. CYCLE  184 ..............................
........................................................................
     iter. time                 ...        0 min,  0.020 sec
 * total energy  :   -46.9942542 Eh     change        0.1728338E+00 Eh
   gradient norm :     0.0120197 Eh/α   predicted     0.0000000E+00 (-100.00%)
   displ. norm   :     0.0039583 α      lambda       -0.4145112E-04
   maximum displ.:     0.0022046 α      in ANC's #71, #5, #70, ...

........................................................................
.............................. CYCLE  185 ..............................
........................................................................
     iter. time                 ...        0 min,  0.020 sec
 * total energy  :   -46.9943715 Eh     change       -0.1173150E-03 Eh
   gradient norm :     0.0080012 Eh/α   predicted    -0.2321766E-04 ( -80.21%)
   displ. norm   :     0.0073847 α      lambda       -0.5716482E-04
   maximum displ.:     0.0048129 α      in ANC's #71, #5, #70, ...

........................................................................
.............................. CYCLE  186 ..............................
........................................................................
     iter. time                 ...        0 min,  0.020 sec
 * total energy  :   -46.9946646 Eh     change       -0.2930432E-03 Eh
   gradient norm :     0.0034200 Eh/α   predicted    -0.2890101E-04 ( -90.14%)
   displ. norm   :     0.0016696 α      lambda       -0.2701389E-05
   maximum displ.:     0.0011581 α      in ANC's #71, #57, #51, ...

........................................................................
.............................. CYCLE  187 ..............................
........................................................................
     iter. time                 ...        0 min,  0.020 sec
 * total energy  :   -46.9948176 Eh     change       -0.1530370E-03 Eh
   gradient norm :     0.0031408 Eh/α   predicted    -0.2434920E-05 ( -98.41%)
   displ. norm   :     0.0080043 α      lambda       -0.2197705E-04
   maximum displ.:     0.0045779 α      in ANC's #71, #57, #23, ...

........................................................................
.............................. CYCLE  188 ..............................
........................................................................
     iter. time                 ...        0 min,  0.020 sec
 * total energy  :   -46.9956165 Eh     change       -0.7989302E-03 Eh
   gradient norm :     0.0037269 Eh/α   predicted    -0.1100084E-04 ( -98.62%)
   displ. norm   :     0.0051376 α      lambda       -0.8466132E-05
   maximum displ.:     0.0027655 α      in ANC's #57, #23, #71, ...

........................................................................
.............................. CYCLE  189 ..............................
........................................................................
     iter. time                 ...        0 min,  0.020 sec
 * total energy  :   -46.9961596 Eh     change       -0.5431086E-03 Eh
   gradient norm :     0.0044265 Eh/α   predicted    -0.4422365E-05 ( -99.19%)
   displ. norm   :     0.0168698 α      lambda       -0.2994131E-04
   maximum displ.:     0.0097065 α      in ANC's #57, #23, #71, ...

........................................................................
.............................. CYCLE  190 ..............................
........................................................................
     iter. time                 ...        0 min,  0.020 sec
 * total energy  :   -46.9978380 Eh     change       -0.1678336E-02 Eh
   gradient norm :     0.0058949 Eh/α   predicted    -0.1498892E-04 ( -99.11%)
   displ. norm   :     0.0210971 α      lambda       -0.3291822E-04
   maximum displ.:     0.0125935 α      in ANC's #57, #23, #51, ...

........................................................................
.............................. CYCLE  191 ..............................
........................................................................
     iter. time                 ...        0 min,  0.020 sec
 * total energy  :   -46.9996260 Eh     change       -0.1788017E-02 Eh
   gradient norm :     0.0060338 Eh/α   predicted    -0.1648340E-04 ( -99.08%)
   displ. norm   :     0.0215733 α      lambda       -0.3292546E-04
   maximum displ.:     0.0130464 α      in ANC's #57, #23, #58, ...

........................................................................
.............................. CYCLE  192 ..............................
........................................................................
     iter. time                 ...        0 min,  0.020 sec
 * total energy  :   -47.0010840 Eh     change       -0.1458063E-02 Eh
   gradient norm :     0.0039215 Eh/α   predicted    -0.1650838E-04 ( -98.87%)
   displ. norm   :     0.0066664 α      lambda       -0.1150828E-04
   maximum displ.:     0.0037136 α      in ANC's #57, #23, #37, ...

........................................................................
.............................. CYCLE  193 ..............................
........................................................................
     iter. time                 ...        0 min,  0.020 sec
 * total energy  :   -47.0014384 Eh     change       -0.3544053E-03 Eh
   gradient norm :     0.0016177 Eh/α   predicted    -0.5832691E-05 ( -98.35%)
   displ. norm   :     0.0030721 α      lambda       -0.1986392E-05
   maximum displ.:     0.0015634 α      in ANC's #57, #37, #71, ...

........................................................................
.............................. CYCLE  194 ..............................
........................................................................
     iter. time                 ...        0 min,  0.020 sec
 * total energy  :   -47.0013295 Eh     change        0.1089123E-03 Eh
   gradient norm :     0.0010255 Eh/α   predicted    -0.1040242E-05 (-100.96%)
   displ. norm   :     0.0011420 α      lambda        0.7445219E-06
   maximum displ.:     0.0006378 α      in ANC's #23, #70, #71, ...

........................................................................
.............................. CYCLE  195 ..............................
........................................................................
     iter. time                 ...        0 min,  0.020 sec
 * total energy  :   -47.0014442 Eh     change       -0.1147018E-03 Eh
   gradient norm :     0.0011619 Eh/α   predicted     0.3104014E-06 (-100.27%)
   displ. norm   :     0.0010620 α      lambda       -0.3070821E-06
   maximum displ.:     0.0004991 α      in ANC's #23, #70, #37, ...

........................................................................
.............................. CYCLE  196 ..............................
........................................................................
     iter. time                 ...        0 min,  0.020 sec
 * total energy  :   -47.0013731 Eh     change        0.7115672E-04 Eh
   gradient norm :     0.0007113 Eh/α   predicted    -0.2571303E-06 (-100.36%)
   displ. norm   :     0.0007311 α      lambda       -0.2013585E-06
   maximum displ.:     0.0003207 α      in ANC's #57, #23, #80, ...

........................................................................
.............................. CYCLE  197 ..............................
........................................................................
     iter. time                 ...        0 min,  0.020 sec
 * total energy  :   -47.0013530 Eh     change        0.2012742E-04 Eh
   gradient norm :     0.0006489 Eh/α   predicted    -0.1102932E-06 (-100.55%)
   displ. norm   :     0.0018180 α      lambda       -0.4397731E-06
   maximum displ.:     0.0010334 α      in ANC's #80, #19, #57, ...

........................................................................
.............................. CYCLE  198 ..............................
........................................................................
     iter. time                 ...        0 min,  0.020 sec
 * total energy  :   -47.0013719 Eh     change       -0.1899060E-04 Eh
   gradient norm :     0.0007660 Eh/α   predicted    -0.2907596E-06 ( -98.47%)
   displ. norm   :     0.0045134 α      lambda       -0.1180620E-05
   maximum displ.:     0.0028262 α      in ANC's #80, #19, #57, ...

........................................................................
.............................. CYCLE  199 ..............................
........................................................................
     iter. time                 ...        0 min,  0.020 sec
 * total energy  :   -47.0014797 Eh     change       -0.1077491E-03 Eh
   gradient norm :     0.0010836 Eh/α   predicted    -0.6192140E-06 ( -99.43%)
   displ. norm   :     0.0067908 α      lambda       -0.1462830E-05
   maximum displ.:     0.0045858 α      in ANC's #80, #19, #69, ...

........................................................................
.............................. CYCLE  200 ..............................
........................................................................
     iter. time                 ...        0 min,  0.020 sec
 * total energy  :   -47.0018872 Eh     change       -0.4075405E-03 Eh
   gradient norm :     0.0013632 Eh/α   predicted    -0.8133528E-06 ( -99.80%)
   displ. norm   :     0.0078988 α      lambda       -0.1684849E-05
   maximum displ.:     0.0051903 α      in ANC's #80, #19, #69, ...

........................................................................
.............................. CYCLE  201 ..............................
........................................................................
     iter. time                 ...        0 min,  0.020 sec
 * total energy  :   -47.0023843 Eh     change       -0.4970214E-03 Eh
   gradient norm :     0.0010173 Eh/α   predicted    -0.8541751E-06 ( -99.83%)
   displ. norm   :     0.0062137 α      lambda       -0.8972538E-06
   maximum displ.:     0.0038814 α      in ANC's #80, #19, #69, ...

........................................................................
.............................. CYCLE  202 ..............................
........................................................................
     iter. time                 ...        0 min,  0.020 sec
 * total energy  :   -47.0027596 Eh     change       -0.3752987E-03 Eh
   gradient norm :     0.0004950 Eh/α   predicted    -0.4635732E-06 ( -99.88%)
   displ. norm   :     0.0014379 α      lambda       -0.5673974E-07
   maximum displ.:     0.0009421 α      in ANC's #19, #80, #69, ...

........................................................................
.............................. CYCLE  203 ..............................
........................................................................
     iter. time                 ...        0 min,  0.020 sec
 * total energy  :   -47.0028626 Eh     change       -0.1030683E-03 Eh
   gradient norm :     0.0004535 Eh/α   predicted    -0.6004511E-07 ( -99.94%)
   displ. norm   :     0.0019726 α      lambda       -0.1959904E-06
   maximum displ.:     0.0014100 α      in ANC's #19, #80, #69, ...

........................................................................
.............................. CYCLE  204 ..............................
........................................................................
     iter. time                 ...        0 min,  0.020 sec
 * total energy  :   -47.0030182 Eh     change       -0.1555815E-03 Eh
   gradient norm :     0.0005804 Eh/α   predicted    -0.1146642E-06 ( -99.93%)
   displ. norm   :     0.0035826 α      lambda       -0.4901926E-06
   maximum displ.:     0.0026429 α      in ANC's #19, #69, #26, ...

........................................................................
.............................. CYCLE  205 ..............................
........................................................................
     iter. time                 ...        0 min,  0.020 sec
 * total energy  :   -47.0033218 Eh     change       -0.3036154E-03 Eh
   gradient norm :     0.0009728 Eh/α   predicted    -0.2569866E-06 ( -99.92%)
   displ. norm   :     0.0099619 α      lambda       -0.1080505E-05
   maximum displ.:     0.0072994 α      in ANC's #19, #69, #26, ...

........................................................................
.............................. CYCLE  206 ..............................
........................................................................
     iter. time                 ...        0 min,  0.020 sec
 * total energy  :   -47.0040996 Eh     change       -0.7777792E-03 Eh
   gradient norm :     0.0016384 Eh/α   predicted    -0.5645008E-06 ( -99.93%)
   displ. norm   :     0.0133308 α      lambda       -0.1591670E-05
   maximum displ.:     0.0099042 α      in ANC's #19, #69, #26, ...

........................................................................
.............................. CYCLE  207 ..............................
........................................................................
     iter. time                 ...        0 min,  0.020 sec
 * total energy  :   -47.0050294 Eh     change       -0.9297634E-03 Eh
   gradient norm :     0.0020412 Eh/α   predicted    -0.8227574E-06 ( -99.91%)
   displ. norm   :     0.0299520 α      lambda       -0.5456781E-05
   maximum displ.:     0.0231203 α      in ANC's #19, #69, #26, ...

........................................................................
.............................. CYCLE  208 ..............................
........................................................................
     iter. time                 ...        0 min,  0.020 sec
 * total energy  :   -47.0064750 Eh     change       -0.1445605E-02 Eh
   gradient norm :     0.0027557 Eh/α   predicted    -0.2769627E-05 ( -99.81%)
   displ. norm   :     0.1035483 α      lambda       -0.1814503E-04
   maximum displ.:     0.0804384 α      in ANC's #19, #69, #26, ...

........................................................................
.............................. CYCLE  209 ..............................
........................................................................
     iter. time                 ...        0 min,  0.020 sec
 * total energy  :   -47.0056198 Eh     change        0.8551603E-03 Eh
   gradient norm :     0.0045603 Eh/α   predicted    -0.9199694E-05 (-101.08%)
   displ. norm   :     0.1206868 α      lambda       -0.1943871E-04
   maximum displ.:     0.0942014 α      in ANC's #19, #69, #26, ...

........................................................................
.............................. CYCLE  210 ..............................
........................................................................
     iter. time                 ...        0 min,  0.021 sec
 * total energy  :   -46.9933915 Eh     change        0.1222828E-01 Eh
   gradient norm :     0.0058121 Eh/α   predicted    -0.9805679E-05 (-100.08%)
   displ. norm   :     0.3323164 α      lambda       -0.6367098E-04
   maximum displ.:     0.2597687 α      in ANC's #19, #69, #26, ...

........................................................................
.............................. CYCLE  211 ..............................
........................................................................
     iter. time                 ...        0 min,  0.020 sec
 * total energy  :   -46.8983667 Eh     change        0.9502482E-01 Eh
   gradient norm :     0.0077003 Eh/α   predicted    -0.3403022E-04 (-100.04%)
   displ. norm   :     0.4962772 α      lambda       -0.1089138E-03
   maximum displ.:     0.3879507 α      in ANC's #19, #69, #26, ...

........................................................................
.............................. CYCLE  212 ..............................
........................................................................
     iter. time                 ...        0 min,  0.020 sec
 * total energy  :   -46.5781474 Eh     change        0.3202194E+00 Eh
   gradient norm :     0.0084870 Eh/α   predicted    -0.6317307E-04 (-100.02%)
   displ. norm   :     0.5714544 α      lambda       -0.1577193E-03
   maximum displ.:     0.4459908 α      in ANC's #19, #69, #26, ...

........................................................................
.............................. CYCLE  213 ..............................
........................................................................
     iter. time                 ...        0 min,  0.020 sec
 * total energy  :   -45.8223585 Eh     change        0.7557888E+00 Eh
   gradient norm :     0.0073803 Eh/α   predicted    -0.9568619E-04 (-100.01%)
   displ. norm   :     0.3507996 α      lambda       -0.1054106E-03
   maximum displ.:     0.2723980 α      in ANC's #19, #69, #26, ...

........................................................................
.............................. CYCLE  214 ..............................
........................................................................
     iter. time                 ...        0 min,  0.020 sec
 * total energy  :   -44.9489971 Eh     change        0.8733614E+00 Eh
   gradient norm :     0.0071299 Eh/α   predicted    -0.5758878E-04 (-100.01%)
   displ. norm   :     0.0506975 α      lambda       -0.3084740E-04
   maximum displ.:     0.0378146 α      in ANC's #19, #69, #26, ...

........................................................................
.............................. CYCLE  215 ..............................
........................................................................
     iter. time                 ...        0 min,  0.020 sec
 * total energy  :   -44.7849246 Eh     change        0.1640725E+00 Eh
   gradient norm :     0.0074209 Eh/α   predicted    -0.1579524E-04 (-100.01%)
   displ. norm   :     0.0572397 α      lambda       -0.8395247E-04
   maximum displ.:     0.0405178 α      in ANC's #19, #69, #23, ...

........................................................................
.............................. CYCLE  216 ..............................
........................................................................
     iter. time                 ...        0 min,  0.020 sec
 * total energy  :   -44.9571245 Eh     change       -0.1721999E+00 Eh
   gradient norm :     0.0081837 Eh/α   predicted    -0.4060313E-04 ( -99.98%)
   displ. norm   :     0.2015100 α      lambda       -0.1252704E-03
   maximum displ.:     0.1562777 α      in ANC's #19, #69, #26, ...

........................................................................
.............................. CYCLE  217 ..............................
........................................................................
     iter. time                 ...        0 min,  0.020 sec
 * total energy  :   -45.5090202 Eh     change       -0.5518957E+00 Eh
   gradient norm :     0.0085083 Eh/α   predicted    -0.4252924E-04 ( -99.99%)
   displ. norm   :     0.0644063 α      lambda       -0.2752924E-03
   maximum displ.:     0.0455867 α      in ANC's #19, #69, #57, ...

........................................................................
.............................. CYCLE  218 ..............................
........................................................................
     iter. time                 ...        0 min,  0.020 sec
 * total energy  :   -45.3656708 Eh     change        0.1433494E+00 Eh
   gradient norm :     0.0079348 Eh/α   predicted    -0.6040113E-04 (-100.04%)
   displ. norm   :     0.2880803 α      lambda       -0.7589348E-03
   maximum displ.:     0.2207738 α      in ANC's #19, #69, #26, ...

........................................................................
.............................. CYCLE  219 ..............................
........................................................................
     iter. time                 ...        0 min,  0.020 sec
 * total energy  :   -44.4486429 Eh     change        0.9170280E+00 Eh
   gradient norm :     0.0061619 Eh/α   predicted    -0.1387488E-03 (-100.02%)
   displ. norm   :     0.3272155 α      lambda       -0.5888258E-03
   maximum displ.:     0.2556018 α      in ANC's #19, #69, #26, ...
 * RMSD in coord.:     0.1622704 α      energy gain   0.2718445E+01 Eh

generating ANC from exact Hessian ...
Using GFN-FF Lindh-Hessian
 Shifting diagonal of input Hessian by    1.0004455529429012E-002
 Lowest  eigenvalues of input Hessian
    0.010000    0.000000    0.000000    0.000000    0.000000    0.010012
    0.000000    0.000000    0.010019    0.010027    0.010031    0.010042
    0.010050    0.010060    0.010065    0.010075    0.010106    0.010127
 Highest eigenvalues
    7.808889    7.877634    9.375666   11.451896   11.975195   15.136355


........................................................................
.............................. CYCLE  220 ..............................
........................................................................
     iter. time                 ...        0 min,  0.020 sec
 * total energy  :   -42.7128337 Eh     change        0.1735809E+01 Eh
   gradient norm :     0.0061544 Eh/α   predicted     0.0000000E+00 (-100.00%)
   displ. norm   :     0.0021446 α      lambda       -0.1190921E-04
   maximum displ.:     0.0011086 α      in ANC's #63, #14, #4, ...

........................................................................
.............................. CYCLE  221 ..............................
........................................................................
     iter. time                 ...        0 min,  0.020 sec
 * total energy  :   -42.7124107 Eh     change        0.4230445E-03 Eh
   gradient norm :     0.0047340 Eh/α   predicted    -0.6481477E-05 (-101.53%)
   displ. norm   :     0.0069696 α      lambda       -0.3179700E-04
   maximum displ.:     0.0036930 α      in ANC's #63, #14, #4, ...

........................................................................
.............................. CYCLE  222 ..............................
........................................................................
     iter. time                 ...        0 min,  0.020 sec
 * total energy  :   -42.7105640 Eh     change        0.1846658E-02 Eh
   gradient norm :     0.0028549 Eh/α   predicted    -0.1620351E-04 (-100.88%)
   displ. norm   :     0.0018179 α      lambda       -0.3689828E-05
   maximum displ.:     0.0008043 α      in ANC's #18, #63, #17, ...

........................................................................
.............................. CYCLE  223 ..............................
........................................................................
     iter. time                 ...        0 min,  0.020 sec
 * total energy  :   -42.7097467 Eh     change        0.8173018E-03 Eh
   gradient norm :     0.0029724 Eh/α   predicted    -0.1862122E-05 (-100.23%)
   displ. norm   :     0.0152081 α      lambda       -0.2721751E-04
   maximum displ.:     0.0072366 α      in ANC's #18, #17, #37, ...

........................................................................
.............................. CYCLE  224 ..............................
........................................................................
     iter. time                 ...        0 min,  0.020 sec
 * total energy  :   -42.7024066 Eh     change        0.7340094E-02 Eh
   gradient norm :     0.0051226 Eh/α   predicted    -0.1656159E-04 (-100.23%)
   displ. norm   :     0.0162269 α      lambda       -0.2660570E-04
   maximum displ.:     0.0079553 α      in ANC's #18, #17, #37, ...

........................................................................
.............................. CYCLE  225 ..............................
........................................................................
     iter. time                 ...        0 min,  0.020 sec
 * total energy  :   -42.6942603 Eh     change        0.8146295E-02 Eh
   gradient norm :     0.0070002 Eh/α   predicted    -0.1335185E-04 (-100.16%)
   displ. norm   :     0.0366306 α      lambda       -0.6026118E-04
   maximum displ.:     0.0180991 α      in ANC's #18, #17, #37, ...

........................................................................
.............................. CYCLE  226 ..............................
........................................................................
     iter. time                 ...        0 min,  0.020 sec
 * total energy  :   -42.6755262 Eh     change        0.1873408E-01 Eh
   gradient norm :     0.0093490 Eh/α   predicted    -0.3032227E-04 (-100.16%)
   displ. norm   :     0.0438556 α      lambda       -0.6973730E-04
   maximum displ.:     0.0217695 α      in ANC's #18, #17, #37, ...

........................................................................
.............................. CYCLE  227 ..............................
........................................................................
     iter. time                 ...        0 min,  0.020 sec
 * total energy  :   -42.6525137 Eh     change        0.2301249E-01 Eh
   gradient norm :     0.0094771 Eh/α   predicted    -0.3503560E-04 (-100.15%)
   displ. norm   :     0.0413674 α      lambda       -0.6879183E-04
   maximum displ.:     0.0206292 α      in ANC's #18, #17, #67, ...

........................................................................
.............................. CYCLE  228 ..............................
........................................................................
     iter. time                 ...        0 min,  0.020 sec
 * total energy  :   -42.6297423 Eh     change        0.2277148E-01 Eh
   gradient norm :     0.0067269 Eh/α   predicted    -0.3446748E-04 (-100.15%)
   displ. norm   :     0.0143879 α      lambda       -0.3237946E-04
   maximum displ.:     0.0071852 α      in ANC's #18, #17, #67, ...

........................................................................
.............................. CYCLE  229 ..............................
........................................................................
     iter. time                 ...        0 min,  0.020 sec
 * total energy  :   -42.6214765 Eh     change        0.8265792E-02 Eh
   gradient norm :     0.0042724 Eh/α   predicted    -0.1622312E-04 (-100.20%)
   displ. norm   :     0.0039885 α      lambda       -0.1470616E-04
   maximum displ.:     0.0019485 α      in ANC's #4, #63, #37, ...

........................................................................
.............................. CYCLE  230 ..............................
........................................................................
     iter. time                 ...        0 min,  0.020 sec
 * total energy  :   -42.6203436 Eh     change        0.1132821E-02 Eh
   gradient norm :     0.0040844 Eh/α   predicted    -0.7370703E-05 (-100.65%)
   displ. norm   :     0.0054025 α      lambda       -0.1563935E-04
   maximum displ.:     0.0022671 α      in ANC's #37, #14, #4, ...

........................................................................
.............................. CYCLE  231 ..............................
........................................................................
     iter. time                 ...        0 min,  0.020 sec
 * total energy  :   -42.6186021 Eh     change        0.1741555E-02 Eh
   gradient norm :     0.0049833 Eh/α   predicted    -0.7838177E-05 (-100.45%)
   displ. norm   :     0.0173316 α      lambda       -0.3582238E-04
   maximum displ.:     0.0092939 α      in ANC's #18, #17, #67, ...

........................................................................
.............................. CYCLE  232 ..............................
........................................................................
     iter. time                 ...        0 min,  0.020 sec
 * total energy  :   -42.6087018 Eh     change        0.9900334E-02 Eh
   gradient norm :     0.0073757 Eh/α   predicted    -0.1793039E-04 (-100.18%)
   displ. norm   :     0.0517907 α      lambda       -0.8160472E-04
   maximum displ.:     0.0297553 α      in ANC's #18, #17, #67, ...

........................................................................
.............................. CYCLE  233 ..............................
........................................................................
     iter. time                 ...        0 min,  0.020 sec
 * total energy  :   -42.5751367 Eh     change        0.3356509E-01 Eh
   gradient norm :     0.0116597 Eh/α   predicted    -0.4097201E-04 (-100.12%)
   displ. norm   :     0.1332195 α      lambda       -0.1829727E-03
   maximum displ.:     0.0776329 α      in ANC's #18, #17, #67, ...

........................................................................
.............................. CYCLE  234 ..............................
........................................................................
     iter. time                 ...        0 min,  0.020 sec
 * total energy  :   -42.4757433 Eh     change        0.9939340E-01 Eh
   gradient norm :     0.0178689 Eh/α   predicted    -0.9310681E-04 (-100.09%)
   displ. norm   :     0.2811036 α      lambda       -0.3660406E-03
   maximum displ.:     0.1645256 α      in ANC's #18, #17, #67, ...

........................................................................
.............................. CYCLE  235 ..............................
........................................................................
     iter. time                 ...        0 min,  0.020 sec
 * total energy  :   -42.2048529 Eh     change        0.2708904E+00 Eh
   gradient norm :     0.0242650 Eh/α   predicted    -0.1971797E-03 (-100.07%)
   displ. norm   :     0.4495690 α      lambda       -0.6062582E-03
   maximum displ.:     0.2636109 α      in ANC's #18, #17, #67, ...

........................................................................
.............................. CYCLE  236 ..............................
........................................................................
     iter. time                 ...        0 min,  0.020 sec
 * total energy  :   -41.6411008 Eh     change        0.5637521E+00 Eh
   gradient norm :     0.0260034 Eh/α   predicted    -0.3630124E-03 (-100.06%)
   displ. norm   :     0.5235959 α      lambda       -0.7678409E-03
   maximum displ.:     0.3072859 α      in ANC's #18, #17, #67, ...

........................................................................
.............................. CYCLE  237 ..............................
........................................................................
     iter. time                 ...        0 min,  0.020 sec
 * total energy  :   -40.7075772 Eh     change        0.9335235E+00 Eh
   gradient norm :     0.0187029 Eh/α   predicted    -0.4867382E-03 (-100.05%)
   displ. norm   :     0.4403690 α      lambda       -0.4981667E-03
   maximum displ.:     0.2583168 α      in ANC's #18, #17, #67, ...

........................................................................
.............................. CYCLE  238 ..............................
........................................................................
     iter. time                 ...        0 min,  0.020 sec
 * total energy  :   -40.0502418 Eh     change        0.6573354E+00 Eh
   gradient norm :     0.0095963 Eh/α   predicted    -0.2965182E-03 (-100.05%)
   displ. norm   :     0.2061646 α      lambda       -0.9222634E-04
   maximum displ.:     0.1207468 α      in ANC's #18, #17, #67, ...

........................................................................
.............................. CYCLE  239 ..............................
........................................................................
     iter. time                 ...        0 min,  0.020 sec
 * total energy  :   -39.9326580 Eh     change        0.1175839E+00 Eh
   gradient norm :     0.0063090 Eh/α   predicted    -0.4809530E-04 (-100.04%)
   displ. norm   :     0.0549349 α      lambda       -0.2104416E-04
   maximum displ.:     0.0320261 α      in ANC's #18, #17, #67, ...

........................................................................
.............................. CYCLE  240 ..............................
........................................................................
     iter. time                 ...        0 min,  0.020 sec
 * total energy  :   -39.9261302 Eh     change        0.6527795E-02 Eh
   gradient norm :     0.0044386 Eh/α   predicted    -0.1060545E-04 (-100.16%)
   displ. norm   :     0.0145412 α      lambda       -0.1734888E-04
   maximum displ.:     0.0078260 α      in ANC's #18, #17, #67, ...

........................................................................
.............................. CYCLE  241 ..............................
........................................................................
     iter. time                 ...        0 min,  0.020 sec
 * total energy  :   -39.9261431 Eh     change       -0.1294963E-04 Eh
   gradient norm :     0.0035001 Eh/α   predicted    -0.8694882E-05 ( -32.86%)
   displ. norm   :     0.0125686 α      lambda       -0.9015332E-05
   maximum displ.:     0.0064212 α      in ANC's #18, #17, #37, ...

........................................................................
.............................. CYCLE  242 ..............................
........................................................................
     iter. time                 ...        0 min,  0.020 sec
 * total energy  :   -39.9270416 Eh     change       -0.8985079E-03 Eh
   gradient norm :     0.0036902 Eh/α   predicted    -0.4545170E-05 ( -99.49%)
   displ. norm   :     0.0138571 α      lambda       -0.9905548E-05
   maximum displ.:     0.0069710 α      in ANC's #18, #17, #37, ...

........................................................................
.............................. CYCLE  243 ..............................
........................................................................
     iter. time                 ...        0 min,  0.020 sec
 * total energy  :   -39.9287841 Eh     change       -0.1742490E-02 Eh
   gradient norm :     0.0039478 Eh/α   predicted    -0.4985809E-05 ( -99.71%)
   displ. norm   :     0.0147802 α      lambda       -0.1295135E-04
   maximum displ.:     0.0072015 α      in ANC's #18, #37, #17, ...

........................................................................
.............................. CYCLE  244 ..............................
........................................................................
     iter. time                 ...        0 min,  0.020 sec
 * total energy  :   -39.9315049 Eh     change       -0.2720746E-02 Eh
   gradient norm :     0.0041663 Eh/α   predicted    -0.6527151E-05 ( -99.76%)
   displ. norm   :     0.0144156 α      lambda       -0.1533495E-04
   maximum displ.:     0.0067422 α      in ANC's #18, #37, #17, ...

........................................................................
.............................. CYCLE  245 ..............................
........................................................................
     iter. time                 ...        0 min,  0.020 sec
 * total energy  :   -39.9348919 Eh     change       -0.3387082E-02 Eh
   gradient norm :     0.0040084 Eh/α   predicted    -0.7685130E-05 ( -99.77%)
   displ. norm   :     0.0121957 α      lambda       -0.1340246E-04
   maximum displ.:     0.0056967 α      in ANC's #79, #18, #17, ...

........................................................................
.............................. CYCLE  246 ..............................
........................................................................
     iter. time                 ...        0 min,  0.020 sec
 * total energy  :   -39.9380931 Eh     change       -0.3201187E-02 Eh
   gradient norm :     0.0031141 Eh/α   predicted    -0.6716123E-05 ( -99.79%)
   displ. norm   :     0.0069585 α      lambda       -0.6677209E-05
   maximum displ.:     0.0035461 α      in ANC's #79, #18, #17, ...

........................................................................
.............................. CYCLE  247 ..............................
........................................................................
     iter. time                 ...        0 min,  0.020 sec
 * total energy  :   -39.9400416 Eh     change       -0.1948470E-02 Eh
   gradient norm :     0.0020693 Eh/α   predicted    -0.3351918E-05 ( -99.83%)
   displ. norm   :     0.0024726 α      lambda       -0.2898284E-05
   maximum displ.:     0.0013470 α      in ANC's #79, #18, #4, ...

........................................................................
.............................. CYCLE  248 ..............................
........................................................................
     iter. time                 ...        0 min,  0.020 sec
 * total energy  :   -39.9407338 Eh     change       -0.6921816E-03 Eh
   gradient norm :     0.0016790 Eh/α   predicted    -0.1464597E-05 ( -99.79%)
   displ. norm   :     0.0031560 α      lambda       -0.2013399E-05
   maximum displ.:     0.0019266 α      in ANC's #79, #4, #37, ...

........................................................................
.............................. CYCLE  249 ..............................
........................................................................
     iter. time                 ...        0 min,  0.020 sec
 * total energy  :   -39.9417979 Eh     change       -0.1064106E-02 Eh
   gradient norm :     0.0020934 Eh/α   predicted    -0.1017278E-05 ( -99.90%)
   displ. norm   :     0.0022098 α      lambda       -0.2145469E-05
   maximum displ.:     0.0015323 α      in ANC's #79, #37, #67, ...

........................................................................
.............................. CYCLE  250 ..............................
........................................................................
     iter. time                 ...        0 min,  0.020 sec
 * total energy  :   -39.9428148 Eh     change       -0.1016894E-02 Eh
   gradient norm :     0.0022082 Eh/α   predicted    -0.1118132E-05 ( -99.89%)
   displ. norm   :     0.0149717 α      lambda       -0.1635460E-04
   maximum displ.:     0.0126774 α      in ANC's #79, #37, #67, ...

........................................................................
.............................. CYCLE  251 ..............................
........................................................................
     iter. time                 ...        0 min,  0.020 sec
 * total energy  :   -39.9498790 Eh     change       -0.7064254E-02 Eh
   gradient norm :     0.0029204 Eh/α   predicted    -0.8215651E-05 ( -99.88%)
   displ. norm   :     0.0060110 α      lambda       -0.4473950E-05
   maximum displ.:     0.0054724 α      in ANC's #79, #6, #67, ...

........................................................................
.............................. CYCLE  252 ..............................
........................................................................
     iter. time                 ...        0 min,  0.020 sec
 * total energy  :   -39.9530622 Eh     change       -0.3183202E-02 Eh
   gradient norm :     0.0023265 Eh/α   predicted    -0.2254877E-05 ( -99.93%)
   displ. norm   :     0.0056208 α      lambda       -0.5018478E-05
   maximum displ.:     0.0044552 α      in ANC's #79, #65, #45, ...

........................................................................
.............................. CYCLE  253 ..............................
........................................................................
     iter. time                 ...        0 min,  0.020 sec
 * total energy  :   -39.9562748 Eh     change       -0.3212570E-02 Eh
   gradient norm :     0.0006793 Eh/α   predicted    -0.2523595E-05 ( -99.92%)
   displ. norm   :     0.0015967 α      lambda        0.4629688E-06
   maximum displ.:     0.0010850 α      in ANC's #79, #4, #65, ...

........................................................................
.............................. CYCLE  254 ..............................
........................................................................
     iter. time                 ...        0 min,  0.020 sec
 * total energy  :   -39.9560034 Eh     change        0.2713995E-03 Eh
   gradient norm :     0.0008723 Eh/α   predicted     0.2314287E-06 ( -99.91%)
   displ. norm   :     0.0023241 α      lambda       -0.6952811E-06
   maximum displ.:     0.0020737 α      in ANC's #79, #65, #4, ...

........................................................................
.............................. CYCLE  255 ..............................
........................................................................
     iter. time                 ...        0 min,  0.020 sec
 * total energy  :   -39.9559720 Eh     change        0.3140859E-04 Eh
   gradient norm :     0.0002279 Eh/α   predicted    -0.3557766E-06 (-101.13%)
   displ. norm   :     0.0005253 α      lambda        0.9717348E-07
   maximum displ.:     0.0002421 α      in ANC's #67, #45, #65, ...

........................................................................
.............................. CYCLE  256 ..............................
........................................................................
     iter. time                 ...        0 min,  0.020 sec
 * total energy  :   -39.9567366 Eh     change       -0.7646386E-03 Eh
   gradient norm :     0.0004027 Eh/α   predicted     0.4846766E-07 (-100.01%)
   displ. norm   :     0.0004673 α      lambda        0.7790925E-07
   maximum displ.:     0.0003453 α      in ANC's #37, #79, #67, ...

........................................................................
.............................. CYCLE  257 ..............................
........................................................................
     iter. time                 ...        0 min,  0.020 sec
 * total energy  :   -39.9575355 Eh     change       -0.7988963E-03 Eh
   gradient norm :     0.0004241 Eh/α   predicted     0.2281657E-07 (-100.00%)
   displ. norm   :     0.0004538 α      lambda       -0.9112773E-07
   maximum displ.:     0.0002120 α      in ANC's #37, #28, #65, ...

........................................................................
.............................. CYCLE  258 ..............................
........................................................................
     iter. time                 ...        0 min,  0.020 sec
 * total energy  :   -39.9581613 Eh     change       -0.6258150E-03 Eh
   gradient norm :     0.0002689 Eh/α   predicted    -0.5175683E-07 ( -99.99%)
   displ. norm   :     0.0009855 α      lambda       -0.1135186E-06
   maximum displ.:     0.0007296 α      in ANC's #67, #18, #45, ...
 * RMSD in coord.:     0.1535352 α      energy gain   0.4490482E+01 Eh

generating ANC from exact Hessian ...
Using GFN-FF Lindh-Hessian
 Shifting diagonal of input Hessian by    1.0005579284588994E-002
 Lowest  eigenvalues of input Hessian
    0.010000    0.000000    0.000000    0.000000    0.000000    0.010010
    0.000000    0.000000    0.010020    0.010022    0.010031    0.010036
    0.010042    0.010052    0.010062    0.010069    0.010088    0.010097
 Highest eigenvalues
    8.010591    8.196738    9.434748   12.600378   15.656972   16.668723


........................................................................
.............................. CYCLE  259 ..............................
........................................................................
     iter. time                 ...        0 min,  0.021 sec
 * total energy  :   -39.9612977 Eh     change       -0.3136353E-02 Eh
   gradient norm :     0.0017844 Eh/α   predicted     0.0000000E+00 (-100.00%)
   displ. norm   :     0.0009514 α      lambda       -0.1091524E-05
   maximum displ.:     0.0006041 α      in ANC's #31, #40, #64, ...

........................................................................
.............................. CYCLE  260 ..............................
........................................................................
     iter. time                 ...        0 min,  0.020 sec
 * total energy  :   -39.9612831 Eh     change        0.1455322E-04 Eh
   gradient norm :     0.0008167 Eh/α   predicted    -0.5624658E-06 (-103.86%)
   displ. norm   :     0.0007416 α      lambda       -0.3698337E-06
   maximum displ.:     0.0004165 α      in ANC's #31, #40, #64, ...

........................................................................
.............................. CYCLE  261 ..............................
........................................................................
     iter. time                 ...        0 min,  0.020 sec
 * total energy  :   -39.9612606 Eh     change        0.2254738E-04 Eh
   gradient norm :     0.0004195 Eh/α   predicted    -0.1990082E-06 (-100.88%)
   displ. norm   :     0.0006173 α      lambda        0.2068098E-06
   maximum displ.:     0.0003712 α      in ANC's #31, #40, #64, ...

........................................................................
.............................. CYCLE  262 ..............................
........................................................................
     iter. time                 ...        0 min,  0.020 sec
 * total energy  :   -39.9612450 Eh     change        0.1561119E-04 Eh
   gradient norm :     0.0008100 Eh/α   predicted     0.9663739E-07 ( -99.38%)
   displ. norm   :     0.0005102 α      lambda        0.1790839E-06
   maximum displ.:     0.0003617 α      in ANC's #31, #40, #15, ...

........................................................................
.............................. CYCLE  263 ..............................
........................................................................
     iter. time                 ...        0 min,  0.020 sec
 * total energy  :   -39.9612514 Eh     change       -0.6416822E-05 Eh
   gradient norm :     0.0003702 Eh/α   predicted    -0.1229676E-06 ( -98.08%)
   displ. norm   :     0.0003015 α      lambda        0.9922558E-07
   maximum displ.:     0.0002118 α      in ANC's #31, #40, #45, ...

........................................................................
.............................. CYCLE  264 ..............................
........................................................................
     iter. time                 ...        0 min,  0.020 sec
 * total energy  :   -39.9612576 Eh     change       -0.6207110E-05 Eh
   gradient norm :     0.0004017 Eh/α   predicted     0.2724621E-07 (-100.44%)
   displ. norm   :     0.0004126 α      lambda       -0.8840424E-07
   maximum displ.:     0.0002086 α      in ANC's #45, #31, #40, ...

........................................................................
.............................. CYCLE  265 ..............................
........................................................................
     iter. time                 ...        0 min,  0.020 sec
 * total energy  :   -39.9612419 Eh     change        0.1571246E-04 Eh
   gradient norm :     0.0003327 Eh/α   predicted    -0.5508936E-07 (-100.35%)
   displ. norm   :     0.0007452 α      lambda       -0.1160487E-06
   maximum displ.:     0.0004431 α      in ANC's #45, #15, #66, ...

........................................................................
.............................. CYCLE  266 ..............................
........................................................................
     iter. time                 ...        0 min,  0.020 sec
 * total energy  :   -39.9612075 Eh     change        0.3439011E-04 Eh
   gradient norm :     0.0004056 Eh/α   predicted    -0.6962130E-07 (-100.20%)
   displ. norm   :     0.0014706 α      lambda       -0.2059423E-06
   maximum displ.:     0.0009003 α      in ANC's #45, #15, #66, ...

........................................................................
.............................. CYCLE  267 ..............................
........................................................................
     iter. time                 ...        0 min,  0.020 sec
 * total energy  :   -39.9611343 Eh     change        0.7322594E-04 Eh
   gradient norm :     0.0004424 Eh/α   predicted    -0.1177310E-06 (-100.16%)
   displ. norm   :     0.0010167 α      lambda       -0.6457213E-07
   maximum displ.:     0.0006175 α      in ANC's #15, #45, #66, ...

........................................................................
.............................. CYCLE  268 ..............................
........................................................................
     iter. time                 ...        0 min,  0.020 sec
 * total energy  :   -39.9610735 Eh     change        0.6081340E-04 Eh
   gradient norm :     0.0003255 Eh/α   predicted    -0.7255197E-07 (-100.12%)
   displ. norm   :     0.0009009 α      lambda       -0.5082891E-07
   maximum displ.:     0.0005716 α      in ANC's #15, #45, #66, ...

........................................................................
.............................. CYCLE  269 ..............................
........................................................................
     iter. time                 ...        0 min,  0.020 sec
 * total energy  :   -39.9609983 Eh     change        0.7521226E-04 Eh
   gradient norm :     0.0001688 Eh/α   predicted    -0.3949404E-07 (-100.05%)
   displ. norm   :     0.0003526 α      lambda        0.3434010E-07
   maximum displ.:     0.0002353 α      in ANC's #15, #45, #66, ...

........................................................................
.............................. CYCLE  270 ..............................
........................................................................
     iter. time                 ...        0 min,  0.020 sec
 * total energy  :   -39.9609818 Eh     change        0.1647623E-04 Eh
   gradient norm :     0.0001803 Eh/α   predicted     0.5967455E-08 ( -99.96%)
   displ. norm   :     0.0004805 α      lambda        0.4002823E-07
   maximum displ.:     0.0002926 α      in ANC's #15, #45, #66, ...

........................................................................
.............................. CYCLE  271 ..............................
........................................................................
     iter. time                 ...        0 min,  0.020 sec
 * total energy  :   -39.9609398 Eh     change        0.4202177E-04 Eh
   gradient norm :     0.0002324 Eh/α   predicted     0.1615870E-07 ( -99.96%)
   displ. norm   :     0.0006236 α      lambda        0.5723144E-07
   maximum displ.:     0.0003806 α      in ANC's #45, #15, #39, ...

........................................................................
.............................. CYCLE  272 ..............................
........................................................................
     iter. time                 ...        0 min,  0.020 sec
 * total energy  :   -39.9608656 Eh     change        0.7419109E-04 Eh
   gradient norm :     0.0002612 Eh/α   predicted     0.2329978E-07 ( -99.97%)
   displ. norm   :     0.0007379 α      lambda        0.7259170E-07
   maximum displ.:     0.0004385 α      in ANC's #45, #15, #39, ...

........................................................................
.............................. CYCLE  273 ..............................
........................................................................
     iter. time                 ...        0 min,  0.020 sec
 * total energy  :   -39.9607642 Eh     change        0.1013605E-03 Eh
   gradient norm :     0.0002778 Eh/α   predicted     0.3396981E-07 ( -99.97%)
   displ. norm   :     0.0007783 α      lambda        0.1060688E-06
   maximum displ.:     0.0004564 α      in ANC's #45, #15, #39, ...

........................................................................
.............................. CYCLE  274 ..............................
........................................................................
     iter. time                 ...        0 min,  0.020 sec
 * total energy  :   -39.9606521 Eh     change        0.1121312E-03 Eh
   gradient norm :     0.0003037 Eh/α   predicted     0.5278471E-07 ( -99.95%)
   displ. norm   :     0.0007921 α      lambda        0.1501013E-06
   maximum displ.:     0.0004617 α      in ANC's #45, #15, #39, ...

........................................................................
.............................. CYCLE  275 ..............................
........................................................................
     iter. time                 ...        0 min,  0.020 sec
 * total energy  :   -39.9605354 Eh     change        0.1166290E-03 Eh
   gradient norm :     0.0003412 Eh/α   predicted     0.7501244E-07 ( -99.94%)
   displ. norm   :     0.0008162 α      lambda        0.1959360E-06
   maximum displ.:     0.0004695 α      in ANC's #45, #15, #39, ...

........................................................................
.............................. CYCLE  276 ..............................
........................................................................
     iter. time                 ...        0 min,  0.020 sec
 * total energy  :   -39.9604105 Eh     change        0.1249698E-03 Eh
   gradient norm :     0.0003844 Eh/α   predicted     0.9779640E-07 ( -99.92%)
   displ. norm   :     0.0008514 α      lambda        0.2424266E-06
   maximum displ.:     0.0004789 α      in ANC's #45, #15, #39, ...

........................................................................
.............................. CYCLE  277 ..............................
........................................................................
     iter. time                 ...        0 min,  0.020 sec
 * total energy  :   -39.9602720 Eh     change        0.1384868E-03 Eh
   gradient norm :     0.0004276 Eh/α   predicted     0.1207109E-06 ( -99.91%)
   displ. norm   :     0.0008919 α      lambda        0.2891120E-06
   maximum displ.:     0.0004881 α      in ANC's #45, #15, #39, ...

........................................................................
.............................. CYCLE  278 ..............................
........................................................................
     iter. time                 ...        0 min,  0.020 sec
 * total energy  :   -39.9601167 Eh     change        0.1553342E-03 Eh
   gradient norm :     0.0004668 Eh/α   predicted     0.1437785E-06 ( -99.91%)
   displ. norm   :     0.0009316 α      lambda        0.3366701E-06
   maximum displ.:     0.0004966 α      in ANC's #45, #15, #39, ...

........................................................................
.............................. CYCLE  279 ..............................
........................................................................
     iter. time                 ...        0 min,  0.020 sec
 * total energy  :   -39.9599432 Eh     change        0.1734307E-03 Eh
   gradient norm :     0.0005015 Eh/α   predicted     0.1675439E-06 ( -99.90%)
   displ. norm   :     0.0009665 α      lambda        0.3866413E-06
   maximum displ.:     0.0005040 α      in ANC's #45, #39, #15, ...

........................................................................
.............................. CYCLE  280 ..............................
........................................................................
     iter. time                 ...        0 min,  0.020 sec
 * total energy  :   -39.9597523 Eh     change        0.1909420E-03 Eh
   gradient norm :     0.0005335 Eh/α   predicted     0.1927134E-06 ( -99.90%)
   displ. norm   :     0.0009961 α      lambda        0.4399757E-06
   maximum displ.:     0.0005105 α      in ANC's #45, #39, #15, ...

........................................................................
.............................. CYCLE  281 ..............................
........................................................................
     iter. time                 ...        0 min,  0.020 sec
 * total energy  :   -39.9595447 Eh     change        0.2075845E-03 Eh
   gradient norm :     0.0005651 Eh/α   predicted     0.2195465E-06 ( -99.89%)
   displ. norm   :     0.0010248 α      lambda        0.4964699E-06
   maximum displ.:     0.0005211 α      in ANC's #39, #45, #15, ...

........................................................................
.............................. CYCLE  282 ..............................
........................................................................
     iter. time                 ...        0 min,  0.020 sec
 * total energy  :   -39.9593190 Eh     change        0.2257232E-03 Eh
   gradient norm :     0.0005972 Eh/α   predicted     0.2478008E-06 ( -99.89%)
   displ. norm   :     0.0010588 α      lambda        0.5555248E-06
   maximum displ.:     0.0005507 α      in ANC's #39, #45, #15, ...

........................................................................
.............................. CYCLE  283 ..............................
........................................................................
     iter. time                 ...        0 min,  0.020 sec
 * total energy  :   -39.9590692 Eh     change        0.2497268E-03 Eh
   gradient norm :     0.0006297 Eh/α   predicted     0.2771112E-06 ( -99.89%)
   displ. norm   :     0.0011031 α      lambda        0.6167446E-06
   maximum displ.:     0.0005869 α      in ANC's #39, #45, #15, ...

........................................................................
.............................. CYCLE  284 ..............................
........................................................................
     iter. time                 ...        0 min,  0.020 sec
 * total energy  :   -39.9587847 Eh     change        0.2845065E-03 Eh
   gradient norm :     0.0006617 Eh/α   predicted     0.3071890E-06 ( -99.89%)
   displ. norm   :     0.0011606 α      lambda        0.6798377E-06
   maximum displ.:     0.0006296 α      in ANC's #39, #45, #35, ...

........................................................................
.............................. CYCLE  285 ..............................
........................................................................
     iter. time                 ...        0 min,  0.020 sec
 * total energy  :   -39.9584504 Eh     change        0.3343062E-03 Eh
   gradient norm :     0.0006926 Eh/α   predicted     0.3378100E-06 ( -99.90%)
   displ. norm   :     0.0012325 α      lambda        0.7445231E-06
   maximum displ.:     0.0006767 α      in ANC's #39, #45, #35, ...

........................................................................
.............................. CYCLE  286 ..............................
........................................................................
     iter. time                 ...        0 min,  0.020 sec
 * total energy  :   -39.9580487 Eh     change        0.4017701E-03 Eh
   gradient norm :     0.0007214 Eh/α   predicted     0.3688743E-06 ( -99.91%)
   displ. norm   :     0.0013184 α      lambda        0.8109172E-06
   maximum displ.:     0.0007241 α      in ANC's #39, #35, #45, ...

........................................................................
.............................. CYCLE  287 ..............................
........................................................................
     iter. time                 ...        0 min,  0.020 sec
 * total energy  :   -39.9575616 Eh     change        0.4870544E-03 Eh
   gradient norm :     0.0007471 Eh/α   predicted     0.4007617E-06 ( -99.92%)
   displ. norm   :     0.0014148 α      lambda        0.8808782E-06
   maximum displ.:     0.0007668 α      in ANC's #39, #35, #45, ...

........................................................................
.............................. CYCLE  288 ..............................
........................................................................
     iter. time                 ...        0 min,  0.020 sec
 * total energy  :   -39.9569748 Eh     change        0.5868330E-03 Eh
   gradient norm :     0.0007693 Eh/α   predicted     0.4350665E-06 ( -99.93%)
   displ. norm   :     0.0015148 α      lambda        0.9591919E-06
   maximum displ.:     0.0008114 α      in ANC's #35, #39, #45, ...

........................................................................
.............................. CYCLE  289 ..............................
........................................................................
     iter. time                 ...        0 min,  0.020 sec
 * total energy  :   -39.9562802 Eh     change        0.6946180E-03 Eh
   gradient norm :     0.0007903 Eh/α   predicted     0.4745036E-06 ( -99.93%)
   displ. norm   :     0.0016131 α      lambda        0.1050829E-05
   maximum displ.:     0.0008977 α      in ANC's #35, #39, #22, ...

........................................................................
.............................. CYCLE  290 ..............................
........................................................................
     iter. time                 ...        0 min,  0.020 sec
 * total energy  :   -39.9554750 Eh     change        0.8052017E-03 Eh
   gradient norm :     0.0008141 Eh/α   predicted     0.5209604E-06 ( -99.94%)
   displ. norm   :     0.0017123 α      lambda        0.1156528E-05
   maximum displ.:     0.0009828 α      in ANC's #35, #39, #22, ...

........................................................................
.............................. CYCLE  291 ..............................
........................................................................
     iter. time                 ...        0 min,  0.021 sec
 * total energy  :   -39.9545538 Eh     change        0.9212014E-03 Eh
   gradient norm :     0.0008443 Eh/α   predicted     0.5739379E-06 ( -99.94%)
   displ. norm   :     0.0018220 α      lambda        0.1272703E-05
   maximum displ.:     0.0010741 α      in ANC's #35, #39, #22, ...

........................................................................
.............................. CYCLE  292 ..............................
........................................................................
     iter. time                 ...        0 min,  0.020 sec
 * total energy  :   -39.9535005 Eh     change        0.1053207E-02 Eh
   gradient norm :     0.0008825 Eh/α   predicted     0.6311325E-06 ( -99.94%)
   displ. norm   :     0.0019556 α      lambda        0.1393527E-05
   maximum displ.:     0.0011802 α      in ANC's #35, #22, #39, ...

........................................................................
.............................. CYCLE  293 ..............................
........................................................................
     iter. time                 ...        0 min,  0.020 sec
 * total energy  :   -39.9522851 Eh     change        0.1215487E-02 Eh
   gradient norm :     0.0009286 Eh/α   predicted     0.6892954E-06 ( -99.94%)
   displ. norm   :     0.0021308 α      lambda        0.1511836E-05
   maximum displ.:     0.0013102 α      in ANC's #35, #22, #39, ...

........................................................................
.............................. CYCLE  294 ..............................
........................................................................
     iter. time                 ...        0 min,  0.020 sec
 * total energy  :   -39.9508595 Eh     change        0.1425517E-02 Eh
   gradient norm :     0.0009805 Eh/α   predicted     0.7444114E-06 ( -99.95%)
   displ. norm   :     0.0231715 α      lambda       -0.8947636E-05
   maximum displ.:     0.0138851 α      in ANC's #35, #22, #39, ...

........................................................................
.............................. CYCLE  295 ..............................
........................................................................
     iter. time                 ...        0 min,  0.020 sec
 * total energy  :   -39.9652564 Eh     change       -0.1439685E-01 Eh
   gradient norm :     0.0007800 Eh/α   predicted    -0.4663810E-05 ( -99.97%)
   displ. norm   :     0.0037569 α      lambda       -0.4848841E-06
   maximum displ.:     0.0019170 α      in ANC's #45, #15, #35, ...

........................................................................
.............................. CYCLE  296 ..............................
........................................................................
     iter. time                 ...        0 min,  0.020 sec
 * total energy  :   -39.9665673 Eh     change       -0.1310904E-02 Eh
   gradient norm :     0.0006370 Eh/α   predicted    -0.5155328E-06 ( -99.96%)
   displ. norm   :     0.0056337 α      lambda       -0.1842349E-05
   maximum displ.:     0.0034824 α      in ANC's #45, #15, #66, ...

........................................................................
.............................. CYCLE  297 ..............................
........................................................................
     iter. time                 ...        0 min,  0.020 sec
 * total energy  :   -39.9658078 Eh     change        0.7594887E-03 Eh
   gradient norm :     0.0003176 Eh/α   predicted    -0.9371534E-06 (-100.12%)
   displ. norm   :     0.0004070 α      lambda       -0.2871548E-07
   maximum displ.:     0.0002263 α      in ANC's #45, #15, #66, ...

........................................................................
.............................. CYCLE  298 ..............................
........................................................................
     iter. time                 ...        0 min,  0.020 sec
 * total energy  :   -39.9657212 Eh     change        0.8663372E-04 Eh
   gradient norm :     0.0001919 Eh/α   predicted    -0.2174553E-07 (-100.03%)
   displ. norm   :     0.0003581 α      lambda       -0.1879804E-07
   maximum displ.:     0.0001855 α      in ANC's #66, #45, #79, ...
 * RMSD in coord.:     0.0004672 α      energy gain  -0.7559832E-02 Eh

generating ANC from exact Hessian ...
Using GFN-FF Lindh-Hessian
 Shifting diagonal of input Hessian by    1.0005575761896986E-002
 Lowest  eigenvalues of input Hessian
    0.010000    0.000000    0.000000    0.000000    0.000000    0.010010
    0.000000    0.000000    0.010020    0.010022    0.010031    0.010036
    0.010042    0.010052    0.010062    0.010069    0.010088    0.010097
 Highest eigenvalues
    7.997285    8.195538    9.386556   12.553233   15.618405   16.669865


........................................................................
.............................. CYCLE  299 ..............................
........................................................................
     iter. time                 ...        0 min,  0.020 sec
 * total energy  :   -39.9656093 Eh     change        0.1118326E-03 Eh
   gradient norm :     0.0001770 Eh/α   predicted     0.0000000E+00 (-100.00%)
   displ. norm   :     0.0000728 α      lambda        0.5300196E-07
   maximum displ.:     0.0000471 α      in ANC's #79, #64, #66, ...

........................................................................
.............................. CYCLE  300 ..............................
........................................................................
     iter. time                 ...        0 min,  0.020 sec
 * total energy  :   -39.9655883 Eh     change        0.2104950E-04 Eh
   gradient norm :     0.0001417 Eh/α   predicted    -0.3504887E-08 (-100.02%)
   displ. norm   :     0.0000728 α      lambda        0.0000000E+00
   maximum displ.:     0.0000471 α      in ANC's #79, #64, #66, ...

........................................................................
.............................. CYCLE  301 ..............................
........................................................................
     iter. time                 ...        0 min,  0.020 sec
 * total energy  :   -39.9655672 Eh     change        0.2105245E-04 Eh
   gradient norm :     0.0001155 Eh/α   predicted    -0.5845525E-08 (-100.03%)
   displ. norm   :     0.0000728 α      lambda        0.0000000E+00
   maximum displ.:     0.0000471 α      in ANC's #79, #64, #66, ...

........................................................................
.............................. CYCLE  302 ..............................
........................................................................
     iter. time                 ...        0 min,  0.020 sec
 * total energy  :   -39.9655462 Eh     change        0.2105541E-04 Eh
   gradient norm :     0.0001055 Eh/α   predicted    -0.4188246E-08 (-100.02%)
   displ. norm   :     0.0000728 α      lambda        0.0000000E+00
   maximum displ.:     0.0000471 α      in ANC's #79, #64, #66, ...

........................................................................
.............................. CYCLE  303 ..............................
........................................................................
     iter. time                 ...        0 min,  0.020 sec
 * total energy  :   -39.9655251 Eh     change        0.2105837E-04 Eh
   gradient norm :     0.0001158 Eh/α   predicted    -0.2531088E-08 (-100.01%)
   displ. norm   :     0.0000728 α      lambda        0.0000000E+00
   maximum displ.:     0.0000471 α      in ANC's #79, #64, #66, ...

........................................................................
.............................. CYCLE  304 ..............................
........................................................................
     iter. time                 ...        0 min,  0.020 sec
 * total energy  :   -39.9655041 Eh     change        0.2106132E-04 Eh
   gradient norm :     0.0001421 Eh/α   predicted    -0.8740486E-09 (-100.00%)
   displ. norm   :     0.0000728 α      lambda        0.0000000E+00
   maximum displ.:     0.0000471 α      in ANC's #79, #64, #66, ...

........................................................................
.............................. CYCLE  305 ..............................
........................................................................
     iter. time                 ...        0 min,  0.020 sec
 * total energy  :   -39.9654830 Eh     change        0.2106428E-04 Eh
   gradient norm :     0.0001775 Eh/α   predicted     0.7828705E-09 (-100.00%)
   displ. norm   :     0.0000728 α      lambda        0.0000000E+00
   maximum displ.:     0.0000471 α      in ANC's #79, #64, #66, ...

........................................................................
.............................. CYCLE  306 ..............................
........................................................................
     iter. time                 ...        0 min,  0.020 sec
 * total energy  :   -39.9654619 Eh     change        0.2106724E-04 Eh
   gradient norm :     0.0002175 Eh/α   predicted     0.2439670E-08 ( -99.99%)
   displ. norm   :     0.0000728 α      lambda        0.0000000E+00
   maximum displ.:     0.0000471 α      in ANC's #79, #64, #66, ...

........................................................................
.............................. CYCLE  307 ..............................
........................................................................
     iter. time                 ...        0 min,  0.020 sec
 * total energy  :   -39.9654409 Eh     change        0.2107019E-04 Eh
   gradient norm :     0.0002600 Eh/α   predicted     0.4096349E-08 ( -99.98%)
   displ. norm   :     0.0000728 α      lambda        0.0000000E+00
   maximum displ.:     0.0000471 α      in ANC's #79, #64, #66, ...

........................................................................
.............................. CYCLE  308 ..............................
........................................................................
     iter. time                 ...        0 min,  0.020 sec
 * total energy  :   -39.9654198 Eh     change        0.2107315E-04 Eh
   gradient norm :     0.0003040 Eh/α   predicted     0.5752909E-08 ( -99.97%)
   displ. norm   :     0.0001237 α      lambda        0.1481870E-07
   maximum displ.:     0.0000954 α      in ANC's #79, #7, #45, ...

........................................................................
.............................. CYCLE  309 ..............................
........................................................................
     iter. time                 ...        0 min,  0.020 sec
 * total energy  :   -39.9653746 Eh     change        0.4514289E-04 Eh
   gradient norm :     0.0002442 Eh/α   predicted    -0.5594547E-08 (-100.01%)
   displ. norm   :     0.0003668 α      lambda       -0.2252520E-07
   maximum displ.:     0.0002716 α      in ANC's #79, #64, #7, ...

........................................................................
.............................. CYCLE  310 ..............................
........................................................................
     iter. time                 ...        0 min,  0.020 sec
 * total energy  :   -39.9652755 Eh     change        0.9915693E-04 Eh
   gradient norm :     0.0000964 Eh/α   predicted    -0.2603389E-07 (-100.03%)
   displ. norm   :     0.0002909 α      lambda        0.2000113E-07
   maximum displ.:     0.0001974 α      in ANC's #79, #64, #7, ...

........................................................................
.............................. CYCLE  311 ..............................
........................................................................
     iter. time                 ...        0 min,  0.020 sec
 * total energy  :   -39.9652032 Eh     change        0.7226207E-04 Eh
   gradient norm :     0.0002620 Eh/α   predicted     0.9368911E-08 ( -99.99%)
   displ. norm   :     0.0001729 α      lambda       -0.1042915E-07
   maximum displ.:     0.0001523 α      in ANC's #64, #29, #7, ...

........................................................................
.............................. CYCLE  312 ..............................
........................................................................
     iter. time                 ...        0 min,  0.020 sec
 * total energy  :   -39.9651579 Eh     change        0.4536776E-04 Eh
   gradient norm :     0.0000937 Eh/α   predicted    -0.1372744E-07 (-100.03%)
   displ. norm   :     0.0001729 α      lambda        0.0000000E+00
   maximum displ.:     0.0001523 α      in ANC's #64, #29, #7, ...

........................................................................
.............................. CYCLE  313 ..............................
........................................................................
     iter. time                 ...        0 min,  0.020 sec
 * total energy  :   -39.9651125 Eh     change        0.4540321E-04 Eh
   gradient norm :     0.0001486 Eh/α   predicted     0.2996813E-08 ( -99.99%)
   displ. norm   :     0.0001385 α      lambda       -0.2146194E-08
   maximum displ.:     0.0001017 α      in ANC's #64, #79, #29, ...

........................................................................
.............................. CYCLE  314 ..............................
........................................................................
     iter. time                 ...        0 min,  0.020 sec
 * total energy  :   -39.9650815 Eh     change        0.3096108E-04 Eh
   gradient norm :     0.0000621 Eh/α   predicted    -0.6764663E-08 (-100.02%)
   displ. norm   :     0.0001385 α      lambda        0.0000000E+00
   maximum displ.:     0.0001017 α      in ANC's #64, #79, #29, ...

........................................................................
.............................. CYCLE  315 ..............................
........................................................................
     iter. time                 ...        0 min,  0.020 sec
 * total energy  :   -39.9650505 Eh     change        0.3097779E-04 Eh
   gradient norm :     0.0001442 Eh/α   predicted     0.2105443E-08 ( -99.99%)
   displ. norm   :     0.0002076 α      lambda        0.2425467E-07
   maximum displ.:     0.0001806 α      in ANC's #79, #64, #22, ...

........................................................................
.............................. CYCLE  316 ..............................
........................................................................
     iter. time                 ...        0 min,  0.020 sec
 * total energy  :   -39.9649685 Eh     change        0.8197979E-04 Eh
   gradient norm :     0.0000837 Eh/α   predicted    -0.3961237E-08 (-100.00%)
   displ. norm   :     0.0002076 α      lambda        0.0000000E+00
   maximum displ.:     0.0001806 α      in ANC's #79, #64, #22, ...

........................................................................
.............................. CYCLE  317 ..............................
........................................................................
     iter. time                 ...        0 min,  0.020 sec
 * total energy  :   -39.9648865 Eh     change        0.8199812E-04 Eh
   gradient norm :     0.0000630 Eh/α   predicted    -0.4392810E-08 (-100.01%)
   displ. norm   :     0.0002076 α      lambda        0.0000000E+00
   maximum displ.:     0.0001806 α      in ANC's #79, #64, #22, ...

........................................................................
.............................. CYCLE  318 ..............................
........................................................................
     iter. time                 ...        0 min,  0.020 sec
 * total energy  :   -39.9648045 Eh     change        0.8201646E-04 Eh
   gradient norm :     0.0001082 Eh/α   predicted    -0.2252682E-09 (-100.00%)
   displ. norm   :     0.0002076 α      lambda        0.0000000E+00
   maximum displ.:     0.0001806 α      in ANC's #79, #64, #22, ...

........................................................................
.............................. CYCLE  319 ..............................
........................................................................
     iter. time                 ...        0 min,  0.020 sec
 * total energy  :   -39.9647225 Eh     change        0.8203479E-04 Eh
   gradient norm :     0.0001738 Eh/α   predicted     0.3942260E-08 (-100.00%)
   displ. norm   :     0.0001211 α      lambda       -0.4420990E-08
   maximum displ.:     0.0000853 α      in ANC's #64, #7, #66, ...

........................................................................
.............................. CYCLE  320 ..............................
........................................................................
     iter. time                 ...        0 min,  0.020 sec
 * total energy  :   -39.9646986 Eh     change        0.2387418E-04 Eh
   gradient norm :     0.0000662 Eh/α   predicted    -0.5998425E-08 (-100.03%)
   displ. norm   :     0.0001211 α      lambda        0.0000000E+00
   maximum displ.:     0.0000853 α      in ANC's #64, #7, #66, ...

........................................................................
.............................. CYCLE  321 ..............................
........................................................................
     iter. time                 ...        0 min,  0.020 sec
 * total energy  :   -39.9646747 Eh     change        0.2389157E-04 Eh
   gradient norm :     0.0001396 Eh/α   predicted     0.3778266E-08 ( -99.98%)
   displ. norm   :     0.0001211 α      lambda        0.0000000E+00
   maximum displ.:     0.0000853 α      in ANC's #64, #7, #66, ...

........................................................................
.............................. CYCLE  322 ..............................
........................................................................
     iter. time                 ...        0 min,  0.020 sec
 * total energy  :   -39.9646508 Eh     change        0.2390896E-04 Eh
   gradient norm :     0.0002748 Eh/α   predicted     0.1475008E-07 ( -99.94%)
   displ. norm   :     0.0002139 α      lambda        0.5144256E-07
   maximum displ.:     0.0001884 α      in ANC's #64, #29, #7, ...

........................................................................
.............................. CYCLE  323 ..............................
........................................................................
     iter. time                 ...        0 min,  0.020 sec
 * total energy  :   -39.9645854 Eh     change        0.6545795E-04 Eh
   gradient norm :     0.0000786 Eh/α   predicted    -0.1633633E-07 (-100.02%)
   displ. norm   :     0.0002139 α      lambda        0.0000000E+00
   maximum displ.:     0.0001884 α      in ANC's #64, #29, #7, ...

........................................................................
.............................. CYCLE  324 ..............................
........................................................................
     iter. time                 ...        0 min,  0.020 sec
 * total energy  :   -39.9645198 Eh     change        0.6551386E-04 Eh
   gradient norm :     0.0002248 Eh/α   predicted     0.1241516E-07 ( -99.98%)
   displ. norm   :     0.0002052 α      lambda       -0.7043198E-08
   maximum displ.:     0.0001836 α      in ANC's #64, #79, #29, ...

........................................................................
.............................. CYCLE  325 ..............................
........................................................................
     iter. time                 ...        0 min,  0.020 sec
 * total energy  :   -39.9645024 Eh     change        0.1747561E-04 Eh
   gradient norm :     0.0000608 Eh/α   predicted    -0.1373780E-07 (-100.08%)
   displ. norm   :     0.0002052 α      lambda        0.0000000E+00
   maximum displ.:     0.0001836 α      in ANC's #64, #79, #29, ...

........................................................................
.............................. CYCLE  326 ..............................
........................................................................
     iter. time                 ...        0 min,  0.020 sec
 * total energy  :   -39.9644848 Eh     change        0.1751640E-04 Eh
   gradient norm :     0.0002141 Eh/α   predicted     0.1144555E-07 ( -99.93%)
   displ. norm   :     0.0001812 α      lambda        0.7501703E-07
   maximum displ.:     0.0001296 α      in ANC's #64, #66, #45, ...

........................................................................
.............................. CYCLE  327 ..............................
........................................................................
     iter. time                 ...        0 min,  0.020 sec
 * total energy  :   -39.9644263 Eh     change        0.5850613E-04 Eh
   gradient norm :     0.0000603 Eh/α   predicted    -0.1079577E-07 (-100.02%)
   displ. norm   :     0.0001584 α      lambda        0.1216576E-07
   maximum displ.:     0.0001201 α      in ANC's #64, #66, #45, ...

........................................................................
.............................. CYCLE  328 ..............................
........................................................................
     iter. time                 ...        0 min,  0.020 sec
 * total energy  :   -39.9643850 Eh     change        0.4129722E-04 Eh
   gradient norm :     0.0001727 Eh/α   predicted     0.5805584E-08 ( -99.99%)
   displ. norm   :     0.0001358 α      lambda        0.1752895E-08
   maximum displ.:     0.0000996 α      in ANC's #64, #79, #29, ...

........................................................................
.............................. CYCLE  329 ..............................
........................................................................
     iter. time                 ...        0 min,  0.020 sec
 * total energy  :   -39.9643987 Eh     change       -0.1367252E-04 Eh
   gradient norm :     0.0000597 Eh/α   predicted    -0.6600736E-08 ( -99.95%)
   displ. norm   :     0.0001358 α      lambda        0.0000000E+00
   maximum displ.:     0.0000996 α      in ANC's #64, #79, #29, ...

........................................................................
.............................. CYCLE  330 ..............................
........................................................................
     iter. time                 ...        0 min,  0.020 sec
 * total energy  :   -39.9644124 Eh     change       -0.1365460E-04 Eh
   gradient norm :     0.0001392 Eh/α   predicted     0.4034787E-08 (-100.03%)
   displ. norm   :     0.0001204 α      lambda       -0.3922587E-08
   maximum displ.:     0.0000907 α      in ANC's #64, #79, #7, ...

........................................................................
.............................. CYCLE  331 ..............................
........................................................................
     iter. time                 ...        0 min,  0.020 sec
 * total energy  :   -39.9644240 Eh     change       -0.1163010E-04 Eh
   gradient norm :     0.0000486 Eh/α   predicted    -0.4870173E-08 ( -99.96%)
   displ. norm   :     0.0001204 α      lambda        0.0000000E+00
   maximum displ.:     0.0000907 α      in ANC's #64, #79, #7, ...

........................................................................
.............................. CYCLE  332 ..............................
........................................................................
     iter. time                 ...        0 min,  0.020 sec
 * total energy  :   -39.9644356 Eh     change       -0.1161630E-04 Eh
   gradient norm :     0.0001358 Eh/α   predicted     0.4096587E-08 (-100.04%)
   displ. norm   :     0.0001802 α      lambda        0.2667697E-07
   maximum displ.:     0.0001513 α      in ANC's #79, #64, #15, ...

........................................................................
.............................. CYCLE  333 ..............................
........................................................................
     iter. time                 ...        0 min,  0.020 sec
 * total energy  :   -39.9644345 Eh     change        0.1126080E-05 Eh
   gradient norm :     0.0000588 Eh/α   predicted    -0.3124413E-08 (-100.28%)
   displ. norm   :     0.0001802 α      lambda        0.0000000E+00
   maximum displ.:     0.0001513 α      in ANC's #79, #64, #15, ...

........................................................................
.............................. CYCLE  334 ..............................
........................................................................
     iter. time                 ...        0 min,  0.020 sec
 * total energy  :   -39.9644334 Eh     change        0.1133220E-05 Eh
   gradient norm :     0.0000688 Eh/α   predicted    -0.8343456E-10 (-100.01%)
   displ. norm   :     0.0001802 α      lambda        0.0000000E+00
   maximum displ.:     0.0001513 α      in ANC's #79, #64, #15, ...

........................................................................
.............................. CYCLE  335 ..............................
........................................................................
     iter. time                 ...        0 min,  0.020 sec
 * total energy  :   -39.9644322 Eh     change        0.1140363E-05 Eh
   gradient norm :     0.0001492 Eh/α   predicted     0.5749778E-08 ( -99.50%)
   displ. norm   :     0.0001802 α      lambda        0.0000000E+00
   maximum displ.:     0.0001513 α      in ANC's #79, #64, #15, ...

........................................................................
.............................. CYCLE  336 ..............................
........................................................................
     iter. time                 ...        0 min,  0.020 sec
 * total energy  :   -39.9644311 Eh     change        0.1147507E-05 Eh
   gradient norm :     0.0002368 Eh/α   predicted     0.1158347E-07 ( -98.99%)
   displ. norm   :     0.0004317 α      lambda       -0.1761109E-07
   maximum displ.:     0.0003907 α      in ANC's #79, #64, #29, ...

........................................................................
.............................. CYCLE  337 ..............................
........................................................................
     iter. time                 ...        0 min,  0.020 sec
 * total energy  :   -39.9644098 Eh     change        0.2128483E-04 Eh
   gradient norm :     0.0000616 Eh/α   predicted    -0.1714656E-07 (-100.08%)
   displ. norm   :     0.0001698 α      lambda        0.2662781E-07
   maximum displ.:     0.0001061 α      in ANC's #79, #7, #64, ...

........................................................................
.............................. CYCLE  338 ..............................
........................................................................
     iter. time                 ...        0 min,  0.020 sec
 * total energy  :   -39.9644321 Eh     change       -0.2227507E-04 Eh
   gradient norm :     0.0001772 Eh/α   predicted     0.9085968E-08 (-100.04%)
   displ. norm   :     0.0001604 α      lambda        0.4761571E-07
   maximum displ.:     0.0001204 α      in ANC's #7, #79, #64, ...
 * RMSD in coord.:     0.0001342 α      energy gain   0.1289111E-02 Eh

generating ANC from exact Hessian ...
Using GFN-FF Lindh-Hessian
 Shifting diagonal of input Hessian by    1.0005576271413371E-002
 Lowest  eigenvalues of input Hessian
    0.010000    0.000000    0.000000    0.000000    0.000000    0.010010
    0.000000    0.000000    0.010020    0.010022    0.010031    0.010036
    0.010042    0.010052    0.010062    0.010069    0.010088    0.010097
 Highest eigenvalues
    8.001801    8.195758    9.403902   12.567803   15.630334   16.669714


........................................................................
.............................. CYCLE  339 ..............................
........................................................................
     iter. time                 ...        0 min,  0.020 sec
 * total energy  :   -39.9644529 Eh     change       -0.2086803E-04 Eh
   gradient norm :     0.0000832 Eh/α   predicted     0.0000000E+00 (-100.00%)
   displ. norm   :     0.0001247 α      lambda        0.0000000E+00
   maximum displ.:     0.0000809 α      in ANC's #64, #45, #35, ...

........................................................................
.............................. CYCLE  340 ..............................
........................................................................
     iter. time                 ...        0 min,  0.021 sec
 * total energy  :   -39.9643873 Eh     change        0.6568016E-04 Eh
   gradient norm :     0.0000704 Eh/α   predicted     0.4516754E-08 ( -99.99%)
   displ. norm   :     0.0001247 α      lambda        0.0000000E+00
   maximum displ.:     0.0000809 α      in ANC's #64, #45, #35, ...

........................................................................
.............................. CYCLE  341 ..............................
........................................................................
     iter. time                 ...        0 min,  0.020 sec
 * total energy  :   -39.9643215 Eh     change        0.6570159E-04 Eh
   gradient norm :     0.0001771 Eh/α   predicted     0.5197626E-08 ( -99.99%)
   displ. norm   :     0.0001247 α      lambda        0.0000000E+00
   maximum displ.:     0.0000809 α      in ANC's #64, #45, #35, ...

........................................................................
.............................. CYCLE  342 ..............................
........................................................................
     iter. time                 ...        0 min,  0.020 sec
 * total energy  :   -39.9642558 Eh     change        0.6572303E-04 Eh
   gradient norm :     0.0002935 Eh/α   predicted     0.1327355E-07 ( -99.98%)
   displ. norm   :     0.0002492 α      lambda        0.1762935E-08
   maximum displ.:     0.0001720 α      in ANC's #64, #45, #15, ...

........................................................................
.............................. CYCLE  343 ..............................
........................................................................
     iter. time                 ...        0 min,  0.020 sec
 * total energy  :   -39.9643650 Eh     change       -0.1092141E-03 Eh
   gradient norm :     0.0000574 Eh/α   predicted    -0.1906126E-07 ( -99.98%)
   displ. norm   :     0.0002492 α      lambda        0.0000000E+00
   maximum displ.:     0.0001720 α      in ANC's #64, #45, #15, ...

........................................................................
.............................. CYCLE  344 ..............................
........................................................................
     iter. time                 ...        0 min,  0.020 sec
 * total energy  :   -39.9644742 Eh     change       -0.1091326E-03 Eh
   gradient norm :     0.0002282 Eh/α   predicted     0.1749434E-07 (-100.02%)
   displ. norm   :     0.0002492 α      lambda        0.0000000E+00
   maximum displ.:     0.0001720 α      in ANC's #64, #45, #15, ...

........................................................................
.............................. CYCLE  345 ..............................
........................................................................
     iter. time                 ...        0 min,  0.020 sec
 * total energy  :   -39.9645832 Eh     change       -0.1090511E-03 Eh
   gradient norm :     0.0004821 Eh/α   predicted     0.5457850E-07 (-100.05%)
   displ. norm   :     0.0005081 α      lambda        0.1060698E-08
   maximum displ.:     0.0003437 α      in ANC's #64, #45, #15, ...

........................................................................
.............................. CYCLE  346 ..............................
........................................................................
     iter. time                 ...        0 min,  0.020 sec
 * total energy  :   -39.9643387 Eh     change        0.2445487E-03 Eh
   gradient norm :     0.0000526 Eh/α   predicted    -0.7257725E-07 (-100.03%)
   displ. norm   :     0.0003268 α      lambda        0.1422378E-06
   maximum displ.:     0.0002417 α      in ANC's #64, #45, #15, ...

........................................................................
.............................. CYCLE  347 ..............................
........................................................................
     iter. time                 ...        0 min,  0.020 sec
 * total energy  :   -39.9642956 Eh     change        0.4304917E-04 Eh
   gradient norm :     0.0004144 Eh/α   predicted     0.5564390E-07 ( -99.87%)
   displ. norm   :     0.0003188 α      lambda        0.2559580E-06
   maximum displ.:     0.0001830 α      in ANC's #64, #29, #45, ...

........................................................................
.............................. CYCLE  348 ..............................
........................................................................
     iter. time                 ...        0 min,  0.020 sec
 * total energy  :   -39.9641463 Eh     change        0.1493193E-03 Eh
   gradient norm :     0.0001408 Eh/α   predicted    -0.3012994E-07 (-100.02%)
   displ. norm   :     0.0001869 α      lambda        0.4052346E-07
   maximum displ.:     0.0001249 α      in ANC's #29, #64, #45, ...

........................................................................
.............................. CYCLE  349 ..............................
........................................................................
     iter. time                 ...        0 min,  0.020 sec
 * total energy  :   -39.9641133 Eh     change        0.3305475E-04 Eh
   gradient norm :     0.0002574 Eh/α   predicted     0.1367543E-07 ( -99.96%)
   displ. norm   :     0.0001868 α      lambda       -0.1821068E-07
   maximum displ.:     0.0001523 α      in ANC's #29, #64, #66, ...

........................................................................
.............................. CYCLE  350 ..............................
........................................................................
     iter. time                 ...        0 min,  0.020 sec
 * total energy  :   -39.9640678 Eh     change        0.4541844E-04 Eh
   gradient norm :     0.0000807 Eh/α   predicted    -0.1549263E-07 (-100.03%)
   displ. norm   :     0.0001022 α      lambda        0.1437627E-07
   maximum displ.:     0.0000762 α      in ANC's #29, #64, #45, ...

........................................................................
.............................. CYCLE  351 ..............................
........................................................................
     iter. time                 ...        0 min,  0.020 sec
 * total energy  :   -39.9640783 Eh     change       -0.1047273E-04 Eh
   gradient norm :     0.0001364 Eh/α   predicted     0.3925376E-08 (-100.04%)
   displ. norm   :     0.0001022 α      lambda        0.0000000E+00
   maximum displ.:     0.0000762 α      in ANC's #29, #64, #45, ...

........................................................................
.............................. CYCLE  352 ..............................
........................................................................
     iter. time                 ...        0 min,  0.020 sec
 * total energy  :   -39.9640888 Eh     change       -0.1045956E-04 Eh
   gradient norm :     0.0002511 Eh/α   predicted     0.1194277E-07 (-100.11%)
   displ. norm   :     0.0001955 α      lambda        0.4101845E-07
   maximum displ.:     0.0001391 α      in ANC's #64, #29, #45, ...

........................................................................
.............................. CYCLE  353 ..............................
........................................................................
     iter. time                 ...        0 min,  0.020 sec
 * total energy  :   -39.9640757 Eh     change        0.1303817E-04 Eh
   gradient norm :     0.0000488 Eh/α   predicted    -0.1606887E-07 (-100.12%)
   displ. norm   :     0.0001955 α      lambda        0.0000000E+00
   maximum displ.:     0.0001391 α      in ANC's #64, #29, #45, ...

........................................................................
.............................. CYCLE  354 ..............................
........................................................................
     iter. time                 ...        0 min,  0.020 sec
 * total energy  :   -39.9640626 Eh     change        0.1308609E-04 Eh
   gradient norm :     0.0002478 Eh/α   predicted     0.1511272E-07 ( -99.88%)
   displ. norm   :     0.0002013 α      lambda        0.9351749E-07
   maximum displ.:     0.0001559 α      in ANC's #29, #64, #35, ...

........................................................................
.............................. CYCLE  355 ..............................
........................................................................
     iter. time                 ...        0 min,  0.020 sec
 * total energy  :   -39.9639993 Eh     change        0.6329426E-04 Eh
   gradient norm :     0.0000680 Eh/α   predicted    -0.1416276E-07 (-100.02%)
   displ. norm   :     0.0002013 α      lambda        0.0000000E+00
   maximum displ.:     0.0001559 α      in ANC's #29, #64, #35, ...

........................................................................
.............................. CYCLE  356 ..............................
........................................................................
     iter. time                 ...        0 min,  0.020 sec
 * total energy  :   -39.9639360 Eh     change        0.6334847E-04 Eh
   gradient norm :     0.0002296 Eh/α   predicted     0.1118868E-07 ( -99.98%)
   displ. norm   :     0.0001740 α      lambda       -0.1162214E-07
   maximum displ.:     0.0001463 α      in ANC's #29, #64, #79, ...

........................................................................
.............................. CYCLE  357 ..............................
........................................................................
     iter. time                 ...        0 min,  0.020 sec
 * total energy  :   -39.9638812 Eh     change        0.5478924E-04 Eh
   gradient norm :     0.0000588 Eh/α   predicted    -0.1255156E-07 (-100.02%)
   displ. norm   :     0.0001740 α      lambda        0.0000000E+00
   maximum displ.:     0.0001463 α      in ANC's #29, #64, #79, ...

........................................................................
.............................. CYCLE  358 ..............................
........................................................................
     iter. time                 ...        0 min,  0.020 sec
 * total energy  :   -39.9638264 Eh     change        0.5482700E-04 Eh
   gradient norm :     0.0001822 Eh/α   predicted     0.6459241E-08 ( -99.99%)
   displ. norm   :     0.0001765 α      lambda        0.5613728E-07
   maximum displ.:     0.0000720 α      in ANC's #79, #29, #70, ...

........................................................................
.............................. CYCLE  359 ..............................
........................................................................
     iter. time                 ...        0 min,  0.020 sec
 * total energy  :   -39.9636825 Eh     change        0.1439153E-03 Eh
   gradient norm :     0.0000816 Eh/α   predicted    -0.4255679E-08 (-100.00%)
   displ. norm   :     0.0001765 α      lambda        0.0000000E+00
   maximum displ.:     0.0000720 α      in ANC's #79, #29, #70, ...

........................................................................
.............................. CYCLE  360 ..............................
........................................................................
     iter. time                 ...        0 min,  0.020 sec
 * total energy  :   -39.9635385 Eh     change        0.1439667E-03 Eh
   gradient norm :     0.0000806 Eh/α   predicted    -0.3476377E-08 (-100.00%)
   displ. norm   :     0.0001765 α      lambda        0.0000000E+00
   maximum displ.:     0.0000720 α      in ANC's #79, #29, #70, ...

........................................................................
.............................. CYCLE  361 ..............................
........................................................................
     iter. time                 ...        0 min,  0.020 sec
 * total energy  :   -39.9633945 Eh     change        0.1440180E-03 Eh
   gradient norm :     0.0001808 Eh/α   predicted     0.3858867E-08 (-100.00%)
   displ. norm   :     0.0001049 α      lambda       -0.4621064E-08
   maximum displ.:     0.0000698 α      in ANC's #29, #64, #45, ...

........................................................................
.............................. CYCLE  362 ..............................
........................................................................
     iter. time                 ...        0 min,  0.020 sec
 * total energy  :   -39.9633733 Eh     change        0.2113332E-04 Eh
   gradient norm :     0.0000760 Eh/α   predicted    -0.6080899E-08 (-100.03%)
   displ. norm   :     0.0001049 α      lambda        0.0000000E+00
   maximum displ.:     0.0000698 α      in ANC's #29, #64, #45, ...

........................................................................
.............................. CYCLE  363 ..............................
........................................................................
     iter. time                 ...        0 min,  0.020 sec
 * total energy  :   -39.9633522 Eh     change        0.2114764E-04 Eh
   gradient norm :     0.0000919 Eh/α   predicted    -0.3670766E-09 (-100.00%)
   displ. norm   :     0.0001049 α      lambda        0.0000000E+00
   maximum displ.:     0.0000698 α      in ANC's #29, #64, #45, ...

........................................................................
.............................. CYCLE  364 ..............................
........................................................................
     iter. time                 ...        0 min,  0.020 sec
 * total energy  :   -39.9633310 Eh     change        0.2116196E-04 Eh
   gradient norm :     0.0002018 Eh/α   predicted     0.7530447E-08 ( -99.96%)
   displ. norm   :     0.0001424 α      lambda        0.3085412E-07
   maximum displ.:     0.0000944 α      in ANC's #29, #35, #22, ...

........................................................................
.............................. CYCLE  365 ..............................
........................................................................
     iter. time                 ...        0 min,  0.020 sec
 * total energy  :   -39.9632696 Eh     change        0.6144538E-04 Eh
   gradient norm :     0.0000957 Eh/α   predicted    -0.5545085E-08 (-100.01%)
   displ. norm   :     0.0001424 α      lambda        0.0000000E+00
   maximum displ.:     0.0000944 α      in ANC's #29, #35, #22, ...

........................................................................
.............................. CYCLE  366 ..............................
........................................................................
     iter. time                 ...        0 min,  0.020 sec
 * total energy  :   -39.9632081 Eh     change        0.6147506E-04 Eh
   gradient norm :     0.0000990 Eh/α   predicted    -0.1840254E-08 (-100.00%)
   displ. norm   :     0.0001424 α      lambda        0.0000000E+00
   maximum displ.:     0.0000944 α      in ANC's #29, #35, #22, ...

........................................................................
.............................. CYCLE  367 ..............................
........................................................................
     iter. time                 ...        0 min,  0.020 sec
 * total energy  :   -39.9631466 Eh     change        0.6150475E-04 Eh
   gradient norm :     0.0002065 Eh/α   predicted     0.7141333E-08 ( -99.99%)
   displ. norm   :     0.0001555 α      lambda       -0.4621565E-08
   maximum displ.:     0.0001350 α      in ANC's #29, #79, #66, ...

........................................................................
.............................. CYCLE  368 ..............................
........................................................................
     iter. time                 ...        0 min,  0.020 sec
 * total energy  :   -39.9631114 Eh     change        0.3519290E-04 Eh
   gradient norm :     0.0000749 Eh/α   predicted    -0.1004521E-07 (-100.03%)
   displ. norm   :     0.0001555 α      lambda        0.0000000E+00
   maximum displ.:     0.0001350 α      in ANC's #29, #79, #66, ...

........................................................................
.............................. CYCLE  369 ..............................
........................................................................
     iter. time                 ...        0 min,  0.020 sec
 * total energy  :   -39.9630762 Eh     change        0.3521977E-04 Eh
   gradient norm :     0.0001643 Eh/α   predicted     0.5061570E-08 ( -99.99%)
   displ. norm   :     0.0001777 α      lambda        0.4307790E-07
   maximum displ.:     0.0000825 α      in ANC's #29, #79, #64, ...

........................................................................
.............................. CYCLE  370 ..............................
........................................................................
     iter. time                 ...        0 min,  0.020 sec
 * total energy  :   -39.9629658 Eh     change        0.1104241E-03 Eh
   gradient norm :     0.0000599 Eh/α   predicted    -0.5755329E-08 (-100.01%)
   displ. norm   :     0.0001777 α      lambda        0.0000000E+00
   maximum displ.:     0.0000825 α      in ANC's #29, #79, #64, ...

........................................................................
.............................. CYCLE  371 ..............................
........................................................................
     iter. time                 ...        0 min,  0.020 sec
 * total energy  :   -39.9628553 Eh     change        0.1104650E-03 Eh
   gradient norm :     0.0001472 Eh/α   predicted     0.3394148E-08 (-100.00%)
   displ. norm   :     0.0001373 α      lambda       -0.3095181E-08
   maximum displ.:     0.0000728 α      in ANC's #29, #64, #45, ...

........................................................................
.............................. CYCLE  372 ..............................
........................................................................
     iter. time                 ...        0 min,  0.020 sec
 * total energy  :   -39.9627693 Eh     change        0.8603483E-04 Eh
   gradient norm :     0.0000659 Eh/α   predicted    -0.6286840E-08 (-100.01%)
   displ. norm   :     0.0001373 α      lambda        0.0000000E+00
   maximum displ.:     0.0000728 α      in ANC's #29, #64, #45, ...

........................................................................
.............................. CYCLE  373 ..............................
........................................................................
     iter. time                 ...        0 min,  0.020 sec
 * total energy  :   -39.9626832 Eh     change        0.8606571E-04 Eh
   gradient norm :     0.0001403 Eh/α   predicted     0.1443466E-08 (-100.00%)
   displ. norm   :     0.0002147 α      lambda        0.2055327E-07
   maximum displ.:     0.0001120 α      in ANC's #35, #22, #70, ...

........................................................................
.............................. CYCLE  374 ..............................
........................................................................
     iter. time                 ...        0 min,  0.020 sec
 * total energy  :   -39.9624947 Eh     change        0.1884761E-03 Eh
   gradient norm :     0.0001060 Eh/α   predicted    -0.3130707E-08 (-100.00%)
   displ. norm   :     0.0002147 α      lambda        0.0000000E+00
   maximum displ.:     0.0001120 α      in ANC's #35, #22, #70, ...

........................................................................
.............................. CYCLE  375 ..............................
........................................................................
     iter. time                 ...        0 min,  0.020 sec
 * total energy  :   -39.9623062 Eh     change        0.1885690E-03 Eh
   gradient norm :     0.0001244 Eh/α   predicted    -0.3735568E-08 (-100.00%)
   displ. norm   :     0.0002147 α      lambda        0.0000000E+00
   maximum displ.:     0.0001120 α      in ANC's #35, #22, #70, ...

........................................................................
.............................. CYCLE  376 ..............................
........................................................................
     iter. time                 ...        0 min,  0.020 sec
 * total energy  :   -39.9621175 Eh     change        0.1886619E-03 Eh
   gradient norm :     0.0001800 Eh/α   predicted     0.4784081E-09 (-100.00%)
   displ. norm   :     0.0002147 α      lambda        0.0000000E+00
   maximum displ.:     0.0001120 α      in ANC's #35, #22, #70, ...

........................................................................
.............................. CYCLE  377 ..............................
........................................................................
     iter. time                 ...        0 min,  0.020 sec
 * total energy  :   -39.9619288 Eh     change        0.1887548E-03 Eh
   gradient norm :     0.0002489 Eh/α   predicted     0.4692408E-08 (-100.00%)
   displ. norm   :     0.0002363 α      lambda       -0.8692277E-08
   maximum displ.:     0.0001170 α      in ANC's #29, #79, #35, ...

........................................................................
.............................. CYCLE  378 ..............................
........................................................................
     iter. time                 ...        0 min,  0.020 sec
 * total energy  :   -39.9617808 Eh     change        0.1479110E-03 Eh
   gradient norm :     0.0001411 Eh/α   predicted    -0.1214274E-07 (-100.01%)
   displ. norm   :     0.0002363 α      lambda        0.0000000E+00
   maximum displ.:     0.0001170 α      in ANC's #29, #79, #35, ...
 * RMSD in coord.:     0.0001926 α      energy gain   0.2651224E-02 Eh

generating ANC from exact Hessian ...
Using GFN-FF Lindh-Hessian
 Shifting diagonal of input Hessian by    1.0005577875847233E-002
 Lowest  eigenvalues of input Hessian
    0.010000    0.000000    0.000000    0.000000    0.000000    0.010010
    0.000000    0.000000    0.010020    0.010022    0.010031    0.010036
    0.010042    0.010052    0.010062    0.010069    0.010088    0.010097
 Highest eigenvalues
    8.012728    8.196262    9.395771   12.604764   15.659431   16.669343


........................................................................
.............................. CYCLE  379 ..............................
........................................................................
     iter. time                 ...        0 min,  0.020 sec
 * total energy  :   -39.9616329 Eh     change        0.1479893E-03 Eh
   gradient norm :     0.0001246 Eh/α   predicted     0.0000000E+00 (-100.00%)
   displ. norm   :     0.0000619 α      lambda        0.1573940E-07
   maximum displ.:     0.0000430 α      in ANC's #29, #79, #7, ...

........................................................................
.............................. CYCLE  380 ..............................
........................................................................
     iter. time                 ...        0 min,  0.020 sec
 * total energy  :   -39.9616063 Eh     change        0.2654038E-04 Eh
   gradient norm :     0.0000828 Eh/α   predicted    -0.2366029E-08 (-100.01%)
   displ. norm   :     0.0000619 α      lambda        0.0000000E+00
   maximum displ.:     0.0000430 α      in ANC's #29, #79, #7, ...

........................................................................
.............................. CYCLE  381 ..............................
........................................................................
     iter. time                 ...        0 min,  0.020 sec
 * total energy  :   -39.9615798 Eh     change        0.2654424E-04 Eh
   gradient norm :     0.0000608 Eh/α   predicted    -0.2353293E-08 (-100.01%)
   displ. norm   :     0.0000619 α      lambda        0.0000000E+00
   maximum displ.:     0.0000430 α      in ANC's #29, #79, #7, ...

........................................................................
.............................. CYCLE  382 ..............................
........................................................................
     iter. time                 ...        0 min,  0.020 sec
 * total energy  :   -39.9615532 Eh     change        0.2654809E-04 Eh
   gradient norm :     0.0000778 Eh/α   predicted    -0.5174237E-09 (-100.00%)
   displ. norm   :     0.0000619 α      lambda        0.0000000E+00
   maximum displ.:     0.0000430 α      in ANC's #29, #79, #7, ...

........................................................................
.............................. CYCLE  383 ..............................
........................................................................
     iter. time                 ...        0 min,  0.020 sec
 * total energy  :   -39.9615267 Eh     change        0.2655194E-04 Eh
   gradient norm :     0.0001181 Eh/α   predicted     0.1318442E-08 (-100.00%)
   displ. norm   :     0.0000619 α      lambda        0.0000000E+00
   maximum displ.:     0.0000430 α      in ANC's #29, #79, #7, ...

........................................................................
.............................. CYCLE  384 ..............................
........................................................................
     iter. time                 ...        0 min,  0.020 sec
 * total energy  :   -39.9615001 Eh     change        0.2655580E-04 Eh
   gradient norm :     0.0001653 Eh/α   predicted     0.3154305E-08 ( -99.99%)
   displ. norm   :     0.0000619 α      lambda        0.0000000E+00
   maximum displ.:     0.0000430 α      in ANC's #29, #79, #7, ...

........................................................................
.............................. CYCLE  385 ..............................
........................................................................
     iter. time                 ...        0 min,  0.020 sec
 * total energy  :   -39.9614735 Eh     change        0.2655965E-04 Eh
   gradient norm :     0.0002150 Eh/α   predicted     0.4990164E-08 ( -99.98%)
   displ. norm   :     0.0000619 α      lambda        0.0000000E+00
   maximum displ.:     0.0000430 α      in ANC's #29, #79, #7, ...

........................................................................
.............................. CYCLE  386 ..............................
........................................................................
     iter. time                 ...        0 min,  0.020 sec
 * total energy  :   -39.9614470 Eh     change        0.2656351E-04 Eh
   gradient norm :     0.0002658 Eh/α   predicted     0.6826019E-08 ( -99.97%)
   displ. norm   :     0.0001148 α      lambda        0.1732374E-07
   maximum displ.:     0.0000738 α      in ANC's #29, #79, #7, ...

........................................................................
.............................. CYCLE  387 ..............................
........................................................................
     iter. time                 ...        0 min,  0.020 sec
 * total energy  :   -39.9613890 Eh     change        0.5798302E-04 Eh
   gradient norm :     0.0001724 Eh/α   predicted    -0.6166425E-08 (-100.01%)
   displ. norm   :     0.0001148 α      lambda        0.0000000E+00
   maximum displ.:     0.0000738 α      in ANC's #29, #79, #7, ...

........................................................................
.............................. CYCLE  388 ..............................
........................................................................
     iter. time                 ...        0 min,  0.020 sec
 * total energy  :   -39.9613310 Eh     change        0.5799909E-04 Eh
   gradient norm :     0.0001104 Eh/α   predicted    -0.7388264E-08 (-100.01%)
   displ. norm   :     0.0001148 α      lambda        0.0000000E+00
   maximum displ.:     0.0000738 α      in ANC's #29, #79, #7, ...

........................................................................
.............................. CYCLE  389 ..............................
........................................................................
     iter. time                 ...        0 min,  0.020 sec
 * total energy  :   -39.9612730 Eh     change        0.5801516E-04 Eh
   gradient norm :     0.0001343 Eh/α   predicted    -0.8398706E-09 (-100.00%)
   displ. norm   :     0.0001148 α      lambda        0.0000000E+00
   maximum displ.:     0.0000738 α      in ANC's #29, #79, #7, ...

........................................................................
.............................. CYCLE  390 ..............................
........................................................................
     iter. time                 ...        0 min,  0.020 sec
 * total energy  :   -39.9612150 Eh     change        0.5803124E-04 Eh
   gradient norm :     0.0002175 Eh/α   predicted     0.5707939E-08 ( -99.99%)
   displ. norm   :     0.0001223 α      lambda       -0.4252621E-08
   maximum displ.:     0.0000917 α      in ANC's #29, #7, #15, ...

........................................................................
.............................. CYCLE  391 ..............................
........................................................................
     iter. time                 ...        0 min,  0.020 sec
 * total energy  :   -39.9612140 Eh     change        0.9439000E-06 Eh
   gradient norm :     0.0001030 Eh/α   predicted    -0.7685747E-08 (-100.81%)
   displ. norm   :     0.0001223 α      lambda        0.0000000E+00
   maximum displ.:     0.0000917 α      in ANC's #29, #7, #15, ...

........................................................................
.............................. CYCLE  392 ..............................
........................................................................
     iter. time                 ...        0 min,  0.020 sec
 * total energy  :   -39.9612131 Eh     change        0.9618645E-06 Eh
   gradient norm :     0.0001344 Eh/α   predicted     0.2357356E-08 ( -99.75%)
   displ. norm   :     0.0001223 α      lambda        0.0000000E+00
   maximum displ.:     0.0000917 α      in ANC's #29, #7, #15, ...

........................................................................
.............................. CYCLE  393 ..............................
........................................................................
     iter. time                 ...        0 min,  0.020 sec
 * total energy  :   -39.9612121 Eh     change        0.9798317E-06 Eh
   gradient norm :     0.0002641 Eh/α   predicted     0.1434446E-07 ( -98.54%)
   displ. norm   :     0.0002127 α      lambda        0.5266635E-07
   maximum displ.:     0.0001874 α      in ANC's #29, #7, #66, ...

........................................................................
.............................. CYCLE  394 ..............................
........................................................................
     iter. time                 ...        0 min,  0.020 sec
 * total energy  :   -39.9611785 Eh     change        0.3358797E-04 Eh
   gradient norm :     0.0000647 Eh/α   predicted    -0.1714735E-07 (-100.05%)
   displ. norm   :     0.0002127 α      lambda        0.0000000E+00
   maximum displ.:     0.0001874 α      in ANC's #29, #7, #66, ...

........................................................................
.............................. CYCLE  395 ..............................
........................................................................
     iter. time                 ...        0 min,  0.020 sec
 * total energy  :   -39.9611448 Eh     change        0.3363935E-04 Eh
   gradient norm :     0.0002209 Eh/α   predicted     0.1214509E-07 ( -99.96%)
   displ. norm   :     0.0001867 α      lambda       -0.5624631E-08
   maximum displ.:     0.0001647 α      in ANC's #29, #7, #79, ...

........................................................................
.............................. CYCLE  396 ..............................
........................................................................
     iter. time                 ...        0 min,  0.020 sec
 * total energy  :   -39.9611303 Eh     change        0.1457667E-04 Eh
   gradient norm :     0.0000532 Eh/α   predicted    -0.1352897E-07 (-100.09%)
   displ. norm   :     0.0001867 α      lambda        0.0000000E+00
   maximum displ.:     0.0001647 α      in ANC's #29, #7, #79, ...

........................................................................
.............................. CYCLE  397 ..............................
........................................................................
     iter. time                 ...        0 min,  0.020 sec
 * total energy  :   -39.9611157 Eh     change        0.1461499E-04 Eh
   gradient norm :     0.0002125 Eh/α   predicted     0.1100712E-07 ( -99.92%)
   displ. norm   :     0.0001902 α      lambda        0.7263080E-07
   maximum displ.:     0.0001287 α      in ANC's #29, #79, #15, ...

........................................................................
.............................. CYCLE  398 ..............................
........................................................................
     iter. time                 ...        0 min,  0.020 sec
 * total energy  :   -39.9610475 Eh     change        0.6819576E-04 Eh
   gradient norm :     0.0000637 Eh/α   predicted    -0.1067018E-07 (-100.02%)
   displ. norm   :     0.0001153 α      lambda        0.1252922E-07
   maximum displ.:     0.0000935 α      in ANC's #29, #15, #45, ...

........................................................................
.............................. CYCLE  399 ..............................
........................................................................
     iter. time                 ...        0 min,  0.020 sec
 * total energy  :   -39.9610422 Eh     change        0.5250673E-05 Eh
   gradient norm :     0.0001413 Eh/α   predicted     0.4789963E-08 ( -99.91%)
   displ. norm   :     0.0001153 α      lambda        0.0000000E+00
   maximum displ.:     0.0000935 α      in ANC's #29, #15, #45, ...

........................................................................
.............................. CYCLE  400 ..............................
........................................................................
     iter. time                 ...        0 min,  0.020 sec
 * total energy  :   -39.9610369 Eh     change        0.5266013E-05 Eh
   gradient norm :     0.0002701 Eh/α   predicted     0.1448211E-07 ( -99.72%)
   displ. norm   :     0.0002243 α      lambda        0.4937657E-07
   maximum displ.:     0.0001891 α      in ANC's #29, #15, #45, ...

........................................................................
.............................. CYCLE  401 ..............................
........................................................................
     iter. time                 ...        0 min,  0.020 sec
 * total energy  :   -39.9610014 Eh     change        0.3558702E-04 Eh
   gradient norm :     0.0000623 Eh/α   predicted    -0.1888531E-07 (-100.05%)
   displ. norm   :     0.0002243 α      lambda        0.0000000E+00
   maximum displ.:     0.0001891 α      in ANC's #29, #15, #45, ...

........................................................................
.............................. CYCLE  402 ..............................
........................................................................
     iter. time                 ...        0 min,  0.020 sec
 * total energy  :   -39.9609657 Eh     change        0.3564592E-04 Eh
   gradient norm :     0.0002554 Eh/α   predicted     0.1638517E-07 ( -99.95%)
   displ. norm   :     0.0002385 α      lambda        0.1057557E-06
   maximum displ.:     0.0001869 α      in ANC's #29, #79, #22, ...

........................................................................
.............................. CYCLE  403 ..............................
........................................................................
     iter. time                 ...        0 min,  0.020 sec
 * total energy  :   -39.9608556 Eh     change        0.1101077E-03 Eh
   gradient norm :     0.0000695 Eh/α   predicted    -0.1411441E-07 (-100.01%)
   displ. norm   :     0.0000957 α      lambda        0.1194291E-07
   maximum displ.:     0.0000918 α      in ANC's #29, #64, #7, ...

........................................................................
.............................. CYCLE  404 ..............................
........................................................................
     iter. time                 ...        0 min,  0.020 sec
 * total energy  :   -39.9608583 Eh     change       -0.2676833E-05 Eh
   gradient norm :     0.0000893 Eh/α   predicted     0.1921525E-08 (-100.07%)
   displ. norm   :     0.0000957 α      lambda        0.0000000E+00
   maximum displ.:     0.0000918 α      in ANC's #29, #64, #7, ...

   *** GEOMETRY OPTIMIZATION CONVERGED AFTER 404 ITERATIONS ***

------------------------------------------------------------------------
 total energy gain   :         8.1466179 Eh     5112.0799 kcal/mol
 total RMSD          :         0.2934303 a0        0.1553 Å
 total power (kW/mol):        52.9429264 (step) 2198.7424 (real)
------------------------------------------------------------------------

 ANCopt (total)                0 d,  0 h,  0 min,  9.728 sec
 optimizer setup                ...        0 min,  0.000 sec (  0.005%)
 model hessian                  ...        0 min,  0.817 sec (  8.398%)
 ANC generation                 ...        0 min,  0.602 sec (  6.189%)
 coordinate transformation      ...        0 min,  0.007 sec (  0.067%)
 single point calculation       ...        0 min,  8.200 sec ( 84.292%)
 optimization log               ...        0 min,  0.085 sec (  0.875%)
 hessian update                 ...        0 min,  0.002 sec (  0.019%)
 rational function              ...        0 min,  0.010 sec (  0.099%)

================
 final structure:
================
242
 xtb: 6.7.1 (edcfbbe)
N            0.34991501829245       -1.86586126110474       -0.83187878893346
N            0.02045689737936       -1.19013638620460        1.74464337632996
C           -0.54174708857380       -1.24567853077672       -2.87484445367924
C           -0.12494893948095       -1.56742240763594       -2.54550694322809
C            0.42697917563540       -3.68480295939441       -2.59589455733503
H            0.45433368656789       -3.63201316515485       -3.73291881490894
C            0.54134434362672       -3.92830365695110       -1.17449249999183
H            1.42714409120791       -4.87816994071857       -1.47681328085554
C            0.69754399776014       -2.89924802572780       -0.70769719422901
C            0.88953662288795       -3.31986960300811        1.00775563949759
C            0.38043280278520       -2.16823222493683        1.99388590212663
C            0.45929673768263       -2.86284437686966        3.33656361685209
H            0.73500089551138       -3.67375322884908        3.76285010540334
C           -0.20419271771527       -1.64921226022950        4.02697183363763
H           -0.42149362386172       -1.61617180098273        5.09107907442918
C           -0.46183658027213       -0.66269534776930        3.10814773174781
C            1.42147212409568       -4.58298142467040        1.30680053219767
C            2.75768709050888       -4.78852777561295        1.73839731422133
C            3.27721700121323       -5.96225817865052        2.09070650638413
C            2.44165706961457       -7.05687774783155        2.02624061955777
H            2.85795383418497       -8.11323635155876        2.31403945982728
C            1.13385810284694       -7.12121732894547        1.65643188278998
C            0.53700299123803       -5.61998229845811        1.23914426570762
N           -0.68896990748935        1.62061653515992        0.78359535902057
N           -0.31014541895169        1.60414439400544       -1.45561932927841
C           -0.97582875411073        0.61855171821096        3.26161740631962
C           -1.12256558974383        1.67490390441402        2.52551306297027
C           -1.62672329777285        2.89078591515878        2.81414067853806
H           -1.68769772884225        3.35714741125468        3.76587266024301
C           -1.24614242731078        3.86523398090047        1.16273672776396
H           -1.55504249787065        4.80914775909646        1.58510851223860
C           -1.03502471123297        2.74345561039929        1.15643567384148
C           -0.88686428070180        3.41593261773779       -0.89568101700586
C           -0.36594614167001        1.60503209057932       -2.15296199148290
C           -1.17395337284177        1.99489972681924       -2.68268323397317
H           -1.14408781346301        3.62220188003302       -3.72992061617516
C           -1.31436346394587        2.26711756047816       -4.17408047908198
H           -1.01366806832100        0.97197800258968       -4.89020139549987
C           -0.31430435276977        0.27305508700284       -3.21079292601393
C           -1.01372371636064        4.67470283259807       -1.16459794145503
C            0.28985254455508        5.26527051340889       -1.53317562281742
C            0.24713898001375        6.76056880396799       -1.99840397390301
C           -1.05972085244218        7.34095307211254       -1.99003262802799
H           -1.05602952297853        8.42579400235408       -2.32871452486994
C           -2.20337936019462        6.72500956604202       -1.63848241399858
C           -2.12490809399029        5.37036461725077       -1.24825922969192
Fe          -0.49495961487898       -0.24025588863120        0.05817367173199
Cl          -2.42840843678294       -0.69562365733703        0.06322263955516
C           -1.57270659707651        0.81012888685784        4.74227995348988
C           -0.80441723738720        1.35669477554988        5.79461613169580
C           -2.94667253278959        0.45026070765192        4.97657714417209
C           -1.34920655764431        1.54399979282790        7.03849479311909
N            0.54806779421797        1.70959845224722        5.49748440514816
C           -3.48341860484755        0.66258107967416        6.21665242997162
N           -3.65530456785843       -0.13885241199677        3.91559559085991
H           -0.74202237146137        1.95521710340151        7.87339088952548
C           -2.72386609252015        1.20786045841494        7.29771912998701
C            1.53199219601101        2.12459346812873        6.37293138922429
H            0.81262452703801        1.60625588117286        4.51571951571719
H           -4.55634062328795        0.40482617344090        6.40719634966247
C           -4.99374201229294       -0.52156089540278        3.89562129335754
H           -3.14212626877131       -0.32065360196798        3.04329646030105
H           -3.14989132182343        1.35908159306206        8.25219360139517
O            1.39283544427316        2.23518910054393        7.59294276994325
C            2.84923822256401        2.44699606012288        5.70169798478999
O           -5.79288724082892       -0.27618584602829        4.82461040271537
C           -5.41889044392593       -1.27112356523209        2.67184180331300
C            4.11847477772009        2.06459190523038        6.42660904258115
H            2.89806797823712        2.44606153405429        4.60211167747996
C            3.69352967333399        3.51672262104208        6.40998887802924
C           -6.77598290247371       -0.97604648011990        2.08392558139300
H           -4.63509028578063       -1.59182081910745        1.95673425183006
C           -6.58785809711944       -2.24535668082419        2.89011898886607
H            3.99903457440528        1.54204104146390        7.39213518726333
H            4.97976353098425        1.78365231183917        5.80776028246378
H            3.25988511510746        3.91879198461299        7.33601416478616
C            4.46061752123111        4.48060463731307        5.57082555955496
H           -7.36383768729531       -0.18470596537309        2.57442243195102
H           -6.87187658436177       -1.07131510325266        0.98923124359340
H           -6.99722382461963       -2.24041497069083        3.91129117164321
C           -6.56488344215618       -3.55921378318330        2.19002404691592
O            4.55445685988313        5.68094707907701        6.16881532714786
O            4.96259764257180        4.21489595732143        4.46579291631715
O           -7.17439877907803       -4.51103900898375        2.96675953442836
O           -6.09297730281513       -3.78631826102625        1.09503111414626
C            5.29693478238993        6.74568822521280        5.49221212979638
C           -7.26473759400918       -5.85906640644759        2.42116027924892
C            4.31015706633472        7.61365105649882        4.71217055790104
C            6.06413755342579        7.49959622949181        6.57257251829837
H            5.99578129258278        6.25030457243482        4.78359464004234
C           -7.24923776148423       -6.80334850970855        3.62032216844590
C           -8.52554454286843       -5.97623993137217        1.56267455734826
H           -6.36964653891779       -6.02042128688956        1.78313694353044
H            3.78770489090742        7.01979140937903        3.93607634225625
H            3.55129473094030        8.05486205480575        5.39147871488800
H            4.84607574970038        8.44239188676182        4.20489110158072
H            6.75225723667543        6.82206839511546        7.11673774104606
H            6.66621221978897        8.31264887522336        6.11783302944244
H            5.36845083981000        7.95301339455145        7.30920996899481
H           -6.32341668257239       -6.66899374590349        4.21474896347049
H           -8.11849552615942       -6.61433654897861        4.28421127098572
H           -7.29538179409854       -7.85790228607797        3.27965222544884
H           -8.48245394331472       -5.27250008403150        0.70813171179033
H           -8.62081228868740       -7.00385553457783        1.15482940838242
H           -9.43241199648112       -5.75418637503897        2.16323693305063
C           -0.67351245334360       -1.47125568431753       -4.71347296165810
C            0.33809680881370       -1.23166820408217       -5.65811285193768
C           -1.88116927677220       -2.19973738166704       -4.98812085463656
C            0.06170645662569       -1.81673230858639       -6.97904499087767
N            1.35129404931344       -0.55027963613188       -5.36587095538154
C           -2.05738912373968       -2.69496260096566       -6.18863590226990
N           -2.88077912836928       -2.24768701434362       -3.87208826361723
H            0.82351905679645       -1.64040665670727       -7.75054906154697
C           -1.12677541395982       -2.55400993602768       -7.24000696228037
C            2.33798150563954        0.07890699891930       -6.29302132568908
H            1.45916664540492       -0.15340619548637       -4.40144576896697
H           -3.01676487048079       -3.28624361403425       -6.43809042891483
C           -4.07081027659825       -2.88110492605116       -3.96680561419070
H           -2.63528109609578       -1.75090703156701       -3.08228470626581
H           -1.26297542333484       -2.95754849252198       -8.21750311208856
O            2.45637832101751       -0.20524237209164       -7.38216446515661
C            3.44165230258402        1.10569863448534       -5.63884023553850
O           -4.47837760150348       -3.62100893069606       -4.88658748673442
C           -4.91230220740311       -2.61398319151572       -2.82539512867100
C            3.61117636754549        1.96863813330235       -6.19538602128847
H            3.14268711961663        1.21821619732937       -4.46651314909477
C            4.51699047265671        1.48339314579592       -6.24879918124797
C           -5.87246530050665       -3.68609064720339       -2.21946424726275
H           -4.60694212372023       -1.86423563570898       -2.00557831053893
C           -6.47445363269197       -2.56970538267125       -3.03846904578853
H            3.10935857752972        2.41215275170622       -7.38178888681428
H            3.68656582432843        3.28976346169488       -5.78494787319400
H            4.90274945252036        0.61688377542326       -7.05168210700559
C            5.80244826114601        1.42173641130282       -5.21311781898897
H           -5.77765113332401       -4.67023710279682       -2.75472575128092
H           -6.02781594227918       -3.69980883450714       -1.16348504578650
H           -6.73219155373415       -2.81872841726279       -4.10713014248709
C           -7.31161516600933       -1.52555113356581       -2.37861610110626
O            6.91841789744198        1.11512236316527       -5.72776502881064
O            5.71956171297070        2.42905631973130       -4.28349914959434
O           -8.29893367697234       -1.14541941632609       -3.22534645011703
O           -7.13104331608549       -1.11051840458252       -1.27420307625460
C            8.17062570905486        1.35900648819267       -4.96705141172967
C           -9.23238227550111       -0.12012075592706       -2.70425849977216
C            9.06893277265412        0.15263001114098       -5.19778975295908
C            8.77540092235419        2.68627268701889       -5.41218513543737
H            7.86416582545099        1.42801332906884       -3.89997683727274
C           -8.66476086291486        1.26398698062084       -3.00106967135096
C          -10.57280333923033       -0.40015888989563       -3.37912807021644
H           -9.29944865301182       -0.26886941054387       -1.61206023531255
H            8.56645142583371       -0.78233045895995       -4.87973434846838
H            9.33467857944324        0.05677008045623       -6.27186482875527
H           10.00833167867942        0.26187739934164       -4.61749674642380
H            8.07735685816730        3.52606188478627       -5.22416665169487
H            9.71074214654351        2.88706512271229       -4.84877974928151
H            9.02104512860492        2.66415152762695       -6.49474851562149
H           -7.69589346686012        1.41024524747148       -2.48337462901384
H           -8.51519849296344        1.40970663232565       -4.09034229897139
H           -9.36440403182739        2.04771486039692       -2.63775570613159
H          -10.92720235088668       -1.42474195676575       -3.14893192284603
H          -11.33564179116720        0.32063065742973       -3.01501142282275
H          -10.49608290215289       -0.29766622717053       -4.48028513464371
H            4.33545994054400       -6.07727203782406        2.41845566316447
H            0.47110271289828       -7.86800993507217        1.57951925433747
H            1.12313640858772        7.19940673988333       -2.27692186168513
H           -3.17424247903575        7.24956658413938       -1.65519579569181
O            3.54315644006183       -3.53969270259239        1.76121550432924
O           -0.64400936237042       -5.61178549917941        0.89687804858300
O            1.42787256528361        4.64784433078765       -1.53682210371447
O           -3.27919740185189        4.64417690506931       -0.83696018393825
C            4.79442157381273       -3.62061502587276        2.11795833487317
C            5.84161196352949       -3.89486500415422        1.20059403480993
C            5.18543851323491       -3.29216559957746        3.47766549800986
C            7.22472036841773       -3.85792988725401        1.59953629537650
H            5.54942041790289       -4.13373870354013        0.15560346011853
C            6.55189469559046       -3.25599314385103        3.86525591069183
H            4.36855447598178       -3.06762675516237        4.18453158523909
C            7.49411005912738       -3.54782347919105        2.88754923132268
H            7.96633169246926       -4.07839663178970        0.84232667344028
H            6.78942829242928       -3.00686329679599        4.88427633421753
H            8.60713456316592       -3.51546421668671        3.21756407964365
C           -1.67142663877006       -6.50482455434581        0.96113171204947
C           -2.06025329414950       -7.00273271397421        2.33056787509604
C           -2.29194552410773       -6.98251012073065       -0.11088371761627
C           -3.03191730810945       -7.89856314635295        2.47607572551171
H           -1.51587812129041       -6.57227306625861        3.19397606948114
C           -3.38705875822996       -7.97810415962032        0.08235881970628
H           -2.02007737706239       -6.62214075069715       -1.10678984646244
C           -3.72430890105521       -8.39886630855499        1.20401495403121
H           -3.35736272645585       -8.27344856360980        3.42817085290202
H           -3.87598761386881       -8.31038614603296       -0.88989139342753
H           -4.53659991693436       -9.15477274022673        1.40991517678283
C            2.60998995172163        5.13250099650145       -1.42111376941283
C            2.99725321593624        6.20611073242748       -0.57048337429644
C            3.69670936770894        4.50610305104477       -2.19162210257159
C            4.34631473093768        6.66950526117018       -0.45295831007676
H            2.19084338747263        6.68954981747759        0.03863265883561
C            5.04731663563977        4.96684577684308       -2.05822947770450
H            3.42132347201185        3.67638607653003       -2.83349974091554
C            5.29025297188071        6.00400745749065       -1.22202195994637
H            4.55726170859035        7.47580186166116        0.20820890246097
H            5.77815416631174        4.43161853172871       -2.65039240250931
H            6.38839361119443        6.37788826548527       -1.12538422217212
C           -4.55785704456594        5.06074019284222       -1.19543695099586
C           -4.92067309914070        5.26861375221838       -2.52903763971317
C           -5.49385625117474        5.15659394833252       -0.15047465122886
C           -6.25442430135231        5.60190970349330       -2.81934881530245
H           -4.17790930663062        5.16479518345371       -3.33041189116397
C           -6.82422116091255        5.48228765949728       -0.45933139963897
H           -5.17795738624307        4.96725232337072        0.88074169578452
C           -7.21838102693507        5.71654048398705       -1.80748330290205
H           -6.55341327727561        5.76790556918317       -3.87599827879657
H           -7.57119610018550        5.55905449935838        0.34466631137309
H           -8.25224983826182        5.97238480678121       -2.03584308926755
N            1.54803372981337        0.36862464954307        0.16810908175711
C            2.52742577967927        1.06901248066574        0.68358631568492
C            3.11715303718202        0.70239810827481        1.91649322483238
C            4.19250962442660        1.42543575106663        2.44537791930098
C            4.70682529401293        2.52402830653625        1.76906260011556
C            4.14214589227183        2.90999504021436        0.55013420072337
C            3.06779719318422        2.22117734652762       -0.00542782658017
C            2.50361465112514        2.61532105541114       -1.33978563286333
C            3.08000223099136        1.80266640665624       -2.49604300223336
C            4.57923599045115        1.92319823388060       -2.61149231657066
C            4.97950203089314        3.05585653728690       -3.30161909358281
C            6.49829315875434        3.30948391623457       -3.40008917933151
C            7.32732293839674        2.36043620772389       -2.80879434885125
C            6.84481917163269        1.30568111417390       -2.16690822888310
C            5.46702563586265        1.09710037513982       -2.06801429858072
H            2.72601250806722       -0.15202578232585        2.44432433363975
H            4.62415490261243        1.11522136083564        3.39380272062267
H            5.53984165765716        3.07276693168816        2.18041778115561
H            4.56751357046580        3.76934366601127        0.02416807136063
H            2.71251725562645        3.70062092049258       -1.53585994122227
H            1.39844450976297        2.51669054755314       -1.33664855211195
H            2.84929481163326        0.69553396446292       -2.31521733948579
H            2.57604566680607        2.06171089252682       -3.43153328271567
H            4.39186403441599        3.81797517604778       -3.75300664471017
H            6.81301703902502        4.17484722701196       -3.93063375621713
H            8.40251640189942        2.57957261878009       -2.91854103539026
H            7.54219615862456        0.58258810765769       -1.69916084322571
H            5.10169963659189        0.20131789147242       -1.50600331707274

 Bond Distances (Angstroems)
 ---------------------------
N1-C4=1.8031         N1-C9=1.0973         N1-Fe47=2.0368       N2-C11=1.0716        N2-C16=1.5395        N2-Fe47=2.0030       
C3-C4=0.6210         C3-C39=1.5720        C3-C106=1.8571       C4-N1=1.8031         C4-C3=0.6210         C5-H6=1.1386         
C5-C7=1.4466         H6-C5=1.1386         C7-C5=1.4466         C7-H8=1.3335         C7-C9=1.1407         H8-C7=1.3335         
C9-N1=1.0973         C9-C7=1.1407         C9-C10=1.7767        C10-C9=1.7767        C10-C11=1.5993       C10-C17=1.4028       
C11-N2=1.0716        C11-C10=1.5993       C11-C12=1.5138       C12-C11=1.5138       C12-H13=0.9567       C12-C14=1.5459       
H13-C12=0.9567       C14-C12=1.5459       C14-H15=1.0866       C14-C16=1.3725       H15-C14=1.0866       C16-N2=1.5395        
C16-C14=1.3725       C16-C26=1.3890       C17-C10=1.4028       C17-C18=1.4192       C17-C23=1.3646       C18-C17=1.4192       
C18-C19=1.3310       C18-O167=1.4755      C19-C18=1.3310       C19-C20=1.3786       C19-H163=1.1138      C20-C19=1.3786       
C20-H21=1.1713       C20-C22=1.3606       H21-C20=1.1713       C22-C20=1.3606       C22-C23=1.6686       C22-H164=1.0014      
C23-C17=1.3646       C23-C22=1.6686       C23-O168=1.2296      N24-C27=1.7959       N24-C32=1.2327       N24-Fe47=2.0067      
N25-C34=0.6996       N25-C35=1.5507       N25-Fe47=2.3932      C26-C16=1.3890       C26-C27=1.2959       C26-C49=1.6079       
C27-N24=1.7959       C27-C26=1.2959       C27-C28=1.3475       C27-C32=1.7389       C28-C27=1.3475       C28-H29=1.0616       
C28-C32=1.7663       H29-C28=1.0616       C30-H31=1.0793       C30-C32=1.1415       H31-C30=1.0793       C32-N24=1.2327       
C32-C27=1.7389       C32-C28=1.7663       C32-C30=1.1415       C33-C40=1.2934       C34-N25=0.6996       C34-C35=1.0419       
C34-C39=1.7017       C35-N25=1.5507       C35-C34=1.0419       C35-C37=1.5225       C37-C35=1.5225       C39-C3=1.5720        
C39-C34=1.7017       C40-C33=1.2934       C40-C41=1.4778       C40-C46=1.3136       C41-C40=1.4778       C41-C42=1.5666       
C41-O169=1.2947      C42-C41=1.5666       C42-C43=1.4300       C42-H165=1.0186      C43-C42=1.4300       C43-H44=1.1365       
C43-C45=1.3457       H44-C43=1.1365       C45-C43=1.3457       C45-C46=1.4119       C45-H166=1.1036      C46-C40=1.3136       
C46-C45=1.4119       C46-O170=1.4244      Fe47-N1=2.0368       Fe47-N2=2.0030       Fe47-N24=2.0067      Fe47-N25=2.3932      
Fe47-Cl48=1.9864     Fe47-N215=2.1346     Cl48-Fe47=1.9864     C49-C26=1.6079       C49-C50=1.4129       C49-C51=1.4395       
C50-C49=1.4129       C50-C52=1.3708       C50-N53=1.4290       C51-C49=1.4395       C51-C54=1.3678       C51-N55=1.4053       
C52-C50=1.3708       C52-H56=1.1112       C52-C57=1.4387       N53-C50=1.4290       N53-C58=1.3808       N53-H59=1.0220       
C54-C51=1.3678       C54-C57=1.4293       C54-H60=1.1198       N55-C51=1.4053       N55-C61=1.3922       N55-H62=1.0283       
H56-C52=1.1112       C57-C52=1.4387       C57-C54=1.4293       C57-H63=1.0561       C58-N53=1.3808       C58-O64=1.2329       
C58-C65=1.5132       H59-N53=1.0220       H60-C54=1.1198       C61-N55=1.3922       C61-O66=1.2497       C61-C67=1.4967       
H62-N55=1.0283       H63-C57=1.0561       O64-C58=1.2329       C65-C58=1.5132       C65-C68=1.5109       C65-H69=1.1007       
C65-C70=1.5358       O66-C61=1.2497       C67-C61=1.4967       C67-C71=1.5081       C67-H72=1.1084       C67-C73=1.5373       
C68-C65=1.5109       C68-C70=1.5131       C68-H74=1.1043       C68-H75=1.0971       H69-C65=1.1007       C70-C65=1.5358       
C70-C68=1.5131       C70-H76=1.0987       C70-C77=1.4905       C71-C67=1.5081       C71-C73=1.5154       C71-H78=1.1011       
C71-H79=1.1030       H72-C67=1.1084       C73-C67=1.5373       C73-C71=1.5154       C73-H80=1.1002       C73-C81=1.4889       
H74-C68=1.1043       H75-C68=1.0971       H76-C70=1.0987       C77-C70=1.4905       C77-O82=1.3443       C77-O83=1.2425       
H78-C71=1.1011       H79-C71=1.1030       H80-C73=1.1002       C81-C73=1.4889       C81-O84=1.3714       C81-O85=1.2138       
O82-C77=1.3443       O82-C86=1.4638       O83-C77=1.2425       O84-C81=1.3714       O84-C87=1.4571       O85-C81=1.2138       
C86-O82=1.4638       C86-C88=1.5283       C86-C89=1.5245       C86-H90=1.1117       C87-O84=1.4571       C87-C91=1.5264       
C87-C92=1.5298       C87-H93=1.1110       C88-C86=1.5283       C88-H94=1.1081       C88-H95=1.1100       C88-H96=1.1097       
C89-C86=1.5245       C89-H97=1.1085       C89-H98=1.1092       C89-H99=1.1100       H90-C86=1.1117       C91-C87=1.5264       
C91-H100=1.1084      C91-H101=1.1100      C91-H102=1.1092      C92-C87=1.5298       C92-H103=1.1079      C92-H104=1.1097      
C92-H105=1.1101      H93-C87=1.1110       H94-C88=1.1081       H95-C88=1.1100       H96-C88=1.1097       H97-C89=1.1085       
H98-C89=1.1092       H99-C89=1.1100       H100-C91=1.1084      H101-C91=1.1100      H102-C91=1.1092      H103-C92=1.1079      
H104-C92=1.1097      H105-C92=1.1101      C106-C3=1.8571       C106-C107=1.4047     C106-C108=1.4369     C107-C106=1.4047     
C107-C109=1.4709     C107-N110=1.2555     C108-C106=1.4369     C108-C111=1.3105     C108-N112=1.4990     C109-C107=1.4709     
C109-H113=1.0985     C109-C114=1.4227     N110-C107=1.2555     N110-C115=1.4930     N110-H116=1.0485     C111-C108=1.3105     
C111-C114=1.4111     C111-H117=1.1542     N112-C108=1.4990     N112-C118=1.3514     N112-H119=0.9648     H113-C109=1.0985     
C114-C109=1.4227     C114-C111=1.4111     C114-H120=1.0663     C115-N110=1.4930     C115-O121=1.1318     C115-C122=1.6433     
H116-N110=1.0485     H117-C111=1.1542     C118-N112=1.3514     C118-O123=1.2488     C118-C124=1.4430     H119-N112=0.9648     
H120-C114=1.0663     O121-C115=1.1318     C122-C115=1.6433     C122-C125=1.0407     C122-H126=1.2151     C122-C127=1.2927     
O123-C118=1.2488     C124-C118=1.4430     C124-C128=1.5616     C124-H129=1.1522     C124-C130=1.5772     C125-C122=1.0407     
C125-C127=1.0290     C125-H131=1.3624     C125-H132=1.3855     H126-C122=1.2151     C127-C122=1.2927     C127-C125=1.0290     
C127-H133=1.2427     C127-C134=1.6519     C128-C124=1.5616     C128-C130=1.5098     C128-H135=1.1243     C128-H136=1.0674     
H129-C124=1.1522     C130-C124=1.5772     C130-C128=1.5098     C130-H137=1.1272     C130-C138=1.4921     H131-C125=1.3624     
H132-C125=1.3855     H133-C127=1.2427     C134-C127=1.6519     C134-O139=1.2666     C134-O140=1.3732     H135-C128=1.1243     
H136-C128=1.0674     H137-C130=1.1272     C138-C130=1.4921     C138-O141=1.3551     C138-O142=1.1936     O139-C134=1.2666     
O139-C143=1.4853     O140-C134=1.3732     O140-C225=1.3801     O140-C226=1.4704     O141-C138=1.3551     O141-C144=1.4812     
O142-C138=1.1936     C143-O139=1.4853     C143-C145=1.5217     C143-C146=1.5250     C143-H147=1.1124     C144-O141=1.4812     
C144-C148=1.5251     C144-C149=1.5266     C144-H150=1.1043     C145-C143=1.5217     C145-H151=1.1081     C145-H152=1.1106     
C145-H153=1.1096     C146-C143=1.5250     C146-H154=1.1081     C146-H155=1.1102     C146-H156=1.1103     H147-C143=1.1124     
C148-C144=1.5251     C148-H157=1.1082     C148-H158=1.1091     C148-H159=1.1116     C149-C144=1.5266     C149-H160=1.1083     
C149-H161=1.1109     C149-H162=1.1086     H150-C144=1.1043     H151-C145=1.1081     H152-C145=1.1106     H153-C145=1.1096     
H154-C146=1.1081     H155-C146=1.1102     H156-C146=1.1103     H157-C148=1.1082     H158-C148=1.1091     H159-C148=1.1116     
H160-C149=1.1083     H161-C149=1.1109     H162-C149=1.1086     H163-C19=1.1138      H164-C22=1.0014      H165-C42=1.0186      
H166-C45=1.1036      O167-C18=1.4755      O167-C171=1.3036     O168-C23=1.2296      O168-C182=1.3628     O169-C41=1.2947      
O169-C193=1.2828     O170-C46=1.4244      O170-C204=1.3918     C171-O167=1.3036     C171-C172=1.4189     C171-C173=1.4524     
C172-C171=1.4189     C172-C174=1.4400     C172-H175=1.1111     C173-C171=1.4524     C173-C176=1.4208     C173-H177=1.1033     
C174-C172=1.4400     C174-C178=1.3519     C174-H179=1.0826     H175-C172=1.1111     C176-C173=1.4208     C176-C178=1.3888     
C176-H180=1.0756     H177-C173=1.1033     C178-C174=1.3519     C178-C176=1.3888     C178-H181=1.1614     H179-C174=1.0826     
H180-C176=1.0756     H181-C178=1.1614     C182-O168=1.3628     C182-C183=1.5081     C182-C184=1.3276     C183-C182=1.5081     
C183-C185=1.3296     C183-H186=1.1078     C184-C182=1.3276     C184-C187=1.4926     C184-H188=1.0934     C185-C183=1.3296     
C185-C189=1.5323     C185-H190=1.0738     H186-C183=1.1078     C187-C184=1.4926     C187-C189=1.2445     C187-H191=1.1379     
H188-C184=1.0934     C189-C185=1.5323     C189-C187=1.2445     C189-H192=1.1285     H190-C185=1.0738     H191-C187=1.1379     
H192-C189=1.1285     C193-O169=1.2828     C193-C194=1.4234     C193-C195=1.4721     C194-C193=1.4234     C194-C196=1.4313     
C194-H197=1.1203     C195-C193=1.4721     C195-C198=1.4333     C195-H199=1.0846     C196-C194=1.4313     C196-C200=1.3876     
C196-H201=1.0638     H197-C194=1.1203     C198-C195=1.4333     C198-C200=1.3542     C198-H202=1.0822     H199-C195=1.0846     
C200-C196=1.3876     C200-C198=1.3542     C200-H203=1.1641     H201-C196=1.0638     H202-C198=1.0822     H203-C200=1.1641     
C204-O170=1.3918     C204-C205=1.3976     C204-C206=1.4061     C205-C204=1.3976     C205-C207=1.4051     C205-H208=1.0976     
C206-C204=1.4061     C206-C209=1.4040     C206-H210=1.0950     C207-C205=1.4051     C207-C211=1.4022     C207-H212=1.1106     
H208-C205=1.0976     C209-C206=1.4040     C209-C211=1.4240     C209-H213=1.1001     H210-C206=1.0950     C211-C207=1.4022     
C211-C209=1.4240     C211-H214=1.0893     H212-C207=1.1106     H213-C209=1.1001     H214-C211=1.0893     N215-Fe47=2.1346     
N215-C216=1.3098     C216-N215=1.3098     C216-C217=1.4150     C216-C221=1.4471     C217-C216=1.4150     C217-C218=1.3996     
C217-H230=1.0778     C218-C217=1.3996     C218-C219=1.3888     C218-H231=1.0872     C219-C218=1.3888     C219-C220=1.3977     
C219-H232=1.0790     C220-C219=1.3977     C220-C221=1.3919     C220-H233=1.0936     C221-C216=1.4471     C221-C220=1.3919     
C221-C222=1.5014     C222-C221=1.5014     C222-C223=1.5263     C222-H234=1.1225     C222-H235=1.1096     C223-C222=1.5263     
C223-C224=1.5085     C223-H236=1.1453     C223-H237=1.0937     C224-C223=1.5085     C224-C225=1.3854     C224-C229=1.3289     
C225-O140=1.3801     C225-C224=1.3854     C225-C226=1.5430     C225-H238=1.0630     C226-O140=1.4704     C226-C225=1.5430     
C226-C227=1.3920     C226-H239=1.0627     C227-C226=1.3920     C227-C228=1.3256     C227-H240=1.1028     C228-C227=1.3256     
C228-C229=1.3970     C228-H241=1.1081     C229-C224=1.3289     C229-C228=1.3970     C229-H242=1.1188     H230-C217=1.0778     
H231-C218=1.0872     H232-C219=1.0790     H233-C220=1.0936     H234-C222=1.1225     H235-C222=1.1096     H236-C223=1.1453     
H237-C223=1.0937     H238-C225=1.0630     H239-C226=1.0627     H240-C227=1.1028     H241-C228=1.1081     H242-C229=1.1188     
 C  H  Rav=1.1127 sigma=0.0567  Rmin=0.9567  Rmax=1.3855    95
 C  C  Rav=1.4375 sigma=0.1527  Rmin=0.6210  Rmax=1.8571   113
 N  H  Rav=1.0159 sigma=0.0311  Rmin=0.9648  Rmax=1.0485     4
 N  C  Rav=1.3710 sigma=0.2562  Rmin=0.6996  Rmax=1.8031    17
 O  C  Rav=1.3357 sigma=0.1003  Rmin=1.1318  Rmax=1.4853    26
 Fe N  Rav=2.1149 sigma=0.1471  Rmin=2.0030  Rmax=2.3932     5
 Fe Cl Rav=1.9864 sigma=0.0000  Rmin=1.9864  Rmax=1.9864     1

 selected bond angles (degree)
 --------------------
C9-N1-C4=110.29                Fe47-N1-C4=100.02              Fe47-N1-C9=146.47              C16-N2-C11=102.24              
Fe47-N2-C11=135.65             Fe47-N2-C16=120.17             C39-C3-C4=121.11               C106-C3-C4=120.64              
C106-C3-C39= 85.18             C3-C4-N1=140.04                C7-C5-H6=170.79                H8-C7-C5= 87.11                
C9-C7-C5=105.13                C9-C7-H8=130.12                C7-C9-N1=139.45                C10-C9-N1=111.50               
C10-C9-C7=101.32               C11-C10-C9=112.98              C17-C10-C9=117.39              C17-C10-C11=129.62             

 selected dihedral angles (degree)
 ---------------------------------
C3-C4-N1-C9=145.20            C3-C4-N1-Fe47=339.77          N1-C4-C3-C39= 82.56           N1-C4-C3-C106=186.66          
H8-C7-C5-H6=  2.37            C9-C7-C5-H6=133.27            C7-C9-N1-C4=332.17            C7-C9-N1-Fe47=125.51          
C10-C9-N1-C4=190.46           C10-C9-N1-Fe47=343.80         N1-C9-C7-C5= 38.21            N1-C9-C7-H8=137.40            
C10-C9-C7-C5=182.20           C10-C9-C7-H8=281.39           C11-C10-C9-N1=  5.76          C11-C10-C9-C7=210.02          
C17-C10-C9-N1=184.48          C17-C10-C9-C7= 28.73          
           -------------------------------------------------
          |                Final Singlepoint                |
           -------------------------------------------------
         :::::::::::::::::::::::::::::::::::::::::::::::::::::
         ::                     SUMMARY                     ::
         :::::::::::::::::::::::::::::::::::::::::::::::::::::
         :: total energy             -39.960858277064 Eh    ::
         :: total w/o Gsolv          -39.815404520731 Eh    ::
         :: total w/o Gsasa/hb       -39.841106949242 Eh    ::
         :: gradient norm             16.248731933455 Eh/a0 ::
         ::.................................................::
         :: bond energy              -48.017269418533 Eh    ::
         :: angle energy               1.046656550848 Eh    ::
         :: torsion energy             0.448949035519 Eh    ::
         :: repulsion energy           8.166802757551 Eh    ::
         :: electrostat energy        -1.085426535543 Eh    ::
         :: dispersion energy         -0.321651150379 Eh    ::
         :: HB energy                 -0.013967409714 Eh    ::
         :: XB energy                 -0.000102346138 Eh    ::
         :: bonded atm energy         -0.039396004340 Eh    ::
         :: external energy            0.000000000000 Eh    ::
         :: -> Gsolv                  -0.145453756333 Eh    ::
         ::    -> Gborn               -0.025702428511 Eh    ::
         ::    -> Gsasa               -0.120726167273 Eh    ::
         ::    -> Ghb                 -0.005808372014 Eh    ::
         ::    -> Gshift               0.006783211464 Eh    ::
         :: add. restraining           0.000000000000 Eh    ::
         :: total charge              -0.000000000000 e     ::
         :::::::::::::::::::::::::::::::::::::::::::::::::::::

           -------------------------------------------------
          |                Property Printout                |
           -------------------------------------------------

molecular dipole:
                 x           y           z       tot (Debye)
 q only:        3.663       1.253      -0.471       9.913
           -------------------------------------------------
          |                Geometry Summary                 |
           -------------------------------------------------

      molecular mass/u    :     1944.3747980
   center of mass at/Å    :       -0.0552885       0.1755887      -0.0274039
  moments of inertia/u·Å² :        0.4791096E+05   0.6566890E+05   0.6776925E+05
rotational constants/cm⁻¹ :        0.3518533E-03   0.2567065E-03   0.2487505E-03

 * 183 selected distances

     #   Z          #   Z                                           value/Å
     3   6 C        4   6 C                                       0.6210500 (min)
     1   7 N        9   6 C                                       1.0973401
     7   6 C        9   6 C                                       1.1407243
     2   7 N       11   6 C                                       1.0716231
    12   6 C       13   1 H                                       0.9567164
    14   6 C       15   1 H                                       1.0865707
    14   6 C       16   6 C                                       1.3725283
    10   6 C       17   6 C                                       1.4027954
    17   6 C       18   6 C                                       1.4191532
    18   6 C       19   6 C                                       1.3310434
    19   6 C       20   6 C                                       1.3785894
    20   6 C       22   6 C                                       1.3606015
    17   6 C       23   6 C                                       1.3646370
    16   6 C       26   6 C                                       1.3890051
    26   6 C       27   6 C                                       1.2958632
    27   6 C       28   6 C                                       1.3475349
    28   6 C       29   1 H                                       1.0616049
    30   6 C       31   1 H                                       1.0792547
    24   7 N       32   6 C                                       1.2326929
    30   6 C       32   6 C                                       1.1414891
    25   7 N       34   6 C                                       0.6995723
    34   6 C       35   6 C                                       1.0418624
    33   6 C       40   6 C                                       1.2934111
    42   6 C       43   6 C                                       1.4299647
    43   6 C       45   6 C                                       1.3457076
    40   6 C       46   6 C                                       1.3136497
    45   6 C       46   6 C                                       1.4119119
    47  26 Fe      48  17 Cl                                      1.9863561 (max)
    49   6 C       50   6 C                                       1.4129454
    50   6 C       52   6 C                                       1.3708074
    51   6 C       54   6 C                                       1.3678316
    51   6 C       55   7 N                                       1.4053099
    54   6 C       57   6 C                                       1.4293198
    53   7 N       58   6 C                                       1.3808461
    53   7 N       59   1 H                                       1.0220237
    55   7 N       61   6 C                                       1.3922212
    55   7 N       62   1 H                                       1.0282556
    57   6 C       63   1 H                                       1.0561189
    58   6 C       64   8 O                                       1.2328926
    65   6 C       68   6 C                                       1.5108576
    65   6 C       69   1 H                                       1.1006705
    65   6 C       70   6 C                                       1.5358448
    68   6 C       70   6 C                                       1.5131221
    67   6 C       71   6 C                                       1.5081168
    67   6 C       72   1 H                                       1.1084081
    67   6 C       73   6 C                                       1.5372901
    71   6 C       73   6 C                                       1.5154166
    68   6 C       74   1 H                                       1.1043398
    68   6 C       75   1 H                                       1.0971415
    70   6 C       76   1 H                                       1.0987404
    71   6 C       78   1 H                                       1.1010815
    71   6 C       79   1 H                                       1.1030084
    73   6 C       80   1 H                                       1.1001807
    77   6 C       82   8 O                                       1.3443288
    77   6 C       83   8 O                                       1.2424502
    81   6 C       84   8 O                                       1.3714221
    81   6 C       85   8 O                                       1.2137881
    86   6 C       88   6 C                                       1.5282523
    86   6 C       89   6 C                                       1.5245184
    86   6 C       90   1 H                                       1.1117241
    87   6 C       91   6 C                                       1.5264005
    87   6 C       92   6 C                                       1.5298242
    87   6 C       93   1 H                                       1.1109894
    88   6 C       94   1 H                                       1.1081282
    88   6 C       95   1 H                                       1.1099545
    88   6 C       96   1 H                                       1.1096634
    89   6 C       97   1 H                                       1.1084533
    89   6 C       98   1 H                                       1.1092055
    89   6 C       99   1 H                                       1.1100460
    91   6 C      100   1 H                                       1.1083949
    91   6 C      101   1 H                                       1.1099926
    91   6 C      102   1 H                                       1.1091750
    92   6 C      103   1 H                                       1.1078584
    92   6 C      104   1 H                                       1.1096881
    92   6 C      105   1 H                                       1.1101314
   106   6 C      107   6 C                                       1.4046709
   107   6 C      110   7 N                                       1.2554938
   108   6 C      111   6 C                                       1.3105488
   109   6 C      113   1 H                                       1.0984844
   109   6 C      114   6 C                                       1.4227329
   111   6 C      114   6 C                                       1.4111311
   110   7 N      116   1 H                                       1.0484566
   112   7 N      118   6 C                                       1.3514304
   112   7 N      119   1 H                                       0.9648054
   114   6 C      120   1 H                                       1.0662517
   115   6 C      121   8 O                                       1.1318090
   118   6 C      124   6 C                                       1.4430111
   122   6 C      125   6 C                                       1.0407432
   122   6 C      127   6 C                                       1.2926931
   125   6 C      127   6 C                                       1.0289874
   124   6 C      129   1 H                                       1.1521571
   128   6 C      130   6 C                                       1.5097931
   128   6 C      135   1 H                                       1.1242949
   128   6 C      136   1 H                                       1.0674335
   130   6 C      137   1 H                                       1.1271549
   134   6 C      139   8 O                                       1.2665948
   134   6 C      140   8 O                                       1.3732279
   138   6 C      141   8 O                                       1.3550832
   138   6 C      142   8 O                                       1.1935605
   143   6 C      145   6 C                                       1.5216900
   143   6 C      146   6 C                                       1.5249699
   143   6 C      147   1 H                                       1.1123525
   144   6 C      148   6 C                                       1.5251379
   144   6 C      149   6 C                                       1.5266301
   144   6 C      150   1 H                                       1.1043194
   145   6 C      151   1 H                                       1.1080605
   145   6 C      152   1 H                                       1.1106068
   145   6 C      153   1 H                                       1.1095700
   146   6 C      154   1 H                                       1.1080896
   146   6 C      155   1 H                                       1.1102282
   146   6 C      156   1 H                                       1.1103036
   148   6 C      157   1 H                                       1.1081985
   148   6 C      158   1 H                                       1.1091069
   148   6 C      159   1 H                                       1.1116327
   149   6 C      160   1 H                                       1.1083139
   149   6 C      161   1 H                                       1.1108741
   149   6 C      162   1 H                                       1.1085747
    22   6 C      164   1 H                                       1.0014288
    42   6 C      165   1 H                                       1.0185886
    45   6 C      166   1 H                                       1.1036371
    23   6 C      168   8 O                                       1.2296356
    41   6 C      169   8 O                                       1.2947271
   167   8 O      171   6 C                                       1.3036405
   171   6 C      172   6 C                                       1.4189357
   173   6 C      176   6 C                                       1.4208229
   173   6 C      177   1 H                                       1.1033481
   174   6 C      178   6 C                                       1.3519299
   176   6 C      178   6 C                                       1.3888288
   174   6 C      179   1 H                                       1.0825708
   176   6 C      180   1 H                                       1.0755885
   168   8 O      182   6 C                                       1.3628037
   182   6 C      184   6 C                                       1.3275709
   183   6 C      185   6 C                                       1.3295924
   184   6 C      188   1 H                                       1.0934384
   187   6 C      189   6 C                                       1.2445446
   185   6 C      190   1 H                                       1.0737500
   169   8 O      193   6 C                                       1.2828415
   193   6 C      194   6 C                                       1.4234406
   193   6 C      195   6 C                                       1.4720791
   194   6 C      196   6 C                                       1.4312631
   195   6 C      198   6 C                                       1.4332543
   195   6 C      199   1 H                                       1.0845620
   196   6 C      200   6 C                                       1.3875756
   198   6 C      200   6 C                                       1.3542399
   196   6 C      201   1 H                                       1.0638398
   198   6 C      202   1 H                                       1.0822425
   170   8 O      204   6 C                                       1.3917620
   204   6 C      205   6 C                                       1.3976187
   204   6 C      206   6 C                                       1.4061398
   205   6 C      207   6 C                                       1.4050834
   205   6 C      208   1 H                                       1.0975779
   206   6 C      209   6 C                                       1.4040442
   206   6 C      210   1 H                                       1.0950113
   207   6 C      211   6 C                                       1.4022214
   209   6 C      211   6 C                                       1.4239910
   209   6 C      213   1 H                                       1.1001260
   211   6 C      214   1 H                                       1.0892610
   215   7 N      216   6 C                                       1.3097591
   216   6 C      217   6 C                                       1.4150068
   217   6 C      218   6 C                                       1.3996052
   218   6 C      219   6 C                                       1.3888229
   219   6 C      220   6 C                                       1.3977196
   220   6 C      221   6 C                                       1.3918852
   222   6 C      223   6 C                                       1.5262902
   140   8 O      225   6 C                                       1.3800926
   224   6 C      225   6 C                                       1.3854252
   140   8 O      226   6 C                                       1.4703704
   225   6 C      226   6 C                                       1.5429680
   226   6 C      227   6 C                                       1.3919813
   227   6 C      228   6 C                                       1.3256456
   224   6 C      229   6 C                                       1.3289006
   228   6 C      229   6 C                                       1.3969973
   217   6 C      230   1 H                                       1.0777926
   218   6 C      231   1 H                                       1.0872260
   219   6 C      232   1 H                                       1.0790012
   220   6 C      233   1 H                                       1.0936445
   222   6 C      234   1 H                                       1.1224801
   222   6 C      235   1 H                                       1.1095671
   223   6 C      236   1 H                                       1.1452800
   223   6 C      237   1 H                                       1.0937178
   225   6 C      238   1 H                                       1.0629648
   226   6 C      239   1 H                                       1.0627241
   227   6 C      240   1 H                                       1.1027721

 * 6 distinct bonds (by element types)

   Z      Z             #   av. dist./Å        max./Å        min./Å
   1 H    6 C          73     1.0952793     1.1521571     0.9567164
   6 C    6 C          77     1.3829771     1.5429680     0.6210500
   1 H    7 N           4     1.0158853     1.0484566     0.9648054
   6 C    7 N          10     1.2196289     1.4053099     0.6995723
   6 C    8 O          18     1.3022795     1.4703704     1.1318090
  17 Cl  26 Fe          1     1.9863561     1.9863561     1.9863561


optimized geometry written to: xtbopt.xyz


           -------------------------------------------------
          | TOTAL ENERGY              -39.960858277064 Eh   |
          | GRADIENT NORM               0.207371657670 Eh/α |
           -------------------------------------------------

------------------------------------------------------------------------
 * finished run on 2026/09/07 at 18:12:01.102     
------------------------------------------------------------------------
 total:
 * wall-time:     0 d,  0 h,  0 min,  9.780 sec
 *  cpu-time:     0 d,  0 h,  0 min,  9.761 sec
 * ratio c/w:     0.998 speedup
 SCF:
 * wall-time:     0 d,  0 h,  0 min,  0.021 sec
 *  cpu-time:     0 d,  0 h,  0 min,  0.021 sec
 * ratio c/w:     0.998 speedup
 ANC optimizer:
 * wall-time:     0 d,  0 h,  0 min,  9.751 sec
 *  cpu-time:     0 d,  0 h,  0 min,  9.733 sec
 * ratio c/w:     0.998 speedup

