40

C     -3.864070    1.408814   -1.453454
C     -3.565478    0.674072   -0.124303
C     -4.628200   -0.433093    0.047740
C     -3.704706    1.700887    1.020565
C     -2.156824    0.046212   -0.083213
C     -1.241057    0.148915   -1.156960
C      0.027143   -0.432584   -1.078264
C      0.419952   -1.134513    0.067755
C      1.798281   -1.741557    0.153687
C      2.857390   -0.667578    0.304584
C      2.802863    0.150069    1.450180
C      3.733951    1.168954    1.647740
C      4.740999    1.383947    0.711006
C      4.827431    0.574483   -0.421785
C      3.901286   -0.460583   -0.640340
S      4.107541   -1.483565   -2.074124
N      5.494703   -0.994493   -2.982363
O      2.898329   -1.375232   -2.958849
O      4.298751   -2.912288   -1.649136
C     -0.473182   -1.240953    1.141176
C     -1.741730   -0.661389    1.066975
H     -4.887520    1.843158   -1.442583
H     -3.808807    0.708049   -2.314495
H     -3.149659    2.245247   -1.613114
H     -4.542283   -0.932346    1.035381
H     -4.514034   -1.204454   -0.744446
H     -5.653786   -0.009742   -0.021989
H     -2.919294    2.482891    0.935652
H     -3.609921    1.218455    2.015767
H     -4.698340    2.198264    0.985641
H     -1.483148    0.676778   -2.066978
H      0.706952   -0.328537   -1.913332
H      1.949599   -2.377794   -0.737542
H      1.868157   -2.427629    1.025882
H      2.029514    0.000201    2.193568
H      3.673880    1.793234    2.529927
H      5.462608    2.175693    0.866244
H      5.628514    0.758791   -1.124309
H     -0.187616   -1.770427    2.041746
H     -2.398191   -0.768359    1.919626
