40

C     -3.899719   -1.842634   -0.432306
C     -3.609673   -0.368154   -0.061598
C     -3.996817    0.505184   -1.274798
C     -4.506995   -0.002367    1.140818
C     -2.132094   -0.115347    0.303159
C     -1.153617   -1.137316    0.286645
C      0.175496   -0.865468    0.621638
C      0.569093    0.428140    0.984990
C      2.009884    0.718317    1.324979
C      2.881057    0.674021    0.085216
C      2.608345    1.599829   -0.940657
C      3.357589    1.607043   -2.116524
C      4.397658    0.697390   -2.285709
C      4.699507   -0.216223   -1.275700
C      3.959319   -0.239939   -0.080530
S      4.436549   -1.391849    1.180470
N      5.807997   -2.317075    0.679076
O      4.800851   -0.644537    2.432362
O      3.304466   -2.337241    1.465587
C     -0.386502    1.451771    1.001458
C     -1.716053    1.184717    0.667408
H     -4.973478   -1.981747   -0.685112
H     -3.667871   -2.518162    0.419412
H     -3.306442   -2.152256   -1.319804
H     -3.331858    0.284164   -2.137696
H     -3.916586    1.587403   -1.041304
H     -5.046652    0.308702   -1.583263
H     -4.212514   -0.591962    2.035945
H     -5.574358   -0.217472    0.916364
H     -4.432353    1.075875    1.393590
H     -1.392981   -2.154344    0.015098
H      0.900964   -1.667374    0.590832
H      2.106285    1.725892    1.785197
H      2.329356    0.003536    2.105370
H      1.805326    2.318302   -0.830596
H      3.130559    2.320291   -2.898397
H      4.977842    0.704574   -3.199500
H      5.521260   -0.901384   -1.432288
H     -0.103258    2.462145    1.269478
H     -2.419580    2.005553    0.693389
