40

C     -4.546061   -0.910440    0.475920
C     -3.609145    0.018100   -0.327059
C     -3.967012    1.490262   -0.028498
C     -3.874264   -0.234265   -1.830944
C     -2.145766   -0.248421    0.082435
C     -1.752859   -0.063635    1.426874
C     -0.436617   -0.292710    1.833945
C      0.528303   -0.715612    0.911355
C      1.955093   -0.946646    1.344203
C      2.877258    0.118467    0.783510
C      2.613111    1.460751    1.119994
C      3.412001    2.492831    0.629127
C      4.495120    2.203638   -0.196191
C      4.791255    0.880497   -0.523734
C      4.001947   -0.176454   -0.036835
S      4.477872   -1.834799   -0.446328
N      3.241083   -2.590886   -1.385552
O      5.749595   -1.830996   -1.247742
O      4.711359   -2.619131    0.814174
C      0.157567   -0.900212   -0.426149
C     -1.158112   -0.672197   -0.837952
H     -5.604070   -0.766740    0.166270
H     -4.488968   -0.705835    1.565392
H     -4.273711   -1.974626    0.305847
H     -5.005084    1.717840   -0.354879
H     -3.273992    2.172931   -0.566362
H     -3.903888    1.713985    1.056911
H     -4.938435   -0.033488   -2.082834
H     -3.251173    0.436526   -2.461257
H     -3.662617   -1.292183   -2.098394
H     -2.464327    0.262667    2.173020
H     -0.170990   -0.134800    2.871919
H      2.239286   -1.969608    1.036748
H      2.035320   -0.929975    2.452953
H      1.778011    1.710230    1.763025
H      3.190144    3.519617    0.890050
H      5.113575    3.006400   -0.576647
H      5.647645    0.685553   -1.155471
H      0.891429   -1.215258   -1.156160
H     -1.379879   -0.831374   -1.882392
