40

C     -4.527214   -0.428032   -0.102656
C     -3.439077    0.654066    0.068365
C     -3.698627    1.753491   -0.989703
C     -3.576813    1.304293    1.462381
C     -2.044818    0.006627   -0.061303
C     -1.116211    0.381885   -1.060515
C      0.140003   -0.224926   -1.138941
C      0.515625   -1.211031   -0.216350
C      1.863314   -1.882146   -0.312840
C      3.001301   -0.881673   -0.362077
C      3.649448   -0.679152   -1.596068
C      4.690708    0.240573   -1.715141
C      5.099368    0.978219   -0.607784
C      4.469073    0.798955    0.623445
C      3.422476   -0.128293    0.769875
S      2.655508   -0.274113    2.363460
N      3.621946    0.505324    3.566221
O      2.510037   -1.717297    2.753637
O      1.305631    0.384134    2.336045
C     -0.404933   -1.613969    0.759293
C     -1.661251   -1.009818    0.841419
H     -4.416058   -0.935633   -1.085291
H     -4.467507   -1.197071    0.695571
H     -5.542398    0.022559   -0.054893
H     -4.709534    2.197125   -0.857516
H     -2.958188    2.577077   -0.894820
H     -3.652136    1.333276   -2.017674
H     -3.511551    0.549732    2.273829
H     -4.558362    1.816348    1.563689
H     -2.772805    2.055720    1.619150
H     -1.340719    1.141572   -1.793887
H      0.822822    0.079715   -1.922134
H      2.026425   -2.590734    0.523278
H      1.859734   -2.515640   -1.226421
H      3.344112   -1.232255   -2.475850
H      5.178480    0.384928   -2.670579
H      5.904090    1.695738   -0.704032
H      4.800373    1.396272    1.461970
H     -0.148056   -2.391456    1.468071
H     -2.334218   -1.344389    1.618936
