40

C     -4.454990   -0.343738   -0.841951
C     -3.479548   -0.203729    0.346804
C     -3.936242    1.011626    1.189391
C     -3.578894   -1.457954    1.242403
C     -2.037884   -0.064311   -0.184342
C     -1.234490    1.072002    0.070429
C      0.069910    1.155674   -0.423516
C      0.619083    0.105126   -1.171465
C      2.019685    0.203194   -1.723431
C      3.036380    0.548031   -0.653009
C      3.562308    1.854564   -0.638331
C      4.486430    2.243261    0.330795
C      4.897258    1.338138    1.305134
C      4.386317    0.040374    1.314242
C      3.459814   -0.376988    0.342646
S      2.837628   -2.035849    0.443035
N      3.804191   -2.972837    1.527455
O      1.426725   -2.015417    0.957954
O      2.878520   -2.701575   -0.902821
C     -0.175169   -1.012555   -1.457158
C     -1.479104   -1.100352   -0.965097
H     -4.251858   -1.262398   -1.430980
H     -4.365711    0.532472   -1.520086
H     -5.506035   -0.403530   -0.484689
H     -4.975813    0.868389    1.556805
H     -3.923956    1.942323    0.581840
H     -3.283510    1.144252    2.079276
H     -3.370792   -2.386283    0.670594
H     -2.850645   -1.393241    2.079729
H     -4.599089   -1.555364    1.673228
H     -1.595003    1.909674    0.648095
H      0.653851    2.043969   -0.217645
H      2.321742   -0.731246   -2.236635
H      2.014067    0.977305   -2.521353
H      3.251536    2.581705   -1.378506
H      4.881029    3.251184    0.328730
H      5.610404    1.643926    2.059848
H      4.714901   -0.635656    2.091857
H      0.217455   -1.826410   -2.054089
H     -2.050499   -1.987757   -1.200411
