40

C     -3.853630    1.562832    1.422173
C     -3.601142    0.461811    0.364040
C     -4.575062   -0.700510    0.656041
C     -3.920110    1.062091   -1.022464
C     -2.151619   -0.066368    0.374417
C     -1.771269   -1.078106   -0.535394
C     -0.467692   -1.579005   -0.556848
C      0.496645   -1.086590    0.331224
C      1.910319   -1.612824    0.298535
C      2.870256   -0.571840   -0.243776
C      2.640695   -0.079077   -1.543472
C      3.475547    0.889068   -2.100322
C      4.560614    1.374164   -1.375585
C      4.822583    0.884047   -0.096195
C      3.996638   -0.095220    0.483525
S      4.429674   -0.713209    2.088164
N      3.183979   -0.336236    3.223767
O      4.623715   -2.201948    2.020610
O      5.711421   -0.086520    2.561390
C      0.138369   -0.081055    1.237302
C     -1.164615    0.423119    1.262328
H     -3.203124    2.445301    1.238899
H     -3.669211    1.176220    2.447861
H     -4.908130    1.913121    1.382813
H     -5.624293   -0.335287    0.696558
H     -4.526419   -1.482079   -0.130633
H     -4.331441   -1.172443    1.632526
H     -3.200576    1.873340   -1.266919
H     -4.946763    1.488174   -1.041101
H     -3.864837    0.294558   -1.822456
H     -2.482755   -1.487155   -1.239569
H     -0.211299   -2.350430   -1.272425
H      2.168785   -1.948659    1.319395
H      1.976384   -2.517616   -0.344138
H      1.804779   -0.443555   -2.127867
H      3.280114    1.263644   -3.096860
H      5.207025    2.126169   -1.809522
H      5.681215    1.269620    0.437268
H      0.872352    0.320505    1.923410
H     -1.377121    1.197948    1.983337
