40

C     -3.909339   -0.429782   -1.935469
C     -3.610261   -0.278102   -0.424446
C     -4.429486   -1.351301    0.325148
C     -4.085841    1.125608    0.009015
C     -2.114373   -0.441830   -0.084286
C     -1.688214   -0.332459    1.258272
C     -0.342195   -0.472334    1.603728
C      0.620427   -0.727944    0.619294
C      2.077639   -0.861724    0.986855
C      2.879332    0.325819    0.490609
C      2.510016    1.606140    0.947892
C      3.194631    2.743872    0.522180
C      4.266764    2.623812   -0.357620
C      4.666558    1.364694   -0.805357
C      3.993532    0.203483   -0.386009
S      4.598919   -1.365092   -0.949373
N      3.399149   -2.152071   -1.910973
O      4.949308   -2.225206    0.232148
O      5.833631   -1.179030   -1.786286
C      0.216587   -0.835657   -0.717026
C     -1.128960   -0.696392   -1.067302
H     -4.996015   -0.307585   -2.136530
H     -3.372960    0.344704   -2.525357
H     -3.614893   -1.438350   -2.298248
H     -4.349094   -1.232193    1.425796
H     -5.507165   -1.280433    0.061521
H     -4.070354   -2.368497    0.056949
H     -4.001292    1.264584    1.107053
H     -3.477363    1.910718   -0.489952
H     -5.151776    1.282912   -0.264754
H     -2.396750   -0.135009    2.050980
H     -0.052075   -0.376227    2.642707
H      2.439627   -1.825681    0.584988
H      2.198496   -0.928566    2.090017
H      1.681296    1.724463    1.635162
H      2.892553    3.721152    0.876104
H      4.796403    3.508373   -0.687308
H      5.512063    1.301517   -1.477390
H      0.947033   -1.021195   -1.493396
H     -1.375559   -0.789192   -2.114178
