40

C     -3.991811    1.358910    0.318925
C     -3.487190   -0.103996    0.289340
C     -3.607625   -0.669635    1.721330
C     -4.412261   -0.900456   -0.656239
C     -2.027069   -0.230756   -0.192248
C     -1.248111    0.885692   -0.577379
C      0.074028    0.728131   -1.001132
C      0.665276   -0.542170   -1.038944
C      2.085691   -0.716230   -1.516538
C      3.054330    0.188611   -0.780751
C      3.563723    1.307911   -1.467429
C      4.443418    2.191331   -0.842929
C      4.825391    1.977345    0.478309
C      4.329915    0.878833    1.180524
C      3.448283   -0.030023    0.569540
S      2.842288   -1.384839    1.542298
N      3.775539   -1.547842    2.988203
O      1.411685   -1.132002    1.923950
O      2.945135   -2.674909    0.779849
C     -0.103523   -1.659572   -0.689626
C     -1.425071   -1.506479   -0.265184
H     -3.966115    1.807771   -0.697603
H     -3.377048    1.975963    1.009474
H     -5.043557    1.406043    0.676451
H     -3.365644   -1.752401    1.755017
H     -2.914514   -0.135693    2.407010
H     -4.643118   -0.548953    2.107451
H     -5.476052   -0.789317   -0.353082
H     -4.306153   -0.533261   -1.700027
H     -4.174706   -1.984674   -0.642394
H     -1.641492    1.890849   -0.560807
H      0.638634    1.603146   -1.297794
H      2.419216   -1.769179   -1.427914
H      2.102997   -0.502880   -2.607474
H      3.274402    1.503640   -2.492686
H      4.825812    3.047159   -1.384181
H      5.503907    2.667692    0.962781
H      4.634928    0.746892    2.209714
H      0.322429   -2.654254   -0.734471
H     -1.975969   -2.396399    0.006670
