40

C     -3.905829    0.898130   -1.441037
C     -3.475374   -0.213569   -0.453898
C     -4.472103   -0.205694    0.725381
C     -3.571842   -1.563330   -1.198135
C     -2.041601   -0.024019    0.083051
C     -1.222915    1.068323   -0.288561
C      0.073701    1.199220    0.215519
C      0.599822    0.239387    1.091067
C      1.991777    0.390642    1.652809
C      3.029770    0.599717    0.567801
C      3.568659    1.891400    0.409703
C      4.512820    2.156621   -0.581514
C      4.931183    1.140354   -1.435644
C      4.407766   -0.145524   -1.301921
C      3.460905   -0.438904   -0.304938
S      2.824281   -2.093225   -0.221562
N      3.799840   -3.158351   -1.171271
O      1.422566   -2.122374   -0.760594
O      2.835851   -2.596867    1.193499
C     -0.210063   -0.830900    1.491362
C     -1.506285   -0.965676    0.989644
H     -4.940395    0.720873   -1.807738
H     -3.894692    1.893511   -0.946506
H     -3.236881    0.920454   -2.328480
H     -5.517493   -0.298794    0.358775
H     -4.385712    0.743249    1.297771
H     -4.287981   -1.050526    1.421452
H     -3.382527   -2.419809   -0.517933
H     -4.585516   -1.702674   -1.632817
H     -2.828946   -1.602861   -2.024086
H     -1.565381    1.835258   -0.966712
H      0.669716    2.052700   -0.082432
H      2.275938   -0.479496    2.277235
H      1.980239    1.252982    2.354374
H      3.252551    2.702688    1.053955
H      4.917199    3.154743   -0.690379
H      5.659965    1.350013   -2.208041
H      4.742820   -0.910584   -1.989011
H      0.164414   -1.572172    2.186432
H     -2.090247   -1.814916    1.316954
