40

C     -4.032685   -0.168045   -1.536825
C     -3.626955   -0.076285   -0.045984
C     -3.929818   -1.442292    0.607279
C     -4.503053    1.012189    0.611638
C     -2.137281    0.270850    0.155435
C     -1.620142    0.392462    1.464524
C     -0.276538    0.703054    1.685602
C      0.592500    0.904790    0.606099
C      2.048796    1.219617    0.842237
C      2.925425    0.032934    0.494071
C      2.739085   -1.156298    1.225448
C      3.497774   -2.293083    0.949415
C      4.461771   -2.260712   -0.054329
C      4.678296   -1.088633   -0.779082
C      3.927100    0.070453   -0.516218
S      4.296555    1.538451   -1.439936
N      5.592767    1.255995   -2.548250
O      3.088431    1.969112   -2.222006
O      4.708448    2.634760   -0.498195
C      0.098247    0.783401   -0.698257
C     -1.245302    0.472800   -0.924241
H     -3.458069   -0.965657   -2.055599
H     -5.111714   -0.416724   -1.637212
H     -3.864966    0.801776   -2.053385
H     -3.276786   -2.230756    0.174283
H     -4.989148   -1.734126    0.438271
H     -3.763847   -1.416152    1.704514
H     -4.266317    2.009903    0.182553
H     -5.582181    0.805904    0.441803
H     -4.343174    1.057867    1.709101
H     -2.254597    0.244809    2.327694
H      0.085557    0.781779    2.703249
H      2.222593    1.482827    1.908452
H      2.301326    2.129076    0.266825
H      1.996316   -1.204535    2.012292
H      3.337263   -3.201387    1.515814
H      5.049432   -3.144481   -0.267133
H      5.442906   -1.091908   -1.543676
H      0.756160    0.923289   -1.545540
H     -1.564175    0.392978   -1.952505
