40

C     -3.906779   -0.436768   -1.875413
C     -3.603637    0.114516   -0.461257
C     -4.580237   -0.562904    0.524717
C     -3.870367    1.635305   -0.483774
C     -2.151968   -0.146121   -0.008571
C     -1.727830    0.297175    1.264036
C     -0.420895    0.081368    1.706716
C      0.503052   -0.586547    0.893410
C      1.921063   -0.802270    1.360728
C      2.883783    0.097332    0.611195
C      2.718101    1.489711    0.744382
C      3.555862    2.378172    0.071423
C      4.579101    1.893504   -0.738463
C      4.775399    0.518754   -0.870555
C      3.944693   -0.395677   -0.199275
S      4.289475   -2.126687   -0.371015
N      5.668172   -2.380264   -1.382547
O      4.577459   -2.718473    0.980014
O      3.111826   -2.824580   -0.989688
C      0.101399   -1.028526   -0.372960
C     -1.205165   -0.814833   -0.820050
H     -4.961366   -0.230843   -2.161174
H     -3.255912    0.045290   -2.636655
H     -3.761123   -1.538152   -1.910801
H     -4.373019   -1.653285    0.585703
H     -4.494165   -0.134122    1.544916
H     -5.632840   -0.425194    0.194602
H     -4.898478    1.850089   -0.848144
H     -3.147400    2.144300   -1.157459
H     -3.777066    2.081442    0.528357
H     -2.407178    0.817536    1.925175
H     -0.130055    0.441156    2.685941
H      2.158428   -1.876577    1.253451
H      2.010765   -0.583537    2.447194
H      1.930136    1.889964    1.370532
H      3.410695    3.445418    0.178663
H      5.228128    2.585043   -1.260207
H      5.586598    0.174049   -1.496956
H      0.803537   -1.535557   -1.021209
H     -1.452192   -1.179209   -1.805742
