40

C     -4.061747    1.157805   -0.134524
C     -3.478356   -0.154886    0.441763
C     -4.352411   -1.320837   -0.068942
C     -3.577710   -0.075161    1.980859
C     -2.010257   -0.395190    0.033241
C     -1.339506   -1.551225    0.490262
C     -0.008743   -1.798739    0.146918
C      0.700717   -0.891474   -0.650076
C      2.131687   -1.175099   -1.034592
C      3.044855    0.003596   -0.760395
C      3.497456    0.758033   -1.860314
C      4.323763    1.866107   -1.676783
C      4.707870    2.244412   -0.393541
C      4.267923    1.516056    0.711574
C      3.440963    0.390471    0.550983
S      2.902701   -0.462927    2.010779
N      3.833546    0.042531    3.376869
O      3.080520   -1.946337    1.855672
O      1.457930   -0.148548    2.275380
C      0.041242    0.245530   -1.136886
C     -1.290349    0.496775   -0.796029
H     -4.053463    1.141026   -1.245883
H     -3.486096    2.038232    0.224668
H     -5.116928    1.295270    0.187835
H     -5.422708   -1.148679    0.177504
H     -4.056523   -2.285875    0.392906
H     -4.259249   -1.418898   -1.172251
H     -4.620832    0.141830    2.298211
H     -2.919260    0.731934    2.369053
H     -3.277611   -1.030353    2.460045
H     -1.843191   -2.273245    1.118229
H      0.470795   -2.697339    0.514888
H      2.521172   -2.075557   -0.519548
H      2.144812   -1.436940   -2.114974
H      3.204866    0.491754   -2.868609
H      4.662857    2.435806   -2.532400
H      5.344709    3.108365   -0.253193
H      4.572697    1.842646    1.696522
H      0.559598    0.944380   -1.781364
H     -1.737737    1.394752   -1.194580
