40

C      4.488914   -0.568922    0.259645
C      3.469041    0.105083   -0.683650
C      3.871153    1.592992   -0.825232
C      3.561179   -0.539871   -2.083861
C      2.044792   -0.086011   -0.122448
C      1.210432    0.999301    0.234619
C     -0.076883    0.782891    0.733044
C     -0.578035   -0.518315    0.875792
C     -1.959679   -0.754185    1.433823
C     -3.020627    0.038031    0.695469
C     -3.572551    1.162552    1.339424
C     -4.538254    1.946158    0.708812
C     -4.965621    1.625664   -0.576491
C     -4.429695    0.519974   -1.236467
C     -3.460958   -0.289683   -0.617922
S     -2.809988   -1.660336   -1.538011
N     -3.795954   -1.973650   -2.922882
O     -1.419090   -1.339352   -2.005536
O     -2.789499   -2.904222   -0.696278
C      0.247921   -1.603002    0.554989
C      1.534920   -1.391123    0.056173
H      4.325216   -1.665035    0.322036
H      5.527505   -0.408003   -0.102767
H      4.406555   -0.144927    1.283866
H      3.184549    2.124424   -1.519278
H      4.899573    1.685982   -1.237448
H      3.862118    2.101854    0.162920
H      2.802343   -0.096023   -2.764168
H      3.392080   -1.636068   -2.041103
H      4.567065   -0.376450   -2.528144
H      1.533391    2.024905    0.138721
H     -0.685305    1.636164    1.005414
H     -1.940883   -0.474684    2.509688
H     -2.224612   -1.830066    1.424649
H     -3.249998    1.440349    2.335396
H     -4.952441    2.807452    1.216992
H     -5.711214    2.238814   -1.066199
H     -4.772396    0.304447   -2.239351
H     -0.106906   -2.618526    0.680082
H      2.131842   -2.258582   -0.189899
