40

C     -3.974045    1.344934   -0.465047
C     -3.500374   -0.040458    0.036887
C     -4.372855   -0.422730    1.252155
C     -3.734584   -1.056218   -1.102599
C     -2.012780   -0.059928    0.445092
C     -1.184416    1.084817    0.374894
C      0.160797    1.022820    0.747723
C      0.725605   -0.182875    1.185856
C      2.172295   -0.246325    1.608980
C      3.105495    0.307527    0.550316
C      3.686527    1.570292    0.777626
C      4.538486    2.146126   -0.164114
C      4.820810    1.475778   -1.350827
C      4.252997    0.226580   -1.600685
C      3.397593   -0.377667   -0.662727
S      2.694766   -1.955083   -1.071154
N      3.519032   -2.644940   -2.424980
O      1.246438   -1.784413   -1.430916
O      2.823672   -2.909332    0.081661
C     -0.090099   -1.316712    1.289325
C     -1.434869   -1.259170    0.917355
H     -3.396760    1.660050   -1.361143
H     -3.866388    2.113090    0.331078
H     -5.047295    1.313862   -0.753814
H     -5.452862   -0.374579    0.992975
H     -4.184841    0.274512    2.097193
H     -4.160407   -1.455637    1.598743
H     -4.792058   -1.028763   -1.444500
H     -3.080589   -0.820965   -1.970121
H     -3.519137   -2.094754   -0.775346
H     -1.556131    2.040086    0.036290
H      0.763881    1.920295    0.690574
H      2.271780    0.326668    2.556471
H      2.475802   -1.279786    1.869050
H      3.475152    2.118009    1.687844
H      4.976828    3.117519    0.025298
H      5.477929    1.927375   -2.082898
H      4.481110   -0.263316   -2.537508
H      0.316336   -2.253934    1.648859
H     -2.022840   -2.162756    1.002056
