40

C     -4.326445    1.351253    0.835959
C     -3.578159    0.579044   -0.277314
C     -4.410560   -0.676557   -0.616989
C     -3.505460    1.496903   -1.516959
C     -2.152494    0.155824    0.133241
C     -1.598468    0.458684    1.399613
C     -0.300997    0.058905    1.731216
C      0.481038   -0.654748    0.814075
C      1.888166   -1.071021    1.165058
C      2.908359   -0.277513    0.372112
C      2.903961    1.124361    0.511510
C      3.805036    1.917578   -0.197881
C      4.733837    1.326096   -1.049593
C      4.773645   -0.061548   -1.185772
C      3.877475   -0.881247   -0.477112
S      4.030183   -2.638889   -0.655067
N      2.594799   -3.289315   -1.362226
O      5.194230   -2.975152   -1.544717
O      4.263179   -3.264531    0.691352
C     -0.051699   -0.958609   -0.444253
C     -1.347605   -0.561149   -0.779952
H     -3.790079    2.289180    1.096919
H     -4.436725    0.724482    1.747280
H     -5.348049    1.634611    0.500913
H     -3.989356   -1.223486   -1.486203
H     -4.436758   -1.369262    0.251954
H     -5.455890   -0.399119   -0.874333
H     -2.873985    2.386222   -1.302572
H     -4.519169    1.849667   -1.806548
H     -3.075675    0.967331   -2.392741
H     -2.149939    1.005825    2.149215
H      0.094613    0.312144    2.707141
H      1.967723   -2.161418    1.002425
H      2.085335   -0.910732    2.247398
H      2.192842    1.607145    1.170566
H      3.782632    2.993969   -0.086215
H      5.431969    1.943779   -1.599812
H      5.515698   -0.493421   -1.844058
H      0.539783   -1.498675   -1.171589
H     -1.716991   -0.816611   -1.763656
