40

C     -3.961553    0.308386   -1.735604
C     -3.625155    0.109753   -0.237931
C     -4.527748   -1.022598    0.298616
C     -3.961824    1.425583    0.496721
C     -2.145461   -0.251723    0.007100
C     -1.203951   -0.376811   -1.041743
C      0.128494   -0.703541   -0.776370
C      0.562288   -0.917015    0.537666
C      2.006693   -1.251779    0.817119
C      2.906520   -0.060291    0.552736
C      2.664628    1.121132    1.281057
C      3.444436    2.259357    1.079299
C      4.486388    2.235832    0.156415
C      4.760737    1.070377   -0.559216
C      3.990199   -0.090363   -0.369004
S      4.438754   -1.550398   -1.269777
N      3.155872   -2.008339   -2.331831
O      4.727349   -2.668549   -0.308002
O      5.671579   -1.299167   -2.092323
C     -0.356415   -0.793199    1.587307
C     -1.689194   -0.466854    1.326788
H     -3.767566   -0.622057   -2.311936
H     -3.365549    1.140682   -2.168686
H     -5.035407    0.564409   -1.867928
H     -4.268594   -1.987104   -0.189400
H     -4.418767   -1.146939    1.396221
H     -5.598415   -0.804079    0.094075
H     -3.846916    1.320766    1.595794
H     -3.291588    2.242697    0.152163
H     -5.012973    1.729372    0.299972
H     -1.475105   -0.223838   -2.075401
H      0.825909   -0.783077   -1.599784
H      2.271443   -2.136365    0.209535
H      2.138812   -1.561190    1.876766
H      1.861710    1.162631    2.006811
H      3.239791    3.161868    1.640711
H      5.090067    3.120733    0.000904
H      5.585706    1.077873   -1.259121
H     -0.041758   -0.945072    2.612397
H     -2.363434   -0.381099    2.167885
