40

C     -3.532571    1.141010   -1.661959
C     -3.580915    0.031614   -0.588936
C     -4.574223    0.482714    0.509002
C     -4.134846   -1.265765   -1.217243
C     -2.158264   -0.224320   -0.049722
C     -1.141867   -0.645711   -0.935828
C      0.157779   -0.884565   -0.484262
C      0.483523   -0.712280    0.866197
C      1.893533   -0.954488    1.345456
C      2.840044    0.109028    0.823669
C      2.572335    1.450458    1.160716
C      3.393047    2.481218    0.704281
C      4.501571    2.191418   -0.086368
C      4.801022    0.868876   -0.413318
C      3.989866   -0.186780    0.039279
S      4.469789   -1.845000   -0.366032
N      3.260706   -2.587249   -1.351243
O      4.656756   -2.639450    0.895892
O      5.767484   -1.843087   -1.124675
C     -0.510386   -0.291191    1.758865
C     -1.812429   -0.050991    1.311426
H     -2.920286    0.837054   -2.536529
H     -3.096296    2.070808   -1.236809
H     -4.553557    1.373102   -2.035630
H     -4.673797   -0.295035    1.296850
H     -4.244806    1.437262    0.973560
H     -5.585561    0.653428    0.079730
H     -3.528619   -1.589035   -2.089058
H     -5.177073   -1.117316   -1.574507
H     -4.135798   -2.087554   -0.468743
H     -1.347311   -0.790439   -1.987602
H      0.913352   -1.197791   -1.192458
H      2.182296   -1.976985    1.040723
H      1.936297   -0.945753    2.456368
H      1.717549    1.700333    1.777178
H      3.168372    3.507448    0.964980
H      5.136960    2.993160   -0.440136
H      5.676977    0.673305   -1.017432
H     -0.278029   -0.143213    2.806326
H     -2.532624    0.271763    2.047994
