40

C      4.541287    0.869175   -0.110916
C      3.594303   -0.342584   -0.285505
C      3.545434   -0.686480   -1.790106
C      4.203952   -1.529271    0.492248
C      2.164401   -0.071797    0.226594
C      1.187240   -1.088114    0.136734
C     -0.117669   -0.878415    0.587601
C     -0.487956    0.351501    1.144131
C     -1.903848    0.578668    1.613307
C     -2.865067    0.645829    0.442512
C     -2.646498    1.639627   -0.531805
C     -3.483004    1.750719   -1.641887
C     -4.558860    0.880439   -1.793826
C     -4.809992   -0.096224   -0.830110
C     -3.982195   -0.223880    0.299350
S     -4.401574   -1.448697    1.511060
N     -3.142917   -2.626305    1.622763
O     -5.675854   -2.148106    1.128181
O     -4.602483   -0.789769    2.846729
C      0.466550    1.372364    1.237861
C      1.773694    1.166984    0.787964
H      4.170738    1.747382   -0.682702
H      5.559459    0.631603   -0.489213
H      4.640128    1.143319    0.961738
H      3.070011    0.140932   -2.360170
H      2.968281   -1.615815   -1.978214
H      4.569826   -0.844372   -2.192101
H      5.251508   -1.715627    0.170051
H      3.633331   -2.466019    0.322038
H      4.206703   -1.315517    1.583070
H      1.427724   -2.053418   -0.287221
H     -0.842616   -1.676188    0.495111
H     -1.979575    1.530569    2.182677
H     -2.153674   -0.223114    2.331971
H     -1.817867    2.330187   -0.433699
H     -3.296021    2.514234   -2.385978
H     -5.206574    0.968039   -2.656644
H     -5.661713   -0.748949   -0.968030
H      0.199208    2.334581    1.657063
H      2.462180    1.992507    0.887373
