31

C      5.447049   -0.351355    0.444373
C      3.976681   -0.120045    0.258849
C      3.238020    0.557042    1.241007
C      1.875021    0.804516    1.052744
C      1.238007    0.398303   -0.130342
C     -0.236609    0.633865   -0.317809
C     -1.044427   -0.543505    0.236369
C     -2.523335   -0.306676    0.052704
C     -3.158996   -0.770607   -1.112325
C     -4.521394   -0.535874   -1.316631
C     -5.260100    0.172062   -0.366596
C     -4.637337    0.651561    0.788207
C     -3.272775    0.421567    1.001643
N     -2.657397    0.935256    2.181075
C      1.978499   -0.275606   -1.114201
C      3.341500   -0.522906   -0.925618
H      6.010784    0.514849    0.039506
H      5.692008   -0.471960    1.521181
H      5.768750   -1.273023   -0.085817
H      3.715998    0.889752    2.154178
H      1.316339    1.314308    1.828035
H     -0.462485    0.766762   -1.399071
H     -0.535452    1.572377    0.199217
H     -0.744116   -1.478589   -0.286615
H     -0.811744   -0.689004    1.313888
H     -2.598508   -1.313280   -1.863656
H     -5.004045   -0.900384   -2.214238
H     -6.314887    0.353810   -0.527525
H     -5.215794    1.206330    1.516379
H      1.500583   -0.607537   -2.027687
H      3.900161   -1.032009   -1.701346
