31

C     -5.457866    0.376646   -0.239898
C     -3.978889    0.238033   -0.031770
C     -3.354493   -1.006841   -0.202412
C     -1.982196   -1.144689    0.026176
C     -1.220635   -0.044520    0.450605
C      0.262702   -0.184846    0.663082
C      1.021723    0.097759   -0.636880
C      2.508911   -0.046632   -0.426136
C      3.267894    1.077775   -0.057022
C      4.641382    0.960335    0.172555
C      5.268800   -0.280562    0.046278
C      4.523535   -1.408561   -0.305174
C      3.146888   -1.300898   -0.536977
N      2.406002   -2.470398   -0.879007
C     -1.846705    1.199721    0.624848
C     -3.219040    1.337213    0.396184
H     -5.986073    0.163904    0.712869
H     -5.711993    1.405373   -0.573368
H     -5.812476   -0.333268   -1.017290
H     -3.928902   -1.869725   -0.516301
H     -1.513300   -2.109131   -0.125738
H      0.495222   -1.212700    1.019283
H      0.598609    0.522044    1.453829
H      0.788332    1.127982   -0.986522
H      0.679590   -0.597498   -1.434327
H      2.795088    2.045848    0.054458
H      5.219166    1.831874    0.452022
H      6.332460   -0.369426    0.225830
H      5.016485   -2.368674   -0.393487
H     -1.272338    2.062335    0.939549
H     -3.687882    2.301528    0.548920
