31

C      4.099575    0.023968   -1.350925
C      2.948748    0.102683   -0.392315
C      1.974942    1.102053   -0.537977
C      0.880740    1.152013    0.330186
C      0.741247    0.197527    1.350577
C     -0.466319    0.217691    2.252957
C     -1.545244   -0.768696    1.783309
C     -2.095954   -0.397102    0.425480
C     -1.580406   -1.019410   -0.725526
C     -2.043194   -0.657967   -1.993266
C     -3.021400    0.329206   -2.126128
C     -3.537337    0.959870   -0.991531
C     -3.078352    0.605961    0.282950
N     -3.612486    1.273082    1.424423
C      1.702345   -0.817162    1.479018
C      2.797394   -0.865852    0.611477
H      4.989128   -0.424342   -0.859233
H      4.380171    1.037053   -1.710058
H      3.812567   -0.602305   -2.221253
H      2.060315    1.840009   -1.326083
H      0.134569    1.925829    0.197872
H     -0.891567    1.243614    2.309842
H     -0.156048   -0.055852    3.284886
H     -1.124544   -1.798304    1.762997
H     -2.369648   -0.784506    2.528321
H     -0.811596   -1.777727   -0.641481
H     -1.639760   -1.140982   -2.873823
H     -3.377667    0.608458   -3.109263
H     -4.292405    1.727886   -1.103744
H      1.597570   -1.575624    2.244974
H      3.524616   -1.661072    0.719963
