31

C      5.461360    0.112043   -0.419173
C      3.977707   -0.068901   -0.292930
C      3.206229   -0.390401   -1.419949
C      1.828656   -0.594374   -1.296749
C      1.208350   -0.502062   -0.040898
C     -0.279788   -0.687243    0.086698
C     -1.005695    0.649657   -0.091181
C     -2.497656    0.465981    0.040367
C     -3.266668    0.205543   -1.107407
C     -4.645474    0.002379   -1.004525
C     -5.268515    0.046835    0.244181
C     -4.513663    0.289729    1.394191
C     -3.131634    0.494269    1.301221
N     -2.381370    0.724646    2.491876
C      1.981455   -0.184221    1.086831
C      3.358989    0.019711    0.963270
H      5.836265    0.822324    0.348299
H      5.722895    0.518446   -1.419424
H      5.965411   -0.867471   -0.283116
H      3.670157   -0.479153   -2.394597
H      1.245690   -0.826139   -2.179627
H     -0.520361   -1.116769    1.084224
H     -0.636380   -1.411493   -0.678881
H     -0.764268    1.072903   -1.091510
H     -0.642842    1.381276    0.663424
H     -2.797603    0.158369   -2.082544
H     -5.230867   -0.193131   -1.893688
H     -6.336340   -0.112088    0.321639
H     -5.003464    0.314958    2.359631
H      1.517450   -0.096285    2.061539
H      3.941972    0.250664    1.846351
