31

C      5.466153    0.189919   -0.179356
C      3.970272    0.145112   -0.280527
C      3.316439   -1.064546   -0.559687
C      1.924928   -1.100409   -0.689551
C      1.171139    0.077168   -0.564641
C     -0.329544    0.032501   -0.669909
C     -0.957766   -0.228844    0.702285
C     -2.462285   -0.277936    0.597392
C     -3.207632    0.899725    0.782228
C     -4.599649    0.882935    0.659856
C     -5.260320   -0.305351    0.342186
C     -4.530344   -1.479249    0.141138
C     -3.135359   -1.472308    0.261340
N     -2.412175   -2.680481    0.035611
C      1.826295    1.287690   -0.289204
C      3.217837    1.323198   -0.159415
H      5.861406   -0.771380    0.212745
H      5.898520    0.376236   -1.184528
H      5.788285    0.999659    0.509568
H      3.883159   -1.980563   -0.672744
H      1.434916   -2.045443   -0.889271
H     -0.632217   -0.767307   -1.381333
H     -0.707555    0.996395   -1.077125
H     -0.654714    0.575757    1.408585
H     -0.572509   -1.184749    1.119635
H     -2.709967    1.831926    1.019860
H     -5.166320    1.793104    0.808163
H     -6.338408   -0.315740    0.246647
H     -5.049829   -2.394905   -0.112487
H      1.259531    2.203782   -0.176985
H      3.707713    2.268442    0.039526
