31

C     -4.106942    1.277244   -0.600655
C     -2.918561    0.362315   -0.614201
C     -2.866612   -0.741771    0.250011
C     -1.741398   -1.571053    0.267786
C     -0.650968   -1.303870   -0.574458
C      0.582847   -2.168269   -0.515931
C      1.489348   -1.788448    0.663730
C      2.031748   -0.383985    0.528276
C      1.385893    0.675305    1.190583
C      1.843580    1.986991    1.042319
C      2.946825    2.255793    0.230132
C      3.593589    1.213767   -0.438534
C      3.141018   -0.103658   -0.297856
N      3.811279   -1.147897   -1.000441
C     -0.693878   -0.184620   -1.421298
C     -1.818462    0.645153   -1.437634
H     -4.254042    1.743009   -1.598391
H     -3.948285    2.076921    0.152608
H     -5.030703    0.715917   -0.344482
H     -3.695162   -0.958301    0.913045
H     -1.715136   -2.416023    0.944740
H      0.278974   -3.231992   -0.405813
H      1.152573   -2.096931   -1.468252
H      0.925077   -1.896394    1.616326
H      2.332686   -2.510045    0.718629
H      0.520491    0.486286    1.813905
H      1.339568    2.796368    1.554495
H      3.299016    3.272823    0.115799
H      4.445642    1.431534   -1.070319
H      0.149375    0.053585   -2.057892
H     -1.829380    1.510245   -2.089151
