31

C     -5.463744    0.347232    0.155333
C     -3.973612    0.301017   -0.009813
C     -3.351473   -0.860152   -0.492857
C     -1.966527   -0.892001   -0.680917
C     -1.188458    0.244551   -0.410087
C      0.306326    0.199034   -0.579428
C      0.980153   -0.273415    0.712328
C      2.478708   -0.323389    0.542552
C      3.250543    0.804304    0.872963
C      4.636602    0.790185    0.695174
C      5.264536   -0.344118    0.177021
C      4.507525   -1.465823   -0.169440
C      3.118250   -1.461078    0.004840
N      2.366526   -2.613019   -0.371418
C     -1.812042    1.407153    0.069457
C     -3.197026    1.438661    0.257392
H     -5.860777   -0.657609    0.413644
H     -5.929639    0.688002   -0.792740
H     -5.746213    1.047431    0.970194
H     -3.937683   -1.742086   -0.719996
H     -1.500581   -1.801686   -1.039324
H      0.685612    1.208901   -0.851677
H      0.568709   -0.487790   -1.414207
H      0.717271    0.418915    1.542783
H      0.594148   -1.276836    0.996061
H      2.778116    1.695664    1.267208
H      5.223954    1.661021    0.956289
H      6.338026   -0.352353    0.038965
H      5.001450   -2.338668   -0.577848
H     -1.225817    2.289286    0.295777
H     -3.662863    2.348668    0.615062
