31

C      4.288350   -2.105450    0.226144
C      3.497716   -0.835046    0.075160
C      4.144637    0.407597    0.163821
C      3.417738    1.591909    0.039786
C      2.040231    1.550559   -0.176891
C      1.372600    0.319791   -0.281655
C     -0.123533    0.305389   -0.481931
C     -0.847770    0.243374    0.866298
C     -2.339104    0.223551    0.665337
C     -3.060504    1.426869    0.590146
C     -4.441429    1.407218    0.370416
C     -5.108829    0.189113    0.214675
C     -4.395722   -1.011461    0.274224
C     -3.014728   -0.996360    0.493786
C      2.104971   -0.879198   -0.140374
N      1.436747   -2.139642   -0.209579
H      5.374148   -1.901367    0.342077
H      4.149810   -2.742954   -0.672417
H      3.938245   -2.658244    1.123170
H      5.212785    0.462101    0.334052
H      3.923475    2.545906    0.115692
H      1.491820    2.480823   -0.260994
H     -0.440232    1.219768   -1.031255
H     -0.417115   -0.563440   -1.110607
H     -0.562766    1.123044    1.484951
H     -0.532183   -0.666942    1.422266
H     -2.553652    2.377684    0.699820
H     -4.993638    2.336586    0.317374
H     -6.177436    0.175733    0.043349
H     -4.912540   -1.953859    0.146726
H     -2.472095   -1.933049    0.528345
