31

C     -4.402350    1.838749   -0.150834
C     -3.542099    0.632078    0.105556
C     -4.113768   -0.649988    0.099898
C     -3.321633   -1.776710    0.322123
C     -1.953237   -1.637759    0.555302
C     -1.360517   -0.365103    0.578228
C      0.128160   -0.247113    0.798793
C      0.873035   -0.240834   -0.539568
C      2.356572   -0.117395   -0.318811
C      3.145538   -1.266786   -0.144228
C      4.518531   -1.148726    0.093626
C      5.110488    0.115169    0.168543
C      4.329663    1.263465    0.009886
C      2.956333    1.149943   -0.228140
C     -2.158644    0.774642    0.337647
N     -1.566389    2.074277    0.322955
H     -4.067785    2.344480   -1.080949
H     -5.471966    1.562476   -0.267625
H     -4.318569    2.547231    0.700075
H     -5.173503   -0.780236   -0.081452
H     -3.769430   -2.762087    0.309822
H     -1.353288   -2.525103    0.716237
H      0.358616    0.681276    1.365602
H      0.487109   -1.098418    1.418936
H      0.651713   -1.178854   -1.095367
H      0.515439    0.605896   -1.166100
H      2.697323   -2.251634   -0.190644
H      5.123030   -2.037107    0.223370
H      6.173039    0.204805    0.354025
H      4.787979    2.241830    0.074842
H      2.360612    2.047534   -0.339858
