31

C     -2.441070    2.308150    1.067586
C     -2.263085    0.884024    0.618402
C     -3.164212    0.320873   -0.298495
C     -2.997906   -0.993645   -0.734392
C     -1.931383   -1.759367   -0.263603
C     -1.019119   -1.220933    0.657894
C      0.157050   -2.061662    1.103053
C      1.286758   -2.058240    0.063050
C      1.888437   -0.686710   -0.107065
C      2.854853   -0.220801    0.799831
C      3.376748    1.070075    0.671101
C      2.933064    1.905888   -0.357440
C      1.966103    1.452577   -1.258843
C      1.443237    0.161877   -1.135229
C     -1.185321    0.111755    1.097463
N     -0.257872    0.686602    2.019011
H     -1.564921    2.911396    0.748983
H     -2.526648    2.345014    2.174058
H     -3.356521    2.763791    0.633606
H     -3.995632    0.899979   -0.680895
H     -3.694898   -1.418784   -1.445061
H     -1.810838   -2.773739   -0.623784
H      0.547686   -1.721315    2.086040
H     -0.182184   -3.109872    1.252981
H      0.903658   -2.436968   -0.910119
H      2.077717   -2.767323    0.391159
H      3.197069   -0.854314    1.608773
H      4.121397    1.424397    1.372068
H      3.335620    2.905938   -0.453549
H      1.618121    2.103084   -2.050756
H      0.684092   -0.171749   -1.831928
