31

C      2.334250   -0.505905    2.516659
C      2.214648   -0.346892    1.026026
C      3.179752    0.388209    0.320283
C      3.068561    0.555914   -1.059983
C      1.994088   -0.004459   -1.750585
C      1.018157   -0.748498   -1.068485
C     -0.162584   -1.293338   -1.841379
C     -1.230019   -0.216931   -2.085900
C     -1.851551    0.259485   -0.797965
C     -1.366813    1.414034   -0.159631
C     -1.910550    1.824447    1.061224
C     -2.937993    1.085610    1.654107
C     -3.421530   -0.066787    1.028402
C     -2.879052   -0.482192   -0.191625
C      1.128622   -0.916095    0.330303
N      0.136705   -1.651979    1.047546
H      1.464695   -0.026061    3.013323
H      2.354715   -1.584716    2.778799
H      3.262831   -0.036742    2.906045
H      4.018659    0.836482    0.838103
H      3.814887    1.128056   -1.595933
H      1.917437    0.147833   -2.820231
H     -0.616997   -2.164925   -1.323171
H      0.190905   -1.670634   -2.825755
H     -0.782831    0.637649   -2.639952
H     -2.022484   -0.640641   -2.740531
H     -0.561316    1.987870   -0.601087
H     -1.532050    2.712806    1.550033
H     -3.356707    1.403795    2.600058
H     -4.213272   -0.641345    1.491467
H     -3.253161   -1.384050   -0.660166
