31

C     -4.554722    1.125301    0.819351
C     -3.586304    0.219480    0.109785
C     -4.030698   -0.591982   -0.945948
C     -3.137181   -1.424718   -1.620147
C     -1.793201   -1.460018   -1.247780
C     -1.327250   -0.666926   -0.186935
C      0.138694   -0.699704    0.171764
C      0.903716    0.390563   -0.584641
C      2.363993    0.360834   -0.221926
C      3.257475   -0.448652   -0.943361
C      4.607958   -0.500186   -0.583970
C      5.072984    0.246779    0.501963
C      4.187418    1.043441    1.233089
C      2.836162    1.097892    0.877111
C     -2.227657    0.187996    0.485583
N     -1.764087    1.027309    1.544209
H     -5.590334    0.997440    0.438290
H     -4.554971    0.897181    1.906079
H     -4.254365    2.183565    0.668774
H     -5.069309   -0.577968   -1.252511
H     -3.486974   -2.042540   -2.437204
H     -1.113035   -2.105853   -1.789526
H      0.567163   -1.695458   -0.079295
H      0.267641   -0.562885    1.267638
H      0.784664    0.239515   -1.680446
H      0.477096    1.388577   -0.341056
H      2.907885   -1.039506   -1.781008
H      5.293360   -1.122009   -1.145248
H      6.118256    0.204723    0.779611
H      4.547350    1.616188    2.078004
H      2.158273    1.711618    1.457489
