31

N     -2.412413   -1.596895    1.942529
C     -2.272788   -0.484714    1.061183
C     -2.589683    0.797733    1.524829
C     -2.442004    1.905837    0.687350
C     -1.978660    1.738204   -0.618797
C     -1.662470    0.462151   -1.091459
C     -1.806880   -0.662276   -0.259103
C     -1.393024   -2.023688   -0.768308
C      0.037490   -2.385845   -0.342842
C      1.056101   -1.470068   -0.972370
C      1.525951   -1.666529   -2.273707
S      2.567953   -0.403819   -2.686567
C      2.426125    0.402989   -1.224116
C      3.026198    1.601827   -0.847191
C      2.743870    2.113100    0.427406
C      1.875860    1.422351    1.292804
C      1.283635    0.213286    0.892602
C      1.566800   -0.293807   -0.384661
H     -2.944780    0.937228    2.538202
H     -2.683832    2.895640    1.052302
H     -1.858525    2.598638   -1.264223
H     -1.288156    0.352114   -2.101853
H     -2.091870   -2.795750   -0.380513
H     -1.471838   -2.062285   -1.877348
H      0.247107   -3.428619   -0.665792
H      0.125472   -2.378620    0.763247
H      1.251998   -2.487232   -2.923311
H      3.688468    2.129238   -1.521390
H      3.193920    3.044333    0.745918
H      1.661845    1.826065    2.273871
H      0.618131   -0.300587    1.571393
