31

N     -2.403732    0.063320    2.547212
C     -3.083216    0.003103    1.294911
C     -4.329262   -0.631651    1.224674
C     -5.008171   -0.717657    0.006941
C     -4.443279   -0.173839   -1.148233
C     -3.200215    0.461839   -1.088130
C     -2.513135    0.568811    0.133926
C     -1.156581    1.230194    0.168150
C     -0.045247    0.190008   -0.030658
C      1.355712    0.761884   -0.008570
C      1.672617    2.118622    0.159620
S      3.350085    2.311269    0.118276
C      3.690684    0.687827   -0.112537
C      4.938732    0.083722   -0.243866
C      4.986708   -1.305130   -0.432342
C      3.797449   -2.055922   -0.485557
C      2.549538   -1.424543   -0.350612
C      2.507125   -0.035590   -0.162017
H     -4.770881   -1.062848    2.114426
H     -5.970455   -1.210709   -0.042212
H     -4.967450   -0.247856   -2.092312
H     -2.771960    0.869776   -1.995485
H     -1.096031    1.997378   -0.635056
H     -1.016621    1.754834    1.138079
H     -0.199701   -0.317693   -1.007778
H     -0.121415   -0.576057    0.771417
H      0.971086    2.929767    0.295735
H      5.848134    0.669027   -0.201960
H      5.942618   -1.801541   -0.537482
H      3.844491   -3.127269   -0.631556
H      1.642374   -2.013078   -0.393646
