31

N     -1.626246    2.542814   -1.894297
C     -1.800843    1.766658   -0.710948
C     -2.040812    2.419181    0.504245
C     -2.195049    1.682348    1.680833
C     -2.112271    0.289166    1.649188
C     -1.875872   -0.371177    0.440984
C     -1.719087    0.358307   -0.751190
C     -1.394976   -0.372143   -2.033925
C      0.114518   -0.396477   -2.315676
C      0.863372   -1.194264   -1.278721
C      0.955317   -2.587376   -1.338850
S      1.769530   -3.151675    0.028367
C      2.005058   -1.637761    0.708374
C      2.623029   -1.330408    1.917927
C      2.686471    0.014913    2.307532
C      2.136757    1.017733    1.487986
C      1.520255    0.684979    0.270639
C      1.456625   -0.662729   -0.114537
H     -2.101331    3.499755    0.538519
H     -2.375611    2.192002    2.618401
H     -2.225432   -0.279840    2.562852
H     -1.797668   -1.451448    0.437254
H     -1.913636    0.119451   -2.884911
H     -1.782376   -1.414264   -1.994168
H      0.278932   -0.862071   -3.311569
H      0.511516    0.637308   -2.385718
H      0.552475   -3.210114   -2.126568
H      3.038490   -2.108807    2.544662
H      3.158377    0.282712    3.243895
H      2.188202    2.053283    1.798252
H      1.102288    1.469945   -0.343243
