31

N     -2.397511   -0.271595   -2.592003
C     -3.078210   -0.055883   -1.357622
C     -4.304425    0.620014   -1.363804
C     -4.983671    0.857585   -0.166570
C     -4.438819    0.425051    1.043935
C     -3.215638   -0.250572    1.060275
C     -2.528849   -0.509681   -0.138945
C     -1.193077   -1.211449   -0.093418
C     -0.050981   -0.189813   -0.001477
C      1.331879   -0.802659    0.046748
C      1.607585   -2.178553    0.027980
S      3.278255   -2.416039    0.099968
C      3.667732   -0.788159    0.156137
C      4.933317   -0.211264    0.228953
C      5.023248    1.187745    0.266611
C      3.857376    1.975370    0.231269
C      2.591104    1.370979    0.157808
C      2.506729   -0.028313    0.120082
H     -4.730228    0.965613   -2.297542
H     -5.930539    1.381843   -0.176709
H     -4.963036    0.616450    1.971343
H     -2.802528   -0.570751    2.008922
H     -1.066621   -1.841872   -1.000156
H     -1.158184   -1.888750    0.788297
H     -0.192479    0.425018    0.914136
H     -0.101507    0.486953   -0.882058
H      0.881938   -2.978161   -0.023942
H      5.824496   -0.824793    0.255973
H      5.993609    1.663595    0.323267
H      3.936777    3.054318    0.260975
H      1.702258    1.987774    0.131566
