31

N     -2.505129    1.685912   -1.849818
C     -3.121326    0.998229   -0.763094
C     -4.291411    1.521919   -0.199951
C     -4.905852    0.875765    0.875286
C     -4.351609   -0.294820    1.396644
C     -3.184152   -0.825318    0.841196
C     -2.563926   -0.193407   -0.251028
C     -1.285237   -0.766299   -0.812799
C     -0.065423   -0.133228   -0.128801
C      1.267108   -0.645776   -0.630671
C      1.435417   -1.624856   -1.621898
S      3.084419   -1.893953   -1.869076
C      3.599613   -0.780255   -0.729298
C      4.907600   -0.455574   -0.377773
C      5.106071    0.516134    0.613754
C      4.003645    1.138333    1.228884
C      2.692838    0.794455    0.857853
C      2.499879   -0.177570   -0.134361
H     -4.723518    2.433583   -0.593359
H     -5.809398    1.285570    1.307922
H     -4.825066   -0.790133    2.234513
H     -2.762193   -1.728840    1.263933
H     -1.269991   -1.867419   -0.655699
H     -1.241098   -0.587812   -1.909062
H     -0.125413   -0.328635    0.964177
H     -0.096243    0.967174   -0.284199
H      0.649065   -2.139249   -2.156392
H      5.749400   -0.939390   -0.855940
H      6.111548    0.788480    0.907159
H      4.166742    1.886979    1.993241
H      1.853642    1.279996    1.338657
