31

N     -2.670194    0.003121   -2.392553
C     -2.411826    0.277424   -1.017337
C     -2.768772    1.524768   -0.491230
C     -2.507797    1.825192    0.847690
C     -1.890424    0.879969    1.668794
C     -1.533009   -0.368482    1.153702
C     -1.790279   -0.684325   -0.192427
C     -1.332376   -2.013988   -0.745897
C      0.031455   -1.906935   -1.443789
C      1.129281   -1.553377   -0.473070
C      1.752257   -2.516709    0.324878
S      2.850634   -1.758353    1.358862
C      2.540241   -0.205818    0.808321
C      3.102917    0.987759    1.253450
C      2.672751    2.184668    0.663473
C      1.698105    2.165582   -0.351016
C      1.145952    0.949666   -0.786226
C      1.577305   -0.245768   -0.191582
H     -3.243306    2.265557   -1.122520
H     -2.781414    2.792741    1.248146
H     -1.682955    1.116814    2.704272
H     -1.039442   -1.083712    1.800193
H     -1.275681   -2.772212    0.066233
H     -2.081774   -2.393783   -1.473230
H      0.267447   -2.889357   -1.907218
H     -0.016134   -1.173665   -2.275220
H      1.550653   -3.579393    0.299497
H      3.848252    0.993535    2.038147
H      3.090732    3.127440    0.991592
H      1.370396    3.094774   -0.798776
H      0.397001    0.956867   -1.565163
