31

N     -1.888902   -0.464067   -3.011766
C     -1.991945    0.122869   -1.716351
C     -2.341957    1.473840   -1.604853
C     -2.429656    2.077243   -0.348155
C     -2.169952    1.333341    0.804221
C     -1.822645   -0.016067    0.703348
C     -1.731119   -0.636314   -0.555591
C     -1.286183   -2.077868   -0.644842
C      0.220518   -2.198426   -0.916624
C      1.039454   -1.666688    0.231904
C      1.308896   -2.433969    1.368352
S      2.155057   -1.494494    2.487306
C      2.180104   -0.109101    1.543974
C      2.724797    1.132414    1.862281
C      2.607567    2.168388    0.924881
C      1.954883    1.945332   -0.301388
C      1.415048    0.684119   -0.602477
C      1.532286   -0.349346    0.339290
H     -2.539966    2.059412   -2.493884
H     -2.695944    3.123196   -0.267813
H     -2.231892    1.804134    1.776781
H     -1.607872   -0.573980    1.606519
H     -1.539006   -2.619567    0.293408
H     -1.842454   -2.590691   -1.458737
H      0.484646   -1.685952   -1.864691
H      0.466580   -3.272452   -1.063363
H      1.007398   -3.462203    1.518083
H      3.220506    1.296579    2.810243
H      3.019020    3.144451    1.146681
H      1.867021    2.751796   -1.017755
H      0.915714    0.534072   -1.548981
