31

N     -1.530237    0.796818   -3.142870
C     -1.698850    1.003788   -1.742175
C     -1.821652    2.310589   -1.255087
C     -1.967363    2.540768    0.114897
C     -1.993135    1.466097    1.005531
C     -1.874106    0.158323    0.528813
C     -1.727262   -0.087800   -0.848093
C     -1.530333   -1.505136   -1.334290
C     -0.044723   -1.848632   -1.517383
C      0.696376   -1.839893   -0.204671
C      0.678151   -2.933984    0.664503
S      1.520165   -2.540121    2.073950
C      1.907438   -0.980708    1.596387
C      2.612100   -0.016975    2.313354
C      2.799323    1.242082    1.725624
C      2.284017    1.510823    0.444327
C      1.578445    0.522785   -0.261847
C      1.391099   -0.735153    0.330786
H     -1.797461    3.150137   -1.938499
H     -2.057063    3.553250    0.486674
H     -2.099462    1.646603    2.067353
H     -1.879000   -0.662682    1.235242
H     -2.055523   -1.643771   -2.303726
H     -1.993499   -2.225559   -0.624261
H      0.029095   -2.864640   -1.962232
H      0.425711   -1.155155   -2.244712
H      0.186546   -3.878920    0.474742
H      3.000389   -0.230674    3.300710
H      3.340656    2.011180    2.261010
H      2.431301    2.486508   -0.000226
H      1.188859    0.750053   -1.243831
