31

N     -1.393589    1.674750    2.847343
C     -1.604067    1.503532    1.447487
C     -1.701666    2.634754    0.628417
C     -1.887482    2.493211   -0.748722
C     -1.978770    1.220357   -1.314691
C     -1.885321    0.085561   -0.505247
C     -1.698642    0.213577    0.882834
C     -1.530585   -1.027235    1.729095
C     -0.051317   -1.368389    1.961311
C      0.643563   -1.743361    0.677155
C      0.559934   -3.029422    0.136891
S      1.364647   -3.063942   -1.346990
C      1.818254   -1.450484   -1.318591
C      2.528174   -0.744654   -2.286677
C      2.776112    0.617540   -2.066088
C      2.314590    1.241938   -0.892796
C      1.602601    0.509853    0.071495
C      1.354409   -0.852580   -0.154114
H     -1.626753    3.625631    1.058564
H     -1.957474    3.370950   -1.378057
H     -2.116144    1.112412   -2.382788
H     -1.941194   -0.894450   -0.963034
H     -2.041094   -1.892943    1.252021
H     -2.025915   -0.878395    2.712633
H      0.466188   -0.524244    2.462144
H      0.005233   -2.229204    2.662321
H      0.045086   -3.867721    0.587201
H      2.874808   -1.231812   -3.188801
H      3.322951    1.191571   -2.802731
H      2.508553    2.294521   -0.732389
H      1.254911    1.008678    0.964806
