31

N     -1.930700   -2.086071   -2.111903
C     -2.809264   -1.367960   -1.248178
C     -4.097744   -1.051499   -1.695559
C     -4.972180   -0.335418   -0.874720
C     -4.562008    0.072393    0.395994
C     -3.278049   -0.238903    0.851461
C     -2.393149   -0.972247    0.041459
C     -0.999766   -1.267682    0.541494
C     -0.025349   -0.165539    0.102905
C      1.402367   -0.377932    0.557572
C      1.852807   -1.460637    1.328485
S      3.510805   -1.298603    1.606889
C      3.674539    0.136683    0.759548
C      4.830269    0.888078    0.560782
C      4.732542    2.069356   -0.188727
C      3.493149    2.472802   -0.719756
C      2.340384    1.698447   -0.506124
C      2.443607    0.517950    0.243763
H     -4.421091   -1.357335   -2.682741
H     -5.966632   -0.092057   -1.225930
H     -5.238407    0.633489    1.027797
H     -2.972635    0.093417    1.836037
H     -0.659795   -2.251963    0.152640
H     -1.009232   -1.335613    1.651751
H     -0.379304    0.807951    0.507150
H     -0.031401   -0.100339   -1.006912
H      1.252077   -2.280267    1.697216
H      5.779125    0.570313    0.973148
H      5.614231    2.673331   -0.359265
H      3.427528    3.386099   -1.296728
H      1.393276    2.019755   -0.919548
