31

N     -2.433305   -0.379565   -2.480739
C     -3.094255   -0.067827   -1.256180
C     -4.303958    0.636214   -1.293890
C     -4.963361    0.967333   -0.107831
C     -4.414957    0.600694    1.122652
C     -3.208163   -0.102346    1.170511
C     -2.541758   -0.455264   -0.016205
C     -1.222691   -1.185254    0.061344
C     -0.055531   -0.188194    0.075405
C      1.312773   -0.830464    0.149195
C      1.555294   -2.211043    0.217307
S      3.220550   -2.484392    0.287476
C      3.649436   -0.866373    0.233472
C      4.929210   -0.317278    0.255596
C      5.052967    1.078593    0.201150
C      3.905903    1.890711    0.126548
C      2.624778    1.314161    0.105574
C      2.506567   -0.082133    0.159903
H     -4.732213    0.931094   -2.243764
H     -5.897485    1.512970   -0.142460
H     -4.923622    0.864496    2.040904
H     -2.791811   -0.370585    2.133737
H     -1.193779   -1.804848    0.984734
H     -1.121837   -1.875845   -0.803824
H     -0.171586    0.487686    0.950677
H     -0.100175    0.431422   -0.846588
H      0.810190   -2.994236    0.225055
H      5.805739   -0.949500    0.313388
H      6.035018    1.533100    0.216757
H      4.011395    2.967035    0.085126
H      1.750667    1.949636    0.048348
