31

N     -2.376059   -1.448030    2.260874
C     -2.232410   -0.363367    1.346499
C     -2.477517    0.941360    1.791108
C     -2.324018    2.022653    0.920295
C     -1.926603    1.805861   -0.400263
C     -1.682352    0.507341   -0.854010
C     -1.833455   -0.590511    0.011957
C     -1.496699   -1.979101   -0.480416
C     -0.063920   -2.388712   -0.109047
C      0.960710   -1.529810   -0.805427
C      1.363721   -1.775462   -2.120748
S      2.435012   -0.565860   -2.610501
C      2.390649    0.279993   -1.163994
C      3.053653    1.462108   -0.843997
C      2.849008    2.014029    0.428484
C      1.994159    1.379317    1.348191
C      1.337542    0.186123    1.004859
C      1.543061   -0.361714   -0.270429
H     -2.781099    1.118810    2.815233
H     -2.510126    3.029706    1.270428
H     -1.801745    2.645372   -1.071822
H     -1.358297    0.358614   -1.876746
H     -2.207309   -2.712983   -0.043034
H     -1.626561   -2.040461   -1.583613
H      0.089858   -3.446371   -0.414532
H      0.073711   -2.359181    0.991595
H      1.028897   -2.599395   -2.736877
H      3.705281    1.946436   -1.559622
H      3.349127    2.933522    0.703447
H      1.840346    1.814168    2.327236
H      0.683434   -0.284454    1.724872
