31

N     -2.442650   -0.858864    2.654642
C     -2.273281   -0.037773    1.501241
C     -2.536815    1.334014    1.595128
C     -2.358996    2.162920    0.485008
C     -1.918695    1.625155   -0.725674
C     -1.655743    0.257065   -0.829988
C     -1.830955   -0.589057    0.279689
C     -1.474022   -2.052995    0.163506
C     -0.052575   -2.339775    0.669269
C      0.991073   -1.672408   -0.189764
C      1.436916   -2.236774   -1.387908
S      2.519423   -1.177478   -2.134050
C      2.425870    0.004779   -0.949427
C      3.074396    1.236761   -0.917762
C      2.827202    2.088949    0.167769
C      1.945345    1.696672    1.191455
C      1.303986    0.448167    1.140201
C      1.552128   -0.400764    0.050953
H     -2.873693    1.760135    2.531831
H     -2.559551    3.223521    0.564301
H     -1.775110    2.269917   -1.583007
H     -1.298545   -0.140682   -1.771966
H     -2.195905   -2.661085    0.749990
H     -1.568194   -2.391557   -0.892040
H      0.049560   -2.032540    1.730589
H      0.114375   -3.438479    0.644968
H      1.124749   -3.193012   -1.786341
H      3.747078    1.532605   -1.712295
H      3.315228    3.053617    0.217133
H      1.758762    2.362257    2.024200
H      0.628641    0.166709    1.935442
