31

C      1.170435    1.898414   -0.040408
C      1.647583    0.505222   -0.362728
C      2.339870    0.296872   -1.568379
C      2.829985   -0.964666   -1.899478
C      2.646581   -2.035931   -1.029911
C      1.964460   -1.857690    0.176127
N      1.807606   -2.977754    1.045540
C      1.447558   -0.587716    0.526704
C      0.665934   -0.435578    1.822741
C     -0.749928   -1.027072    1.723051
C     -1.620598   -0.252847    0.768370
C     -1.674542   -0.607888   -0.590323
C     -2.447903    0.139834   -1.483208
C     -3.170542    1.245935   -1.027798
C     -3.119399    1.607534    0.321248
C     -2.345442    0.863881    1.217508
H      1.369615    2.605124   -0.873922
H      0.077914    1.900570    0.140162
H      1.698775    2.277196    0.859297
H      2.505788    1.115501   -2.257885
H      3.360560   -1.110679   -2.831598
H      3.038067   -3.010443   -1.294182
H      1.211462   -0.962010    2.635450
H      0.601466    0.620823    2.153873
H     -0.702493   -2.093410    1.414158
H     -1.211728   -1.015467    2.734464
H     -1.110742   -1.456264   -0.958304
H     -2.484035   -0.136134   -2.529102
H     -3.767553    1.824599   -1.720690
H     -3.675312    2.467523    0.671615
H     -2.303444    1.162522    2.257609
