31

C     -1.631767   -0.005439    1.500120
C     -1.732124   -0.314225    0.028004
C     -2.378406   -1.499212   -0.364920
C     -2.526350   -1.816344   -1.713572
C     -2.041462   -0.952932   -2.691729
C     -1.397002    0.232730   -2.330527
N     -0.924801    1.096747   -3.362768
C     -1.224919    0.568553   -0.966511
C     -0.475092    1.841256   -0.603497
C      1.043416    1.700003   -0.800088
C      1.650791    0.720583    0.169829
C      2.066694    1.148782    1.441787
C      2.590590    0.230575    2.357067
C      2.697402   -1.119533    2.011968
C      2.280635   -1.554062    0.750796
C      1.758295   -0.639246   -0.168276
H     -2.034338   -0.832507    2.122813
H     -2.215867    0.909457    1.732249
H     -0.574117    0.143160    1.792539
H     -2.774487   -2.183250    0.375561
H     -3.025512   -2.732619   -2.001593
H     -2.168404   -1.206032   -3.737004
H     -0.838645    2.669353   -1.249493
H     -0.683146    2.170776    0.434731
H      1.271149    1.392215   -1.843231
H      1.514094    2.697493   -0.659290
H      1.976617    2.189785    1.726321
H      2.908795    0.564882    3.336026
H      3.100148   -1.829352    2.722831
H      2.358896   -2.600674    0.486532
H      1.428915   -0.990924   -1.138252
