31

C     -1.761524   -1.265874   -1.906861
C     -2.432460   -0.547651   -0.763714
C     -3.815863   -0.309761   -0.836127
C     -4.480221    0.344675    0.199868
C     -3.776189    0.769733    1.323730
C     -2.402154    0.536796    1.426009
N     -1.712859    0.996187    2.587460
C     -1.712880   -0.139716    0.392582
C     -0.217582   -0.363455    0.513311
C      0.556746    0.858504    0.007283
C      2.039409    0.613089    0.082341
C      2.752783    0.930934    1.250208
C      4.124449    0.670549    1.329876
C      4.789933    0.082991    0.250315
C      4.083994   -0.249190   -0.909348
C      2.712310    0.009531   -0.993251
H     -1.464560   -2.285602   -1.584139
H     -2.438174   -1.363680   -2.782430
H     -0.864069   -0.706717   -2.242585
H     -4.385535   -0.629061   -1.700233
H     -5.545079    0.525835    0.129487
H     -4.301180    1.283784    2.119296
H      0.053559   -0.561160    1.573289
H      0.095519   -1.268941   -0.047528
H      0.291805    1.749910    0.617343
H      0.267476    1.084476   -1.042119
H      2.246781    1.377629    2.097219
H      4.670816    0.920973    2.230009
H      5.851305   -0.119154    0.314163
H      4.598992   -0.710584   -1.742029
H      2.174452   -0.261676   -1.893425
