31

C      1.919680    2.092515   -0.624700
C      2.495438    0.777580   -0.164011
C      3.866769    0.537415   -0.357426
C      4.444548   -0.661027    0.058329
C      3.664769   -1.636560    0.674512
C      2.301044   -1.419330    0.888428
N      1.532343   -2.445995    1.513086
C      1.699412   -0.203377    0.488135
C      0.213345    0.003864    0.709958
C     -0.596290   -0.588926   -0.448457
C     -2.066378   -0.337450   -0.249079
C     -2.653305    0.846037   -0.727462
C     -4.012456    1.094651   -0.512069
C     -4.791179    0.170117    0.189599
C     -4.211029   -1.002730    0.680926
C     -2.852192   -1.255257    0.467836
H      1.012607    1.923867   -1.240789
H      2.643088    2.660281   -1.247886
H      1.659550    2.715311    0.256572
H      4.494224    1.279566   -0.835619
H      5.500941   -0.835347   -0.100861
H      4.122649   -2.566944    0.986795
H     -0.099665   -0.474206    1.663703
H     -0.024851    1.081994    0.825609
H     -0.407859   -1.682891   -0.517061
H     -0.267163   -0.140840   -1.411202
H     -2.058242    1.574897   -1.263951
H     -4.461210    2.005844   -0.885984
H     -5.842699    0.364682    0.356628
H     -4.813516   -1.714648    1.230154
H     -2.412370   -2.163094    0.862032
