31

C     -2.995164   -1.631151   -0.116294
C     -2.400471   -0.245233   -0.121514
C     -3.126370    0.798511    0.478066
C     -2.641443    2.104623    0.460435
C     -1.432981    2.392973   -0.167258
C     -0.694334    1.377155   -0.778962
N      0.531945    1.718728   -1.422622
C     -1.162159    0.040679   -0.760659
C     -0.321533   -1.062605   -1.383949
C      0.602368   -1.742719   -0.359838
C      1.678164   -0.814101    0.140591
C      2.842326   -0.605776   -0.617751
C      3.823638    0.284537   -0.170902
C      3.647437    0.976084    1.030797
C      2.489085    0.779292    1.787526
C      1.506029   -0.111116    1.345408
H     -2.270734   -2.368090    0.282651
H     -3.904171   -1.684695    0.520003
H     -3.283381   -1.917168   -1.149348
H     -4.076340    0.603424    0.960386
H     -3.209433    2.898266    0.928619
H     -1.069288    3.412935   -0.180840
H      0.285324   -0.669576   -2.227841
H     -0.978032   -1.832604   -1.839627
H      0.010883   -2.133526    0.494637
H      1.078848   -2.624271   -0.841464
H      2.985565   -1.127807   -1.555734
H      4.718919    0.441543   -0.758457
H      4.406807    1.666799    1.373819
H      2.350983    1.319828    2.714955
H      0.607512   -0.244938    1.935166
