31

C     -1.975971   -0.483426   -2.090104
C     -2.484074    0.157423   -0.823642
C     -3.871507    0.211242   -0.605076
C     -4.387563    0.800052    0.548152
C     -3.528820    1.345433    1.499216
C     -2.145766    1.314649    1.301966
N     -1.297207    1.873786    2.303191
C     -1.603381    0.735868    0.130826
C     -0.098525    0.693287   -0.053960
C      0.498340   -0.538776    0.634957
C      1.984280   -0.603892    0.407159
C      2.498699   -1.254794   -0.726718
C      3.877907   -1.285570   -0.955485
C      4.750557   -0.659483   -0.061054
C      4.245123    0.002279    1.061512
C      2.866558    0.035543    1.294034
H     -1.186850   -1.227925   -1.858159
H     -1.564076    0.296650   -2.763907
H     -2.785712   -1.016414   -2.632582
H     -4.560125   -0.207265   -1.328827
H     -5.457920    0.830731    0.706544
H     -3.940400    1.793780    2.394971
H      0.169904    0.691923   -1.131189
H      0.363016    1.613146    0.366749
H      0.286621   -0.498268    1.726060
H      0.019010   -1.462714    0.244361
H      1.832105   -1.735096   -1.432494
H      4.269944   -1.791701   -1.828185
H      5.817689   -0.683066   -0.240285
H      4.921387    0.492688    1.749721
H      2.486758    0.559907    2.162248
