31

C     -1.993612   -0.318337   -2.154855
C     -2.514785    0.051667   -0.789477
C     -3.892984   -0.065454   -0.539501
C     -4.421166    0.271486    0.705667
C     -3.584115    0.731806    1.719004
C     -2.211661    0.867577    1.493994
N     -1.384292    1.332104    2.559271
C     -1.658813    0.545988    0.232377
C     -0.163633    0.679862    0.015425
C      0.567223   -0.586032    0.476071
C      2.044176   -0.468965    0.213287
C      2.577105   -0.870202   -1.023228
C      3.944650   -0.729559   -1.279225
C      4.786176   -0.179300   -0.308371
C      4.260803    0.235344    0.918659
C      2.893797    0.096580    1.178763
H     -2.769045   -0.829493   -2.764334
H     -1.678482    0.598669   -2.695200
H     -1.131927   -1.011451   -2.066070
H     -4.564605   -0.422550   -1.310582
H     -5.483754    0.172190    0.886613
H     -4.004234    0.983651    2.684854
H      0.225529    1.557377    0.576386
H      0.066718    0.882993   -1.051418
H      0.390182   -0.747581    1.562132
H      0.161767   -1.474255   -0.055576
H      1.933702   -1.288799   -1.787404
H      4.351426   -1.043809   -2.231719
H      5.844186   -0.069885   -0.508600
H      4.912298    0.667720    1.667039
H      2.497370    0.430657    2.129679
