31

C     -2.498708   -1.772445   -1.626766
C     -2.247491   -0.802955   -0.499187
C     -3.033949   -0.905369    0.661341
C     -2.871656   -0.005837    1.712956
C     -1.933355    1.017961    1.618321
C     -1.143834    1.149348    0.473304
N     -0.204217    2.220851    0.412244
C     -1.282950    0.237667   -0.601334
C     -0.379769    0.361059   -1.818469
C      0.880676   -0.512227   -1.701838
C      1.805139   -0.034211   -0.612358
C      1.757200   -0.615955    0.666187
C      2.589131   -0.144059    1.685940
C      3.471248    0.911269    1.438353
C      3.521179    1.498328    0.170981
C      2.689805    1.030657   -0.851470
H     -2.941773   -1.233587   -2.490132
H     -3.203970   -2.576486   -1.326499
H     -1.556233   -2.262310   -1.941111
H     -3.781153   -1.683956    0.754205
H     -3.482074   -0.098165    2.602082
H     -1.820784    1.715540    2.438987
H     -0.084144    1.418957   -1.986869
H     -0.932327    0.070262   -2.735883
H      1.421058   -0.487841   -2.673189
H      0.601519   -1.572120   -1.524605
H      1.069357   -1.426118    0.874909
H      2.547058   -0.593973    2.669395
H      4.113567    1.276273    2.229295
H      4.201249    2.318791   -0.018087
H      2.730200    1.500650   -1.826314
