31

C      0.883114    0.796264    1.887229
C      1.585369    0.491446    0.588588
C      2.416163    1.477912    0.029185
C      3.113100    1.235776   -1.152750
C      3.000820    0.003573   -1.790291
C      2.184334   -0.996152   -1.255978
N      2.105238   -2.249434   -1.932773
C      1.457880   -0.767364   -0.063147
C      0.538282   -1.856727    0.467340
C     -0.760809   -1.971476   -0.347317
C     -1.635222   -0.754822   -0.192208
C     -2.554119   -0.673424    0.867607
C     -3.334681    0.474511    1.035765
C     -3.199636    1.549226    0.152564
C     -2.283818    1.478037   -0.900657
C     -1.502926    0.331478   -1.073944
H     -0.210774    0.665903    1.774844
H      1.059833    1.842690    2.215279
H      1.259909    0.122360    2.684704
H      2.529805    2.441454    0.510611
H      3.748660    2.004884   -1.572529
H      3.552714   -0.176138   -2.704562
H      1.070906   -2.831074    0.420582
H      0.289979   -1.713208    1.538571
H     -1.317137   -2.870869   -0.003893
H     -0.530043   -2.138835   -1.421320
H     -2.658567   -1.493785    1.566792
H     -4.040514    0.533052    1.854149
H     -3.802313    2.438218    0.286159
H     -2.176284    2.312973   -1.580860
H     -0.789259    0.293550   -1.887741
