32

C      5.471451   -1.213278    0.857999
O      4.050935   -1.239326    0.952043
C      3.212466   -0.181454    0.570207
C      3.712114    1.026951    0.047605
C      2.834060    2.048018   -0.325161
C      1.455694    1.878563   -0.177436
C      0.944157    0.685790    0.355845
C     -0.542501    0.488027    0.482751
C     -1.115495   -0.124131   -0.798997
C     -2.606480   -0.319902   -0.674068
C     -3.105803   -1.541821   -0.190142
C     -4.481662   -1.733765   -0.038041
C     -5.371474   -0.706239   -0.357183
C     -4.887597    0.517943   -0.824695
C     -3.510802    0.719801   -0.980163
N     -3.041602    1.984015   -1.444104
C      1.828967   -0.343662    0.716053
H      5.876950   -2.177454    1.227171
H      5.781667   -1.078698   -0.199774
H      5.880568   -0.392369    1.484065
H      4.774473    1.184800   -0.078361
H      3.223003    2.972194   -0.732909
H      0.787137    2.675276   -0.479673
H     -1.035086    1.464320    0.686852
H     -0.761378   -0.178528    1.346229
H     -0.621780   -1.101530   -0.996527
H     -0.887729    0.532228   -1.667137
H     -2.428739   -2.345915    0.070935
H     -4.858013   -2.679142    0.330932
H     -6.436613   -0.856683   -0.237383
H     -5.584035    1.312275   -1.062659
H      1.443146   -1.276303    1.109837
