32

C      4.877090   -0.782679   -0.776070
O      3.824491   -0.757379    0.182436
C      2.681462    0.049620    0.082173
C      2.468989    0.926480   -0.998955
C      1.310083    1.704853   -1.055538
C      0.356862    1.620841   -0.038756
C      0.558925    0.757713    1.049422
C     -0.491762    0.626494    2.122768
C     -1.390262   -0.597346    1.893939
C     -2.186086   -0.480645    0.614082
C     -1.711076   -1.099116   -0.556258
C     -2.407851   -0.966331   -1.759947
C     -3.582311   -0.213171   -1.809477
C     -4.061592    0.411880   -0.655859
C     -3.369246    0.286264    0.554552
N     -3.873036    0.943763    1.715243
C      1.720877   -0.029167    1.098198
H      5.649721   -1.507309   -0.446985
H      5.343409    0.221865   -0.857686
H      4.485833   -1.104286   -1.764366
H      3.189799    1.010620   -1.800638
H      1.148163    2.371929   -1.892408
H     -0.542795    2.220288   -0.104415
H      0.006476    0.524934    3.111408
H     -1.113451    1.547144    2.172901
H     -2.083756   -0.702993    2.755821
H     -0.767455   -1.518998    1.881046
H     -0.794580   -1.676104   -0.538593
H     -2.034365   -1.444590   -2.656172
H     -4.119892   -0.110694   -2.743269
H     -4.970733    0.998150   -0.704027
H      1.878070   -0.710789    1.925430
