32

C      3.460172   -2.589183   -0.004456
O      2.542758   -1.631764    0.514060
C      2.108093   -0.493955   -0.181734
C      2.554374   -0.187370   -1.481530
C      2.082706    0.953584   -2.135916
C      1.166762    1.797839   -1.504662
C      0.721359    1.511103   -0.205655
C     -0.308072    2.392400    0.455193
C     -1.731049    2.054891   -0.012751
C     -2.137255    0.653889    0.384101
C     -2.004020   -0.395232   -0.543012
C     -2.327918   -1.705239   -0.181172
C     -2.784775   -1.982535    1.108554
C     -2.916191   -0.950770    2.040980
C     -2.591836    0.364809    1.688456
N     -2.722881    1.398082    2.662351
C      1.193643    0.360018    0.446632
H      3.046555   -3.055323   -0.923634
H      4.433907   -2.103680   -0.226547
H      3.623382   -3.382358    0.753548
H      3.260507   -0.825240   -1.995188
H      2.424056    1.181146   -3.137554
H      0.799817    2.671414   -2.029181
H     -0.092888    3.455036    0.209209
H     -0.242950    2.302606    1.561656
H     -2.440288    2.787749    0.428645
H     -1.799370    2.181087   -1.115895
H     -1.637912   -0.199984   -1.543513
H     -2.220326   -2.506856   -0.900389
H     -3.033991   -2.998289    1.387106
H     -3.266765   -1.175210    3.040624
H      0.840396    0.117331    1.441670
