32

C     -3.412573   -0.440493    2.613542
O     -2.434580    0.237935    1.832253
C     -2.113291   -0.089994    0.506775
C     -2.747390   -1.138694   -0.186619
C     -2.383608   -1.431886   -1.503496
C     -1.389604   -0.686204   -2.140770
C     -0.756105    0.368092   -1.465999
C      0.353640    1.138495   -2.134627
C      1.700754    0.410050   -2.024417
C      2.168461    0.306107   -0.590065
C      2.767448    1.422767    0.018775
C      3.168522    1.370740    1.356184
C      2.970628    0.207155    2.101556
C      2.370278   -0.907462    1.511808
C      1.965999   -0.865957    0.172122
N      1.343636   -2.014782   -0.399098
C     -1.121310    0.656521   -0.140525
H     -3.135622   -1.509905    2.727160
H     -3.458161    0.023544    3.619985
H     -4.411163   -0.352521    2.135760
H     -3.517629   -1.734510    0.283566
H     -2.869678   -2.243273   -2.029764
H     -1.108432   -0.933776   -3.156908
H      0.438783    2.156569   -1.694715
H      0.108183    1.276640   -3.210165
H      1.627120   -0.592607   -2.497799
H      2.457271    0.974515   -2.612016
H      2.918142    2.336660   -0.542657
H      3.629423    2.235232    1.816281
H      3.279842    0.169870    3.138118
H      2.215650   -1.804204    2.098764
H     -0.624636    1.455376    0.396991
