32

C      5.355993   -0.916899   -1.494954
O      3.973534   -0.585912   -1.576448
C      3.220896   -0.061452   -0.515129
C      3.777828    0.189173    0.753734
C      2.983290    0.705531    1.780671
C      1.633011    0.980818    1.553975
C      1.067920    0.750271    0.290535
C     -0.395179    1.013186    0.054774
C     -1.225616   -0.230904    0.384251
C     -2.693020    0.032568    0.151279
C     -3.257126   -0.255932   -1.103768
C     -4.607008    0.008295   -1.350687
C     -5.404175    0.571773   -0.352467
C     -4.852458    0.877187    0.893990
C     -3.500975    0.616316    1.150740
N     -2.958281    0.951989    2.426058
C      1.866167    0.217853   -0.735011
H      5.951442   -0.012091   -1.250025
H      5.693276   -1.309246   -2.476106
H      5.516227   -1.700450   -0.724498
H      4.819997   -0.015409    0.957255
H      3.414692    0.889739    2.756169
H      1.027584    1.371845    2.362445
H     -0.559505    1.302547   -1.006859
H     -0.729515    1.866962    0.684640
H     -0.889312   -1.080571   -0.250610
H     -1.054503   -0.531841    1.440900
H     -2.650476   -0.684497   -1.892089
H     -5.034493   -0.220988   -2.318263
H     -6.449114    0.776757   -0.546352
H     -5.475785    1.321126    1.660147
H      1.434685    0.017161   -1.708298
