32

C     -5.606962    0.401864   -0.775508
O     -4.208772    0.648573   -0.883156
C     -3.261352    0.269800    0.079575
C     -3.616592   -0.403791    1.264092
C     -2.633485   -0.766236    2.188562
C     -1.292966   -0.458623    1.946055
C     -0.925862    0.225483    0.777296
C      0.522145    0.526385    0.497836
C      1.174878   -0.630391   -0.264890
C      2.627518   -0.331159   -0.542858
C      2.985313    0.305222   -1.744354
C      4.321268    0.618769   -2.008699
C      5.311146    0.310139   -1.073653
C      4.967193   -0.308520    0.130623
C      3.631372   -0.626356    0.404565
N      3.304543   -1.243327    1.648010
C     -1.915021    0.575474   -0.156235
H     -6.116658    0.806241   -1.673863
H     -5.798712   -0.690522   -0.719335
H     -6.016004    0.908828    0.123882
H     -4.646581   -0.655187    1.476964
H     -2.911123   -1.290120    3.094155
H     -0.541167   -0.754465    2.667403
H      1.061547    0.698167    1.455428
H      0.604018    1.461730   -0.099010
H      0.633604   -0.795699   -1.222898
H      1.083918   -1.570432    0.321966
H      2.228654    0.560028   -2.476257
H      4.588743    1.104680   -2.938143
H      6.345051    0.555069   -1.279944
H      5.740040   -0.537516    0.853728
H     -1.639693    1.085891   -1.071338
