31

N     -1.060546    4.111451    0.450696
S     -0.172765    2.660309    0.757801
O      0.206428    2.651011    2.211248
O      1.065866    2.671542   -0.091536
C     -1.158203    1.239482    0.358285
C     -2.338559    1.440123   -0.374525
C     -3.150176    0.366114   -0.737058
C     -2.808591   -0.939925   -0.365221
C     -3.656224   -2.107853   -0.804692
F     -3.597608   -3.129644    0.127270
F     -3.189434   -2.577417   -2.018127
F     -4.980071   -1.729049   -0.947015
C     -1.613195   -1.156654    0.335931
C     -0.783152   -0.084128    0.715460
C      0.496998   -0.406416    1.461523
C      1.715069   -0.306597    0.576952
C      2.832957    0.436760    0.994972
C      3.974820    0.507471    0.191141
C      4.017902   -0.175809   -1.026661
C      2.921712   -0.937091   -1.439690
C      1.777595   -1.010646   -0.639480
H     -2.635132    2.433464   -0.682736
H     -4.044661    0.558749   -1.316156
H     -1.320832   -2.170882    0.581008
H      0.460433   -1.439225    1.871254
H      0.587243    0.246656    2.351625
H      2.818638    0.968642    1.938136
H      4.827744    1.090311    0.514030
H      4.903077   -0.120743   -1.647030
H      2.960059   -1.474365   -2.378482
H      0.942606   -1.615640   -0.968922
