31

N     -1.069929   -4.006064    1.033602
S     -0.172462   -2.756515    0.245269
O      1.054286   -2.464656    1.061120
O      0.226770   -3.261967   -1.111755
C     -1.157883   -1.287571    0.101748
C     -2.349002   -1.217290    0.841210
C     -3.161427   -0.085555    0.788389
C     -2.809743    1.004666   -0.016855
C     -3.658877    2.251434   -0.031495
F     -3.207061    3.120837    0.943599
F     -4.986000    1.945845    0.216855
F     -3.583509    2.877114   -1.263927
C     -1.603965    0.960656   -0.732202
C     -0.772876   -0.175685   -0.695535
C      0.518672   -0.136765   -1.489042
C      1.724027    0.084697   -0.609155
C      2.844731   -0.757042   -0.720910
C      3.975109   -0.537049    0.072087
C      4.003981    0.533216    0.969565
C      2.905111    1.389982    1.070616
C      1.772441    1.173929    0.279964
H     -2.653602   -2.037540    1.476887
H     -4.064550   -0.061837    1.385358
H     -1.304368    1.822786   -1.316299
H      0.491711    0.684003   -2.238390
H      0.618699   -1.062578   -2.088869
H      2.841403   -1.588441   -1.414760
H      4.830177   -1.195334   -0.011324
H      4.880290    0.702541    1.581804
H      2.932544    2.224903    1.758815
H      0.935301    1.855278    0.361913
