31

N      1.209634    2.773335    3.012853
S      0.298552    2.198575    1.660868
O     -0.988201    1.613425    2.168387
O      0.007711    3.371751    0.768986
C      1.214660    0.956973    0.784156
C      2.354132    0.418308    1.402177
C      3.109537   -0.572699    0.776942
C      2.751709   -1.044579   -0.491902
C      3.535565   -2.155828   -1.144872
F      4.859247   -2.127595   -0.740662
F      3.502468   -2.030040   -2.522960
F      2.982377   -3.371906   -0.789991
C      1.594831   -0.539773   -1.103755
C      0.822021    0.465046   -0.490216
C     -0.419902    0.947290   -1.214322
C     -1.685586    0.386366   -0.614707
C     -1.842696   -1.000697   -0.439567
C     -3.030290   -1.515448    0.089018
C     -4.076025   -0.654571    0.431224
C     -3.938862    0.722310    0.238474
C     -2.753213    1.241805   -0.290067
H      2.661443    0.754610    2.383063
H      3.972831   -0.975229    1.291975
H      1.287277   -0.939095   -2.062999
H     -0.436454    2.054651   -1.234416
H     -0.389905    0.645590   -2.283896
H     -1.047793   -1.683399   -0.711240
H     -3.141470   -2.582906    0.229151
H     -4.994969   -1.054940    0.839479
H     -4.752725    1.387603    0.496254
H     -2.665903    2.311066   -0.437437
