31

N      0.411204    3.517776    1.139206
S     -1.016387    3.327889    0.185599
O     -0.774298    3.849174   -1.203013
O     -2.118968    4.135271    0.811718
C     -1.472801    1.615993    0.108383
C     -2.700738    1.231115    0.669644
C     -3.140098   -0.090141    0.596759
C     -2.374486   -1.057804   -0.065676
C     -2.830639   -2.494870   -0.114437
F     -2.315651   -3.172548    0.974747
F     -4.212306   -2.574082   -0.082512
F     -2.390076   -3.106162   -1.275596
C     -1.130824   -0.691357   -0.600959
C     -0.657810    0.632526   -0.514197
C      0.700847    0.938804   -1.114542
C      1.781334    0.103681   -0.473146
C      2.153798    0.332973    0.862318
C      3.144448   -0.449932    1.462778
C      3.768690   -1.467738    0.736914
C      3.402054   -1.705414   -0.590382
C      2.411799   -0.924844   -1.194940
H     -3.330687    1.955724    1.168373
H     -4.085754   -0.352866    1.054184
H     -0.518275   -1.443828   -1.083283
H      0.651980    0.742423   -2.207733
H      0.990101    2.000556   -1.011570
H      1.673001    1.111681    1.439150
H      3.426482   -0.269004    2.491942
H      4.534722   -2.073508    1.203471
H      3.884131   -2.496056   -1.150702
H      2.135206   -1.125431   -2.222499
