31

N     -0.180728    3.644666    0.724860
S     -1.548000    3.116146   -0.188745
O     -1.379608    3.507520   -1.629947
O     -2.774164    3.798821    0.349824
C     -1.717944    1.355252   -0.065326
C     -2.872410    0.841730    0.546620
C     -3.089360   -0.533096    0.629400
C     -2.169093   -1.432047    0.075913
C     -2.383950   -2.920338    0.196077
F     -1.837332   -3.580283   -0.891005
F     -1.776676   -3.375553    1.351404
F     -3.734400   -3.220066    0.248497
C     -0.996378   -0.931043   -0.508243
C     -0.746803    0.453445   -0.577821
C      0.549869    0.906831   -1.220668
C      1.745387    0.338490   -0.496792
C      2.061326    0.776953    0.800397
C      3.160131    0.240423    1.478367
C      3.949790   -0.738035    0.868821
C      3.640879   -1.182831   -0.419340
C      2.542890   -0.648992   -1.101116
H     -3.617432    1.505939    0.964226
H     -3.984199   -0.892685    1.121830
H     -0.264145   -1.623519   -0.906210
H      0.545252    0.581249   -2.283680
H      0.660784    2.006288   -1.242554
H      1.453789    1.527495    1.288118
H      3.397984    0.581648    2.477591
H      4.799492   -1.153027    1.395341
H      4.251452   -1.942969   -0.889301
H      2.313597   -1.008409   -2.096537
