31

N     -0.462961   -2.632992   -2.652883
S      1.012188   -2.855336   -1.782228
O      0.844418   -3.950958   -0.767324
O      2.081805   -3.266365   -2.755138
C      1.467571   -1.349371   -0.963849
C      2.678938   -0.738528   -1.325309
C      3.114647    0.423180   -0.689196
C      2.344284    1.011488    0.321549
C      2.842826    2.233348    1.052365
F      1.781319    3.018553    1.468115
F      3.570172    1.836415    2.158780
F      3.652157    3.000890    0.232514
C      1.145601    0.394706    0.708951
C      0.675701   -0.764055    0.060634
C     -0.646138   -1.346250    0.523326
C     -1.763666   -0.342806    0.380619
C     -2.350096    0.239420    1.517906
C     -3.374795    1.180706    1.378795
C     -3.819846    1.549270    0.106500
C     -3.239712    0.978398   -1.029310
C     -2.214821    0.036892   -0.894918
H      3.303549   -1.166322   -2.098250
H      4.062745    0.856061   -0.982909
H      0.567648    0.820787    1.520439
H     -0.537017   -1.661829    1.583759
H     -0.937089   -2.255599   -0.033448
H     -2.012650   -0.031211    2.510635
H     -3.822753    1.625887    2.257783
H     -4.612464    2.278659    0.000743
H     -3.582532    1.267274   -2.014440
H     -1.769032   -0.390311   -1.783243
