31

N      1.119557    4.050769    0.731228
S      0.246182    2.760501   -0.017576
O     -1.050761    2.574794    0.716698
O     -0.026491    3.154051   -1.441355
C      1.189918    1.258983    0.047668
C      2.315253    1.222925    0.886017
C      3.090755    0.069799    0.998020
C      2.767897   -1.077778    0.263508
C      3.573056   -2.343034    0.426363
F      3.015980   -3.110261    1.432267
F      3.575115   -3.073299   -0.749542
F      4.885702   -2.051961    0.755845
C      1.625149   -1.065355   -0.549838
C      0.832493    0.091420   -0.679812
C     -0.392266    0.016615   -1.570671
C     -1.670700   -0.093820   -0.777236
C     -1.826501   -1.098216    0.195500
C     -3.025225   -1.213106    0.905859
C     -4.083056   -0.339787    0.641127
C     -3.946698    0.645495   -0.339888
C     -2.749937    0.764165   -1.053103
H      2.595633    2.087910    1.471563
H      3.942101    0.075121    1.667159
H      1.344225   -1.967604   -1.080142
H     -0.333332   -0.867806   -2.241667
H     -0.412906    0.887909   -2.254300
H     -1.021984   -1.791610    0.404583
H     -3.135537   -1.982659    1.658905
H     -5.010584   -0.430790    1.191430
H     -4.769735    1.316272   -0.549911
H     -2.663304    1.530355   -1.813439
