31

N     -2.150173    3.282270    1.683897
S     -0.920858    2.504087    0.750354
O      0.309959    2.371322    1.600748
O     -0.626618    3.372623   -0.439374
C     -1.465763    0.896350    0.232944
C     -2.618219    0.365452    0.833362
C     -3.091238   -0.899241    0.486299
C     -2.429542   -1.664343   -0.481925
C     -2.908036   -3.055042   -0.817595
F     -4.276112   -3.162071   -0.635296
F     -2.623176   -3.362514   -2.136822
F     -2.271710   -3.965787    0.004864
C     -1.256701   -1.159568   -1.062618
C     -0.766412    0.117720   -0.728735
C      0.514126    0.583111   -1.394239
C      1.703065    0.497506   -0.469456
C      2.013892   -0.706060    0.189421
C      3.134549   -0.786280    1.021553
C      3.962975    0.325915    1.190389
C      3.676377    1.518426    0.521398
C      2.556940    1.603450   -0.312046
H     -3.155580    0.924422    1.587333
H     -3.974320   -1.281646    0.982785
H     -0.714595   -1.770292   -1.774893
H      0.380329    1.609254   -1.789277
H      0.736629   -0.037575   -2.289310
H      1.390373   -1.581411    0.060028
H      3.363265   -1.712760    1.532230
H      4.830560    0.261688    1.834280
H      4.323446    2.376971    0.646460
H      2.352567    2.534023   -0.826758
