31

N      0.253606   -3.035379   -2.137881
S      1.547672   -2.956501   -0.996517
O      1.276852   -3.894349    0.146137
O      2.813215   -3.391844   -1.680955
C      1.715895   -1.301411   -0.382168
C      2.921236   -0.623526   -0.624692
C      3.132667    0.663289   -0.131281
C      2.138416    1.311598    0.611910
C      2.388351    2.679016    1.197812
F      3.275723    3.395664    0.413415
F      2.919627    2.540196    2.466361
F      1.207514    3.396782    1.279185
C      0.940987    0.633284    0.882822
C      0.698216   -0.656299    0.371073
C     -0.636871   -1.302660    0.687388
C     -1.783016   -0.462897    0.180150
C     -2.010390   -0.336506   -1.200804
C     -3.062544    0.453968   -1.673054
C     -3.893287    1.125417   -0.772202
C     -3.672161    1.008777    0.602622
C     -2.621116    0.219227    1.079374
H      3.714516   -1.093680   -1.190596
H      4.081736    1.147797   -0.323806
H      0.186098    1.112860    1.494568
H     -0.707982   -1.436997    1.788712
H     -0.742085   -2.313476    0.252936
H     -1.369964   -0.843594   -1.910077
H     -3.232296    0.547918   -2.737861
H     -4.706738    1.737702   -1.139407
H     -4.314353    1.531843    1.299372
H     -2.459524    0.143779    2.147464
