31

N      0.166296    3.639091    0.760157
S     -1.256006    3.245427   -0.137411
O     -1.071628    3.630112   -1.578447
O     -2.406205    4.034284    0.423238
C     -1.585383    1.506676   -0.022083
C     -2.788627    1.098012    0.574901
C     -3.126532   -0.252209    0.657197
C     -2.263854   -1.232677    0.151584
C     -2.655261   -2.689132    0.185020
F     -1.533094   -3.492168    0.294852
F     -3.324524   -3.007208   -0.981881
F     -3.481238   -2.951949    1.264362
C     -1.071791   -0.833968   -0.470797
C     -0.700490    0.522930   -0.540180
C      0.620964    0.861294   -1.203179
C      1.771704    0.180405   -0.504378
C      2.153579    0.583321    0.786568
C      3.209665   -0.057063    1.441921
C      3.890318   -1.104607    0.815920
C      3.514833   -1.514650   -0.466079
C      2.459263   -0.876982   -1.125267
H     -3.482688    1.826591    0.972439
H     -4.071088   -0.528305    1.109002
H     -0.421739   -1.585393   -0.903088
H      0.568543    0.546224   -2.268073
H      0.831587    1.946155   -1.219752
H      1.630036    1.387030    1.286874
H      3.498784    0.257358    2.436409
H      4.706996   -1.599937    1.324963
H      4.040742   -2.328250   -0.948725
H      2.176839   -1.210412   -2.116066
