31

N      0.424995    3.540314    1.061643
S     -1.073504    3.306756    0.234967
O     -2.137395    4.097600    0.943686
O     -0.962037    3.815378   -1.174809
C     -1.495211    1.584360    0.215533
C     -2.661959    1.179731    0.883329
C     -3.075317   -0.151722    0.862502
C     -2.346481   -1.110691    0.147989
C     -2.771843   -2.557979    0.153891
F     -4.143629   -2.667246    0.304107
F     -2.417350   -3.174246   -1.033802
F     -2.150840   -3.210099    1.202642
C     -1.161444   -0.723806   -0.495061
C     -0.713447    0.611194   -0.463299
C      0.582016    0.939629   -1.180290
C      1.731954    0.136862   -0.623977
C      2.322566   -0.886678   -1.385478
C      3.378249   -1.637363   -0.858801
C      3.850457   -1.374623    0.429848
C      3.266633   -0.361612    1.194992
C      2.210849    0.391451    0.672406
H     -3.263921    1.896616    1.425864
H     -3.972490   -0.429345    1.401514
H     -0.574779   -1.468716   -1.019465
H      0.445226    0.728180   -2.263155
H      0.854381    2.008740   -1.113899
H      1.964600   -1.106503   -2.383553
H      3.829239   -2.424300   -1.449406
H      4.667056   -1.957286    0.836181
H      3.630614   -0.161296    2.194417
H      1.762812    1.166699    1.279483
