31

N      0.512467   -3.584526   -0.879083
S     -0.960791   -3.349476   -0.008619
O     -2.021582   -4.219564   -0.622828
O     -0.777030   -3.762886    1.424530
C     -1.443774   -1.644626   -0.079865
C     -2.649142   -1.323235   -0.723892
C     -3.109527   -0.007934   -0.769639
C     -2.389242    1.018861   -0.146556
C     -2.866852    2.447579   -0.225709
F     -4.246444    2.500510   -0.326820
F     -2.489828    3.150134    0.905810
F     -2.310534    3.052001   -1.337450
C     -1.167200    0.714207    0.470942
C     -0.672510   -0.604157    0.504600
C      0.660510   -0.842052    1.187706
C      1.758383   -0.037982    0.536232
C      2.340038    1.051567    1.207721
C      3.346812    1.802395    0.592866
C      3.778672    1.473974   -0.694871
C      3.203273    0.394922   -1.370927
C      2.196328   -0.358542   -0.759998
H     -3.244954   -2.093294   -1.195743
H     -4.036156    0.204140   -1.288207
H     -0.588377    1.510542    0.923580
H      0.968830   -1.903381    1.177293
H      0.557637   -0.566613    2.259886
H      2.012716    1.322484    2.203754
H      3.791115    2.640307    1.114376
H      4.557406    2.056810   -1.169541
H      3.535839    0.143582   -2.369769
H      1.753918   -1.185748   -1.298785
