31

N     -1.693914   -3.366207   -2.007778
S     -0.648191   -2.536565   -0.909398
O      0.669104   -2.302247   -1.591699
O     -0.450147   -3.416466    0.291824
C     -1.360895   -0.981646   -0.436393
C     -2.460558   -0.509487   -1.170091
C     -3.057489    0.712444   -0.863160
C     -2.577045    1.491749    0.196338
C     -3.186376    2.839343    0.493627
F     -4.524219    2.863512    0.138788
F     -2.513011    3.810947   -0.222873
F     -3.092872    3.128468    1.844074
C     -1.456448    1.047489    0.913593
C     -0.843259   -0.186258    0.621715
C      0.370497   -0.586634    1.437654
C      1.658979   -0.400056    0.675335
C      2.598050   -1.444407    0.608463
C      3.806171   -1.265336   -0.072251
C      4.095041   -0.039222   -0.676375
C      3.179282    1.012682   -0.594785
C      1.969798    0.838362    0.084561
H     -2.859010   -1.081018   -1.997293
H     -3.893854    1.050889   -1.461921
H     -1.051461    1.672087    1.701031
H      0.256539   -1.629577    1.792915
H      0.435303    0.022502    2.365374
H      2.392636   -2.399772    1.075096
H      4.519905   -2.077001   -0.129037
H      5.031210    0.097840   -1.201948
H      3.408544    1.965408   -1.054368
H      1.277691    1.668177    0.148982
