31

N      0.051809    3.589925    1.034118
S     -1.369110    3.203522    0.131276
O     -2.537851    3.914753    0.753992
O     -1.219044    3.683973   -1.284788
C     -1.637490    1.450597    0.140588
C     -2.802100    0.961290    0.753153
C     -3.096109   -0.401652    0.749592
C     -2.245596   -1.310130    0.107218
C     -2.543054   -2.788797    0.133189
F     -2.066556   -3.401261   -1.013068
F     -3.906617   -3.015331    0.208539
F     -1.930914   -3.356415    1.234950
C     -1.062718   -0.836243   -0.479073
C     -0.735217    0.533579   -0.462742
C      0.566934    0.957172   -1.114769
C      1.747381    0.273883   -0.469840
C      2.468824   -0.712350   -1.164968
C      3.552761   -1.352890   -0.556549
C      3.923204   -1.016624    0.748183
C      3.209213   -0.040179    1.447654
C      2.124727    0.602823    0.843238
H     -3.495205    1.635583    1.238499
H     -3.996067   -0.743882    1.245055
H     -0.383463   -1.539335   -0.946342
H      0.740855    2.047554   -1.065721
H      0.513410    0.706950   -2.196686
H      2.191052   -0.988364   -2.174561
H      4.104658   -2.111549   -1.096288
H      4.761892   -1.514106    1.217811
H      3.494582    0.216977    2.459529
H      1.575806    1.350524    1.399940
