32

C      5.559129    0.243371    1.064905
O      4.166721    0.541020    1.057979
C      3.277496    0.147376    0.046828
C      3.691500   -0.593681   -1.074985
C      2.765553   -0.968747   -2.050870
C      1.420382   -0.607746   -1.926205
N      0.494471   -1.018426   -2.930083
C      0.994502    0.148860   -0.815604
C     -0.455362    0.526552   -0.634425
C     -1.218040   -0.590742    0.083837
C     -2.664411   -0.214678    0.261217
C     -3.078426    0.491958    1.402845
C     -4.416895    0.869305    1.550257
C     -5.347482    0.553187    0.556512
C     -4.940362   -0.137257   -0.588469
C     -3.602893   -0.516511   -0.739895
C      1.930698    0.508393    0.168941
H      6.049954    0.692181    0.175586
H      6.017342    0.673985    1.978667
H      5.714490   -0.856183    1.073493
H      4.724322   -0.888912   -1.199664
H      3.095324   -1.546032   -2.905735
H     -0.923628    0.730857   -1.622018
H     -0.529680    1.466239   -0.043203
H     -1.144697   -1.533677   -0.501745
H     -0.754219   -0.782096    1.076838
H     -2.365336    0.751172    2.175690
H     -4.732002    1.409934    2.433377
H     -6.382762    0.847152    0.671550
H     -5.660553   -0.375574   -1.360480
H     -3.298211   -1.042785   -1.636126
H      1.613077    1.071507    1.038384
