32

C     -5.576751   -0.454257    0.933632
O     -4.168297   -0.399767    1.135447
C     -3.262797    0.195606    0.244546
C     -3.674905    0.804752   -0.954677
C     -2.733145    1.376768   -1.812754
C     -1.373444    1.354856   -1.487051
N     -0.432888    1.932499   -2.390060
C     -0.947916    0.762394   -0.280745
C      0.514670    0.692898    0.084762
C      1.164678   -0.552158   -0.526180
C      2.623807   -0.619077   -0.163768
C      3.032469   -1.262802    1.016347
C      4.385536   -1.295365    1.368157
C      5.336939   -0.678301    0.551140
C      4.936419   -0.023907   -0.617105
C      3.584402    0.011035   -0.972655
C     -1.901357    0.175765    0.568885
H     -5.994099    0.573169    0.874921
H     -6.045695   -0.979709    1.790569
H     -5.807750   -1.014792    0.003216
H     -4.718797    0.837053   -1.235167
H     -3.062288    1.835570   -2.736856
H      1.040821    1.606807   -0.267785
H      0.626326    0.664799    1.191479
H      1.053607   -0.530558   -1.632802
H      0.643530   -1.464367   -0.160009
H      2.304074   -1.736633    1.662804
H      4.696107   -1.796019    2.276102
H      6.383607   -0.703284    0.825573
H      5.673292    0.459407   -1.245514
H      3.285816    0.529486   -1.875474
H     -1.585967   -0.301868    1.488835
