32

C     -3.227762    1.486444    2.445029
O     -2.158513    1.549927    1.507008
C     -2.014308    0.686689    0.410709
C     -2.936708   -0.337744    0.130755
C     -2.742861   -1.177687   -0.968022
C     -1.632152   -1.009173   -1.800543
N     -1.451913   -1.890972   -2.906600
C     -0.705311    0.019626   -1.538144
C      0.532758    0.195368   -2.387720
C      1.650289   -0.774013   -1.976499
C      2.129351   -0.511663   -0.571239
C      3.033686    0.532462   -0.315648
C      3.440499    0.806905    0.993730
C      2.942461    0.047305    2.055938
C      2.035670   -0.987428    1.810803
C      1.627721   -1.266504    0.503005
C     -0.906610    0.856896   -0.427021
H     -3.228099    0.501150    2.957327
H     -3.090537    2.282184    3.205491
H     -4.197828    1.650244    1.929919
H     -3.803612   -0.495813    0.757556
H     -3.457223   -1.966220   -1.169651
H      0.280068    0.023800   -3.456194
H      0.904414    1.241716   -2.320433
H      2.502377   -0.657727   -2.681039
H      1.295430   -1.823183   -2.076213
H      3.417353    1.135803   -1.129057
H      4.138264    1.611751    1.185462
H      3.256064    0.263059    3.069103
H      1.645109   -1.570425    2.634800
H      0.913516   -2.061805    0.328646
H     -0.191593    1.639028   -0.201259
