      -----------------------------------------------------------      
     |                   =====================                   |     
     |                           x T B                           |     
     |                   =====================                   |     
     |                         S. Grimme                         |     
     |          Mulliken Center for Theoretical Chemistry        |     
     |                    University of Bonn                     |     
      -----------------------------------------------------------      

   * xtb version 6.7.1 (edcfbbe) compiled by 'runner@sat12-gn217-0cbadaec-b866-44ae-a866-732403219ae3-6E01A8DFFD18.local' on 2026-06-10

   xtb is free software: you can redistribute it and/or modify it under
   the terms of the GNU Lesser General Public License as published by
   the Free Software Foundation, either version 3 of the License, or
   (at your option) any later version.
   
   xtb is distributed in the hope that it will be useful,
   but WITHOUT ANY WARRANTY; without even the implied warranty of
   MERCHANTABILITY or FITNESS FOR A PARTICULAR PURPOSE.  See the
   GNU Lesser General Public License for more details.
   
   Cite this work as:
   * C. Bannwarth, E. Caldeweyher, S. Ehlert, A. Hansen, P. Pracht,
     J. Seibert, S. Spicher, S. Grimme, WIREs Comput. Mol. Sci., 2020, 11,
     e01493. DOI: 10.1002/wcms.1493
   
   for GFN2-xTB:
   * C. Bannwarth, S. Ehlert and S. Grimme., J. Chem. Theory Comput., 2019,
     15, 1652-1671. DOI: 10.1021/acs.jctc.8b01176
   for GFN1-xTB:
   * S. Grimme, C. Bannwarth, P. Shushkov, J. Chem. Theory Comput., 2017,
     13, 1989-2009. DOI: 10.1021/acs.jctc.7b00118
   for GFN0-xTB:
   * P. Pracht, E. Caldeweyher, S. Ehlert, S. Grimme, ChemRxiv, 2019, preprint.
     DOI: 10.26434/chemrxiv.8326202.v1
   for GFN-FF:
   * S. Spicher and S. Grimme, Angew. Chem. Int. Ed., 2020, 59, 15665-15673.
     DOI: 10.1002/anie.202004239
   
   for ALPB and GBSA implicit solvation:
   * S. Ehlert, M. Stahn, S. Spicher, S. Grimme, J. Chem. Theory Comput.,
     2021, 17, 4250-4261. DOI: 10.1021/acs.jctc.1c00471
   
   for ddCOSMO and CPCM-X implicit solvation:
   * M. Stahn, S. Ehlert, S. Grimme, J. Phys. Chem. A,
     2023, XX, XXXX-XXXX. DOI: 10.1021/acs.jpca.3c04382
   
   for DFT-D4:
   * E. Caldeweyher, C. Bannwarth and S. Grimme, J. Chem. Phys., 2017,
     147, 034112. DOI: 10.1063/1.4993215
   * E. Caldeweyher, S. Ehlert, A. Hansen, H. Neugebauer, S. Spicher,
     C. Bannwarth and S. Grimme, J. Chem. Phys., 2019, 150, 154122.
     DOI: 10.1063/1.5090222
   * E. Caldeweyher, J.-M. Mewes, S. Ehlert and S. Grimme, Phys. Chem. Chem. Phys.
     2020, 22, 8499-8512. DOI: 10.1039/D0CP00502A
   
   for sTDA-xTB:
   * S. Grimme and C. Bannwarth, J. Chem. Phys., 2016, 145, 054103.
     DOI: 10.1063/1.4959605
   
   in the mass-spec context:
   * V. Asgeirsson, C. Bauer and S. Grimme, Chem. Sci., 2017, 8, 4879.
     DOI: 10.1039/c7sc00601b
   * J. Koopman and S. Grimme, ACS Omega 2019, 4, 12, 15120-15133.
     DOI: 10.1021/acsomega.9b02011
   
   for metadynamics refer to:
   * S. Grimme, J. Chem. Theory Comput., 2019, 155, 2847-2862
     DOI: 10.1021/acs.jctc.9b00143
   
   for SPH calculations refer to:
   * S. Spicher and S. Grimme, J. Chem. Theory Comput., 2021, 17, 1701-1714
     DOI: 10.1021/acs.jctc.0c01306
   
   for ONIOM refer to:
   * C. Plett, A. Katbashev, S. Ehlert, S. Grimme, M. Bursch,
     Phys. Chem. Chem. Phys., 2023, 25, 17860-17868. DOI: 10.1039/D3CP02178E
   
   for DIPRO refer to:
   * J. Kohn, N. Gildemeister, S. Grimme, D. Fazzi, A. Hansen,
     J. Chem. Phys., 2023, just accepted.
   
   for PTB refer to:
   * S. Grimme, M. Mueller, A. Hansen, J. Chem. Phys., 2023, 158, 124111.
     DOI: 10.1063/5.0137838
   
   with help from (in alphabetical order)
   P. Atkinson, C. Bannwarth, F. Bohle, G. Brandenburg, E. Caldeweyher
   M. Checinski, S. Dohm, S. Ehlert, S. Ehrlich, I. Gerasimov, C. Hölzer
   A. Katbashev, J. Kohn, J. Koopman, C. Lavigne, S. Lehtola, F. März, M. Müller,
   F. Musil, H. Neugebauer, J. Pisarek, C. Plett, P. Pracht, F. Pultar,
   J. Seibert, P. Shushkov, S. Spicher, M. Stahn, M. Steiner, T. Strunk,
   J. Stückrath, T. Rose, and J. Unsleber
   
 * started run on 2026/09/07 at 18:21:32.514     
   ID    Z sym.   atoms
    1    7 N      1, 2, 24, 25, 53, 55, 110, 112, 215
    2    6 C      3-5, 7, 9-12, 14, 16-20, 22, 23, 26-28, 30, 32-35, 37,
                  39-43, 45, 46, 49-52, 54, 57, 58, 61, 65, 67, 68, 70, 71,
                  73, 77, 81, 86-89, 91, 92, 106-109, 111, 114, 115, 118,
                  122, 124, 125, 127, 128, 130, 134, 138, 143-146, 148, 149,
                  171-174, 176, 178, 182-185, 187, 189, 193-196, 198, 200,
                  204-207, 209, 211, 216-229
    3    1 H      6, 8, 13, 15, 21, 29, 31, 36, 38, 44, 56, 59, 60, 62, 63,
                  69, 72, 74-76, 78-80, 90, 93-105, 113, 116, 117, 119, 120,
                  126, 129, 131-133, 135-137, 147, 150-166, 175, 177,
                  179-181, 186, 188, 190-192, 197, 199, 201-203, 208, 210,
                  212-214, 230-242
    4   26 Fe     47
    5   17 Cl     48
    6    8 O      64, 66, 82-85, 121, 123, 139-142, 167-170

           -------------------------------------------------
          |                Calculation Setup                |
           -------------------------------------------------

          program call               : /Users/haywoodau3/Documents/genaisubstrate/.chem-env/bin/xtb input.xyz --gfn 2 --alpb ether --opt --input xcontrol --chrg 0 --uhf 1
          coordinate file            : input.xyz
          omp threads                :                     1


           -------------------------------------------------
          |                 G F N 2 - x T B                 |
           -------------------------------------------------

        Reference                      10.1021/acs.jctc.8b01176
      * Hamiltonian:
        H0-scaling (s, p, d)           1.850000    2.230000    2.230000
        zeta-weighting                 0.500000
      * Dispersion:
        s8                             2.700000
        a1                             0.520000
        a2                             5.000000
        s9                             5.000000
      * Repulsion:
        kExp                           1.500000    1.000000
        rExp                           1.000000
      * Coulomb:
        alpha                          2.000000
        third order                    shell-resolved
        anisotropic                    true
        a3                             3.000000
        a5                             4.000000
        cn-shift                       1.200000
        cn-exp                         4.000000
        max-rad                        5.000000

      * Solvation model:               ALPB
        Solvent                        ether
        Parameter file                 internal GFN2-xTB/ALPB
        Dielectric constant                4.3300E+00
        Reference state                gsolv [1 M gas/solution]
        Free energy shift                  4.9534E-03 Eh       3.1083E+00 kcal/mol
        Temperature                        2.9815E+02 K
        Density                            7.1300E-01 kg/L
        Solvent mass                       7.4120E+01 g/mol
        Interaction kernel             P16
        Born radius scaling (c1)           1.5847E+00
        Born radii integrator          GBOBC
        Born offset                        0.0000E+00 a0       0.0000E+00 AA
        H-bond correction              true
        Ion screening                  false
        Surface tension                    1.0000E-05 Eh       1.5569E+01 dyn/cm
        Grid points                               230 per atom

          ...................................................
          :                      SETUP                      :
          :.................................................:
          :  # basis functions                 677          :
          :  # atomic orbitals                 675          :
          :  # shells                          385          :
          :  # electrons                       713          :
          :  max. iterations                   250          :
          :  Hamiltonian                  GFN2-xTB          :
          :  restarted?                      false          :
          :  GBSA solvation                   true          :
          :  PC potential                    false          :
          :  electronic temp.          300.0000000     K    :
          :  accuracy                    1.0000000          :
          :  -> integral cutoff          0.2500000E+02      :
          :  -> integral neglect         0.1000000E-07      :
          :  -> SCF convergence          0.1000000E-05 Eh   :
          :  -> wf. convergence          0.1000000E-03 e    :
          :  Broyden damping             0.4000000          :
          :  net charge                          0          :
          :  unpaired electrons                  1          :
          ...................................................

 iter      E             dE          RMSdq      gap      omega  full diag
   1   -398.9790972 -0.398979E+03  0.459E+00    0.25       0.0  T
   2   -398.8526065  0.126491E+00  0.304E+00    0.38       1.0  T
   3   -397.6146737  0.123793E+01  0.311E+00    0.31       1.0  T
   4   -398.7400634 -0.112539E+01  0.238E+00    0.05       1.0  T
   5   -399.3671598 -0.627096E+00  0.134E+00    0.84       1.0  T
   6   -399.8518010 -0.484641E+00  0.742E-01    0.03       1.0  T
   7   -399.9370638 -0.852627E-01  0.268E-01    0.07       1.0  T
   8   -399.9448111 -0.774734E-02  0.216E-01    0.02       1.0  T
   9   -399.9409813  0.382977E-02  0.172E-01    0.03       1.0  T
  10   -399.8779328  0.630485E-01  0.384E-01    0.06       1.0  T
  11   -399.9292215 -0.512887E-01  0.209E-01    0.02       1.0  T
  12   -399.9415778 -0.123563E-01  0.120E-01    0.03       1.0  T
  13   -399.9483558 -0.677793E-02  0.172E-02    0.03       1.0  T
  14   -399.9475422  0.813590E-03  0.456E-02    0.03       1.0  T
  15   -399.9484392 -0.897083E-03  0.977E-03    0.03       1.0  T
  16   -399.9484455 -0.622415E-05  0.728E-03    0.03       1.0  T
  17   -399.9484598 -0.143061E-04  0.376E-03    0.03       1.7  T
  18   -399.9484211  0.386391E-04  0.945E-03    0.03       1.0  T
  19   -399.9484561 -0.349617E-04  0.401E-03    0.03       1.6  T
  20   -399.9484620 -0.589122E-05  0.162E-03    0.03       4.0  T
  21   -399.9484622 -0.231656E-06  0.121E-03    0.03       5.3  T
  22   -399.9484628 -0.593395E-06  0.289E-04    0.03      22.2  T
  23   -399.9484627  0.674714E-07  0.479E-04    0.03      13.4  T

   *** convergence criteria satisfied after 23 iterations ***

         #    Occupation            Energy/Eh            Energy/eV
      -------------------------------------------------------------
         1        2.0000           -1.0010555             -27.2401
       ...           ...                  ...                  ...
       351        2.0000           -0.3695177             -10.0551
       352        2.0000           -0.3648722              -9.9287
       353        2.0000           -0.3645746              -9.9206
       354        2.0000           -0.3560350              -9.6882
       355        2.0000           -0.3497979              -9.5185
       356        1.8174           -0.3204601              -8.7202
       357        0.7917           -0.3171208              -8.6293 (HOMO)
       358        0.3910           -0.3158974              -8.5960 (LUMO)
       359                         -0.2961117              -8.0576
       360                         -0.2944141              -8.0114
       361                         -0.2661747              -7.2430
       362                         -0.2604459              -7.0871
       ...                                ...                  ...
       675                          1.4498671              39.4529
      -------------------------------------------------------------
                  HL-Gap            0.0012235 Eh            0.0333 eV
             Fermi-level           -0.3177081 Eh           -8.6453 eV

 SCC (total)                   0 d,  0 h,  0 min,  2.642 sec
 SCC setup                      ...        0 min,  0.008 sec (  0.302%)
 Dispersion                     ...        0 min,  0.006 sec (  0.242%)
 classical contributions        ...        0 min,  0.001 sec (  0.051%)
 integral evaluation            ...        0 min,  0.056 sec (  2.132%)
 iterations                     ...        0 min,  2.037 sec ( 77.071%)
 molecular gradient             ...        0 min,  0.480 sec ( 18.175%)
 printout                       ...        0 min,  0.054 sec (  2.027%)

         :::::::::::::::::::::::::::::::::::::::::::::::::::::
         ::                     SUMMARY                     ::
         :::::::::::::::::::::::::::::::::::::::::::::::::::::
         :: total energy            -394.739025497011 Eh    ::
         :: total w/o Gsasa/hb      -394.625768870499 Eh    ::
         :: gradient norm              0.349705001742 Eh/a0 ::
         :: HOMO-LUMO gap              0.033291964185 eV    ::
         ::.................................................::
         :: SCC energy              -399.925206286516 Eh    ::
         :: -> isotropic ES            0.522069313196 Eh    ::
         :: -> anisotropic ES          0.004979812210 Eh    ::
         :: -> anisotropic XC          0.169614730850 Eh    ::
         :: -> dispersion             -0.351460783814 Eh    ::
         :: -> Gsolv                  -0.168054372605 Eh    ::
         ::    -> Gelec               -0.054797746092 Eh    ::
         ::    -> Gsasa               -0.111839020727 Eh    ::
         ::    -> Ghb                 -0.006371043363 Eh    ::
         ::    -> Gshift               0.004953437577 Eh    ::
         :: repulsion energy           5.186180789505 Eh    ::
         :: add. restraining           0.000000000000 Eh    ::
         :: total charge               0.000000000003 e     ::
         :::::::::::::::::::::::::::::::::::::::::::::::::::::

      ----------------------------------------------------------- 
     |                   =====================                   |
     |                        A N C O P T                        |
     |                   =====================                   |
     |               Approximate Normal Coordinate               |
     |                Rational Function Optimizer                |
      ----------------------------------------------------------- 
      ----------------------------------------------------------- 
     |                   =====================                   |
     |                        A N C O P T                        |
     |                   =====================                   |
     |               Approximate Normal Coordinate               |
     |                Rational Function Optimizer                |
      ----------------------------------------------------------- 

          ...................................................
          :                      SETUP                      :
          :.................................................:
          :   optimization level            normal          :
          :   max. optcycles                   726          :
          :   ANC micro-cycles                  20          :
          :   degrees of freedom                81          :
          :.................................................:
          :   RF solver                   davidson          :
          :   write xtbopt.log                true          :
          :   linear?                        false          :
          :   energy convergence         0.5000000E-05 Eh   :
          :   grad. convergence          0.1000000E-02 Eh/α :
          :   maxmium RF displ.          1.0000000          :
          :   Hlow (freq-cutoff)         0.1000000E-01      :
          :   Hmax (freq-cutoff)         5.0000000          :
          :   S6 in model hess.         20.0000000          :
          ...................................................

generating ANC from exact Hessian ...
Using Lindh-Hessian (1995)
 Shifting diagonal of input Hessian by    1.0023703181753239E-002
 Lowest  eigenvalues of input Hessian
    0.010000    0.010004    0.000000    0.000000    0.000000    0.000000
    0.000000    0.000000    0.010039    0.010048    0.010055    0.010084
    0.010088    0.010106    0.010129    0.010141    0.010155    0.010172
 Highest eigenvalues
    2.241204    2.241908    2.266039    2.267157    2.271021    2.271318


........................................................................
.............................. CYCLE    1 ..............................
........................................................................

 iter      E             dE          RMSdq      gap      omega  full diag
   1   -399.9484628 -0.399948E+03  0.150E-04    0.03       0.0  T
   2   -399.9484609  0.195942E-05  0.207E-03    0.03       3.1  T
   3   -399.9484628 -0.196735E-05  0.980E-05    0.03      65.6  T
   4   -399.9484628 -0.131342E-08  0.285E-05    0.03     225.4  T
   5   -399.9484628  0.339867E-09  0.364E-05    0.03     176.6  T
     SCC iter.                  ...        0 min,  0.424 sec
     gradient                   ...        0 min,  0.499 sec
 * total energy  :  -394.7390256 Eh     change       -0.9987207E-07 Eh
   gradient norm :     0.1528124 Eh/α   predicted     0.0000000E+00 (-100.00%)
   displ. norm   :     0.0806855 α      lambda       -0.1222444E-01
   maximum displ.:     0.0374732 α      in ANC's #64, #15, #62, ...

........................................................................
.............................. CYCLE    2 ..............................
........................................................................

 iter      E             dE          RMSdq      gap      omega  full diag
   1   -399.9466452 -0.399947E+03  0.161E-01    0.03       0.0  T
   2   -399.8837922  0.628530E-01  0.489E-01    0.04       1.0  T
   3   -399.9361416 -0.523493E-01  0.213E-01    0.03       1.0  T
   4   -399.9543773 -0.182357E-01  0.760E-02    0.03       1.0  T
   5   -399.9553461 -0.968772E-03  0.347E-02    0.03       1.0  T
   6   -399.9419944  0.133517E-01  0.170E-01    0.04       1.0  T
   7   -399.9546472 -0.126528E-01  0.475E-02    0.03       1.0  T
   8   -399.9556686 -0.102146E-02  0.121E-02    0.03       1.0  T
   9   -399.9557263 -0.576702E-04  0.451E-03    0.03       1.4  T
  10   -399.9557335 -0.725787E-05  0.204E-03    0.03       3.1  T
  11   -399.9557341 -0.597849E-06  0.162E-03    0.03       4.0  T
  12   -399.9557351 -0.100519E-05  0.803E-04    0.03       8.0  T
  13   -399.9557352 -0.415805E-07  0.688E-04    0.03       9.3  T
  14   -399.9557352 -0.589300E-07  0.554E-04    0.03      11.6  T
     SCC iter.                  ...        0 min,  1.220 sec
     gradient                   ...        0 min,  0.492 sec
 * total energy  :  -394.7502805 Eh     change       -0.1125486E-01 Eh
   gradient norm :     0.0862704 Eh/α   predicted    -0.6185193E-02 ( -45.04%)
   displ. norm   :     0.1065594 α      lambda       -0.9166884E-02
   maximum displ.:     0.0560755 α      in ANC's #62, #64, #21, ...

........................................................................
.............................. CYCLE    3 ..............................
........................................................................

 iter      E             dE          RMSdq      gap      omega  full diag
   1   -399.9432720 -0.399943E+03  0.254E-01    0.03       0.0  T
   2   -399.8333851  0.109887E+00  0.718E-01    0.07       1.0  T
   3   -399.9350536 -0.101668E+00  0.273E-01    0.03       1.0  T
   4   -399.9504955 -0.154419E-01  0.193E-01    0.02       1.0  T
   5   -399.9647324 -0.142369E-01  0.295E-02    0.02       1.0  T
   6   -399.9573155  0.741684E-02  0.129E-01    0.03       1.0  T
   7   -399.9598572 -0.254168E-02  0.102E-01    0.02       1.0  T
   8   -399.9640415 -0.418431E-02  0.405E-02    0.02       1.0  T
   9   -399.9647913 -0.749809E-03  0.337E-03    0.02       1.9  T
  10   -399.9647717  0.196468E-04  0.702E-03    0.02       1.0  T
  11   -399.9647940 -0.223616E-04  0.135E-03    0.02       4.8  T
  12   -399.9647901  0.395573E-05  0.323E-03    0.02       2.0  T
  13   -399.9647947 -0.459731E-05  0.468E-04    0.02      13.7  T
  14   -399.9647942  0.486416E-06  0.105E-03    0.02       6.1  T
  15   -399.9647943 -0.125826E-06  0.902E-04    0.02       7.1  T
  16   -399.9647947 -0.358548E-06  0.272E-04    0.02      23.7  T
     SCC iter.                  ...        0 min,  1.385 sec
     gradient                   ...        0 min,  0.499 sec
 * total energy  :  -394.7563847 Eh     change       -0.6104277E-02 Eh
   gradient norm :     0.0259193 Eh/α   predicted    -0.4635502E-02 ( -24.06%)
   displ. norm   :     0.0142168 α      lambda       -0.3471174E-03
   maximum displ.:     0.0083197 α      in ANC's #62, #21, #20, ...

........................................................................
.............................. CYCLE    4 ..............................
........................................................................

 iter      E             dE          RMSdq      gap      omega  full diag
   1   -399.9649585 -0.399965E+03  0.380E-02    0.02       0.0  T
   2   -399.9443827  0.205757E-01  0.232E-01    0.01       1.0  T
   3   -399.9649637 -0.205810E-01  0.389E-02    0.03       1.0  T
   4   -399.9651620 -0.198313E-03  0.226E-02    0.02       1.0  T
   5   -399.9653577 -0.195684E-03  0.111E-02    0.02       1.0  T
   6   -399.9653628 -0.505262E-05  0.932E-03    0.02       1.0  T
   7   -399.9653972 -0.344604E-04  0.234E-03    0.02       2.7  T
   8   -399.9653990 -0.179270E-05  0.531E-04    0.02      12.1  T
   9   -399.9653991 -0.443059E-07  0.381E-04    0.02      16.9  T
  10   -399.9653991 -0.510493E-07  0.158E-04    0.02      40.6  T
     SCC iter.                  ...        0 min,  0.870 sec
     gradient                   ...        0 min,  0.517 sec
 * total energy  :  -394.7565166 Eh     change       -0.1318510E-03 Eh
   gradient norm :     0.0155439 Eh/α   predicted    -0.1737235E-03 (  31.76%)
   displ. norm   :     0.0197057 α      lambda       -0.2952798E-03
   maximum displ.:     0.0104007 α      in ANC's #62, #21, #20, ...

........................................................................
.............................. CYCLE    5 ..............................
........................................................................

 iter      E             dE          RMSdq      gap      omega  full diag
   1   -399.9654470 -0.399965E+03  0.477E-02    0.02       0.0  T
   2   -399.9403876  0.250594E-01  0.263E-01    0.02       1.0  T
   3   -399.9658102 -0.254226E-01  0.387E-02    0.03       1.0  T
   4   -399.9657379  0.722860E-04  0.287E-02    0.02       1.0  T
   5   -399.9659949 -0.256991E-03  0.186E-02    0.02       1.0  T
   6   -399.9660371 -0.421856E-04  0.145E-02    0.02       1.0  T
   7   -399.9661233 -0.862318E-04  0.334E-03    0.02       1.9  T
   8   -399.9661267 -0.333615E-05  0.103E-03    0.02       6.2  T
   9   -399.9661270 -0.339821E-06  0.527E-04    0.02      12.2  T
  10   -399.9661271 -0.966922E-07  0.234E-04    0.02      27.5  T
     SCC iter.                  ...        0 min,  0.880 sec
     gradient                   ...        0 min,  0.518 sec
 * total energy  :  -394.7564690 Eh     change        0.4760400E-04 Eh
   gradient norm :     0.0039607 Eh/α   predicted    -0.1477431E-03 (-410.36%)
   displ. norm   :     0.0023562 α      lambda       -0.8156733E-05
   maximum displ.:     0.0016658 α      in ANC's #55, #1, #39, ...

........................................................................
.............................. CYCLE    6 ..............................
........................................................................

 iter      E             dE          RMSdq      gap      omega  full diag
   1   -399.9662027 -0.399966E+03  0.151E-03    0.02       0.0  T
   2   -399.9661731  0.296081E-04  0.806E-03    0.02       1.0  T
   3   -399.9662007 -0.275314E-04  0.237E-03    0.02       2.7  T
   4   -399.9662029 -0.223913E-05  0.771E-04    0.02       8.3  T
   5   -399.9662028  0.883765E-07  0.772E-04    0.02       8.3  T
   6   -399.9662029 -0.110119E-06  0.327E-04    0.02      19.7  T
     SCC iter.                  ...        0 min,  0.533 sec
     gradient                   ...        0 min,  0.519 sec
 * total energy  :  -394.7565163 Eh     change       -0.4730732E-04 Eh
   gradient norm :     0.0039626 Eh/α   predicted    -0.4440980E-05 ( -90.61%)
   displ. norm   :     0.1216712 α      lambda       -0.4563348E-03
   maximum displ.:     0.0885302 α      in ANC's #55, #1, #39, ...

........................................................................
.............................. CYCLE    7 ..............................
........................................................................

 iter      E             dE          RMSdq      gap      omega  full diag
   1   -399.9701014 -0.399970E+03  0.799E-02    0.02       0.0  T
   2   -399.9449465  0.251550E-01  0.248E-01    0.02       1.0  T
   3   -399.9669715 -0.220250E-01  0.103E-01    0.03       1.0  T
   4   -399.9692283 -0.225682E-02  0.699E-02    0.01       1.0  T
   5   -399.9703050 -0.107665E-02  0.381E-02    0.02       1.0  T
   6   -399.9707723 -0.467352E-03  0.157E-02    0.02       1.0  T
   7   -399.9708015 -0.291748E-04  0.120E-02    0.02       1.0  T
   8   -399.9708516 -0.500698E-04  0.318E-03    0.02       2.0  T
   9   -399.9708480  0.357238E-05  0.400E-03    0.02       1.6  T
  10   -399.9708545 -0.647665E-05  0.132E-03    0.02       4.9  T
  11   -399.9708553 -0.854551E-06  0.157E-04    0.02      40.8  T
  12   -399.9708553 -0.278879E-08  0.108E-04    0.02      59.4  T
     SCC iter.                  ...        0 min,  1.080 sec
     gradient                   ...        0 min,  0.531 sec
 * total energy  :  -394.7528630 Eh     change        0.3653302E-02 Eh
   gradient norm :     0.0156748 Eh/α   predicted    -0.2315565E-03 (-106.34%)
   displ. norm   :     0.1615828 α      lambda       -0.4256700E-03
   maximum displ.:     0.1191262 α      in ANC's #55, #1, #39, ...

........................................................................
.............................. CYCLE    8 ..............................
........................................................................

 iter      E             dE          RMSdq      gap      omega  full diag
   1   -399.9757699 -0.399976E+03  0.112E-01    0.02       0.0  T
   2   -399.9418007  0.339691E-01  0.298E-01    0.03       1.0  T
   3   -399.9740099 -0.322092E-01  0.113E-01    0.04       1.0  T
   4   -399.9766342 -0.262429E-02  0.872E-02    0.01       1.0  T
   5   -399.9732831  0.335113E-02  0.954E-02    0.01       1.0  T
   6   -399.9758344 -0.255129E-02  0.576E-02    0.02       1.0  T
   7   -399.9771572 -0.132285E-02  0.242E-02    0.02       1.0  T
   8   -399.9774179 -0.260709E-03  0.649E-03    0.02       1.0  T
   9   -399.9773950  0.229364E-04  0.886E-03    0.02       1.0  T
  10   -399.9774311 -0.360950E-04  0.498E-04    0.02      12.9  T
  11   -399.9774308  0.301153E-06  0.879E-04    0.02       7.3  T
  12   -399.9774311 -0.294080E-06  0.338E-04    0.02      19.0  T
     SCC iter.                  ...        0 min,  1.084 sec
     gradient                   ...        0 min,  0.529 sec
 * total energy  :  -394.7265277 Eh     change        0.2633531E-01 Eh
   gradient norm :     0.0245849 Eh/α   predicted    -0.2184139E-03 (-100.83%)
   displ. norm   :     0.4179533 α      lambda       -0.1102629E-02
   maximum displ.:     0.3095132 α      in ANC's #55, #1, #39, ...

........................................................................
.............................. CYCLE    9 ..............................
........................................................................

 iter      E             dE          RMSdq      gap      omega  full diag
   1   -399.8517984 -0.399852E+03  0.656E-01    0.07       0.0  T
   2   -397.5220581  0.232974E+01  0.302E+00    0.11       1.0  T
   3   -399.8604337 -0.233838E+01  0.650E-01    0.05       1.0  T
   4   -399.9322361 -0.718025E-01  0.598E-01    0.03       1.0  T
   5   -399.9744193 -0.421832E-01  0.249E-01    0.04       1.0  T
   6   -399.8678153  0.106604E+00  0.546E-01    0.06       1.0  T
   7   -399.9909760 -0.123161E+00  0.137E-01    0.01       1.0  T
   8   -399.9642150  0.267610E-01  0.278E-01    0.04       1.0  T
   9   -399.9855113 -0.212963E-01  0.171E-01    0.02       1.0  T
  10   -399.9887584 -0.324710E-02  0.148E-01    0.01       1.0  T
  11   -399.9948800 -0.612164E-02  0.926E-02    0.01       1.0  T
  12   -399.9986748 -0.379478E-02  0.134E-02    0.01       1.0  T
  13   -399.9986529  0.219254E-04  0.143E-02    0.01       1.0  T
  14   -399.9987036 -0.506874E-04  0.758E-03    0.01       1.0  T
  15   -399.9986966  0.698239E-05  0.760E-03    0.01       1.0  T
  16   -399.9987070 -0.103947E-04  0.491E-03    0.01       1.3  T
  17   -399.9987065  0.497795E-06  0.511E-03    0.01       1.3  T
  18   -399.9987183 -0.118011E-04  0.622E-04    0.01      10.3  T
  19   -399.9987175  0.824253E-06  0.146E-03    0.01       4.4  T
  20   -399.9987184 -0.910897E-06  0.345E-04    0.01      18.6  T
  21   -399.9987184 -0.528014E-07  0.102E-04    0.01      63.3  T
     SCC iter.                  ...        0 min,  1.916 sec
     gradient                   ...        0 min,  0.533 sec
 * total energy  :  -394.4815449 Eh     change        0.2449828E+00 Eh
   gradient norm :     0.0340665 Eh/α   predicted    -0.6477692E-03 (-100.26%)
   displ. norm   :     0.4780318 α      lambda       -0.1261036E-02
   maximum displ.:     0.3548267 α      in ANC's #55, #1, #39, ...

........................................................................
.............................. CYCLE   10 ..............................
........................................................................

 iter      E             dE          RMSdq      gap      omega  full diag
   1   -399.7635338 -0.399764E+03  0.930E-01    0.21       0.0  T
   2   -395.3427652  0.442077E+01  0.375E+00    0.20       1.0  T
   3   -399.4148894 -0.407212E+01  0.126E+00    0.19       1.0  T
   4   -399.9548190 -0.539930E+00  0.636E-01    0.02       1.0  T
   5   -399.7631522  0.191667E+00  0.831E-01    0.17       1.0  T
   6   -400.0303966 -0.267244E+00  0.162E-01    0.02       1.0  T
   7   -400.0030288  0.273677E-01  0.331E-01    0.02       1.0  T
   8   -400.0207947 -0.177658E-01  0.228E-01    0.01       1.0  T
   9   -400.0361715 -0.153768E-01  0.969E-02    0.01       1.0  T
  10   -400.0202070  0.159644E-01  0.208E-01    0.01       1.0  T
  11   -400.0337461 -0.135391E-01  0.857E-02    0.01       1.0  T
  12   -400.0365751 -0.282894E-02  0.127E-02    0.01       1.0  T
  13   -400.0359738  0.601269E-03  0.396E-02    0.01       1.0  T
  14   -400.0365874 -0.613562E-03  0.875E-03    0.01       1.0  T
  15   -400.0365934 -0.606434E-05  0.530E-03    0.01       1.2  T
  16   -400.0363893  0.204149E-03  0.230E-02    0.01       1.0  T
  17   -400.0366041 -0.214789E-03  0.114E-03    0.01       5.6  T
  18   -400.0365962  0.784436E-05  0.445E-03    0.01       1.4  T
  19   -400.0365966 -0.371332E-06  0.432E-03    0.01       1.5  T
  20   -400.0366040 -0.745053E-05  0.592E-04    0.01      10.9  T
  21   -400.0366040  0.266763E-07  0.645E-04    0.01      10.0  T
  22   -400.0366040 -0.291334E-07  0.578E-04    0.01      11.1  T
     SCC iter.                  ...        0 min,  2.022 sec
     gradient                   ...        0 min,  0.551 sec
 * total energy  :  -393.6290700 Eh     change        0.8524749E+00 Eh
   gradient norm :     0.0388072 Eh/α   predicted    -0.7745715E-03 (-100.09%)
   displ. norm   :     0.7807177 α      lambda       -0.2757656E-02
   maximum displ.:     0.5794461 α      in ANC's #55, #1, #39, ...

........................................................................
.............................. CYCLE   11 ..............................
........................................................................

 iter      E             dE          RMSdq      gap      omega  full diag
   1   -399.8738408 -0.399874E+03  0.794E-01    0.05       0.0  T
   2   -396.7277207  0.314612E+01  0.336E+00    0.42       1.0  T
   3   -399.4008541 -0.267313E+01  0.129E+00    0.17       1.0  T
   4   -399.7043646 -0.303510E+00  0.938E-01    0.18       1.0  T
   5   -399.9555930 -0.251228E+00  0.354E-01    0.01       1.0  T
   6   -399.9829405 -0.273475E-01  0.341E-01    0.04       1.0  T
   7   -399.9446307  0.383098E-01  0.473E-01    0.02       1.0  T
   8   -399.9324777  0.121529E-01  0.517E-01    0.02       1.0  T
   9   -399.8856378  0.468399E-01  0.622E-01    0.03       1.0  T
  10   -399.9933625 -0.107725E+00  0.145E-01    0.02       1.0  T
  11   -399.9986544 -0.529192E-02  0.441E-02    0.03       1.0  T
  12   -399.9988018 -0.147432E-03  0.310E-02    0.02       1.0  T
  13   -399.9985292  0.272640E-03  0.374E-02    0.02       1.0  T
  14   -399.9987153 -0.186162E-03  0.335E-02    0.02       1.0  T
  15   -399.9977912  0.924104E-03  0.598E-02    0.02       1.0  T
  16   -399.9988974 -0.110616E-02  0.230E-02    0.02       1.0  T
  17   -399.9990471 -0.149680E-03  0.652E-03    0.02       1.0  T
  18   -399.9990572 -0.101479E-04  0.385E-03    0.02       1.7  T
  19   -399.9990620 -0.481856E-05  0.561E-04    0.02      11.5  T
  20   -399.9990620  0.252430E-07  0.678E-04    0.02       9.5  T
  21   -399.9990621 -0.727049E-07  0.388E-04    0.02      16.6  T
     SCC iter.                  ...        0 min,  1.958 sec
     gradient                   ...        0 min,  0.545 sec
 * total energy  :  -392.1170407 Eh     change        0.1512029E+01 Eh
   gradient norm :     0.0431778 Eh/α   predicted    -0.2219260E-02 (-100.15%)
   displ. norm   :     0.7729725 α      lambda       -0.4294028E-02
   maximum displ.:     0.5715353 α      in ANC's #55, #1, #39, ...

........................................................................
.............................. CYCLE   12 ..............................
........................................................................

 iter      E             dE          RMSdq      gap      omega  full diag
   1   -399.6064620 -0.399606E+03  0.956E-01    0.06       0.0  T
   2   -398.9089265  0.697535E+00  0.161E+00    1.37       1.0  T
   3   -399.6471257 -0.738199E+00  0.746E-01    0.06       1.0  T
   4   -399.6820558 -0.349301E-01  0.618E-01    0.04       1.0  T
   5   -399.7172392 -0.351834E-01  0.411E-01    0.05       1.0  T
   6   -399.7038491  0.133901E-01  0.350E-01    0.01       1.0  T
   7   -399.6996761  0.417301E-02  0.374E-01    0.02       1.0  T
   8   -399.7267507 -0.270746E-01  0.244E-01    0.02       1.0  T
   9   -399.7424076 -0.156570E-01  0.126E-01    0.02       1.0  T
  10   -399.7477645 -0.535690E-02  0.362E-02    0.02       1.0  T
  11   -399.7481111 -0.346585E-03  0.188E-02    0.02       1.0  T
  12   -399.7482265 -0.115390E-03  0.481E-03    0.02       1.3  T
  13   -399.7482170  0.949479E-05  0.662E-03    0.02       1.0  T
  14   -399.7482243 -0.728899E-05  0.483E-03    0.02       1.3  T
  15   -399.7482319 -0.756390E-05  0.140E-03    0.02       4.6  T
  16   -399.7482320 -0.154570E-06  0.906E-04    0.02       7.1  T
  17   -399.7482268  0.520244E-05  0.378E-03    0.02       1.7  T
  18   -399.7482321 -0.526073E-05  0.524E-04    0.02      12.3  T
  19   -399.7482311  0.967111E-06  0.165E-03    0.02       3.9  T
  20   -399.7482320 -0.888525E-06  0.641E-04    0.02      10.0  T
     SCC iter.                  ...        0 min,  1.888 sec
     gradient                   ...        0 min,  0.552 sec
 * total energy  :  -393.5382396 Eh     change       -0.1421199E+01 Eh
   gradient norm :     0.0442855 Eh/α   predicted    -0.3429681E-02 ( -99.76%)
   displ. norm   :     0.9261937 α      lambda       -0.3679697E-02
   maximum displ.:     0.6865584 α      in ANC's #55, #1, #39, ...

........................................................................
.............................. CYCLE   13 ..............................
........................................................................

 iter      E             dE          RMSdq      gap      omega  full diag
   1   -399.3565017 -0.399357E+03  0.701E-01    0.01       0.0  T
   2   -398.2681477  0.108835E+01  0.157E+00    0.38       1.0  T
   3   -399.1827757 -0.914628E+00  0.857E-01    0.09       1.0  T
   4   -399.3916022 -0.208827E+00  0.399E-01    0.04       1.0  T
   5   -399.3982694 -0.666712E-02  0.401E-01    0.04       1.0  T
   6   -399.4139532 -0.156838E-01  0.245E-01    0.02       1.0  T
   7   -399.4234788 -0.952562E-02  0.169E-01    0.03       1.0  T
   8   -399.4283589 -0.488007E-02  0.680E-02    0.02       1.0  T
   9   -399.4282067  0.152134E-03  0.474E-02    0.02       1.0  T
  10   -399.4288035 -0.596765E-03  0.268E-02    0.02       1.0  T
  11   -399.4287380  0.655033E-04  0.219E-02    0.02       1.0  T
  12   -399.4288807 -0.142705E-03  0.822E-03    0.02       1.0  T
  13   -399.4288820 -0.134225E-05  0.542E-03    0.02       1.2  T
  14   -399.4288745  0.753308E-05  0.693E-03    0.02       1.0  T
  15   -399.4288852 -0.106559E-04  0.357E-03    0.02       1.8  T
  16   -399.4288725  0.126383E-04  0.624E-03    0.02       1.0  T
  17   -399.4288894 -0.168391E-04  0.159E-03    0.02       4.0  T
  18   -399.4288886  0.807966E-06  0.168E-03    0.02       3.8  T
  19   -399.4288894 -0.876586E-06  0.843E-04    0.02       7.6  T
  20   -399.4288897 -0.261225E-06  0.301E-04    0.02      21.3  T
     SCC iter.                  ...        0 min,  1.897 sec
     gradient                   ...        0 min,  0.559 sec
 * total energy  :  -393.6326680 Eh     change       -0.9442835E-01 Eh
   gradient norm :     0.0505808 Eh/α   predicted    -0.3418060E-02 ( -96.38%)
   displ. norm   :     0.7510640 α      lambda       -0.4334165E-02
   maximum displ.:     0.5544779 α      in ANC's #55, #1, #39, ...

........................................................................
.............................. CYCLE   14 ..............................
........................................................................

 iter      E             dE          RMSdq      gap      omega  full diag
   1   -399.2384536 -0.399238E+03  0.707E-01    0.02       0.0  T
   2   -397.9269762  0.131148E+01  0.173E+00    0.30       1.0  T
   3   -399.1125303 -0.118555E+01  0.788E-01    0.03       1.0  T
   4   -399.2308569 -0.118327E+00  0.541E-01    0.05       1.0  T
   5   -399.2654357 -0.345788E-01  0.355E-01    0.03       1.0  T
   6   -399.2935359 -0.281002E-01  0.174E-01    0.02       1.0  T
   7   -399.2987828 -0.524688E-02  0.147E-01    0.03       1.0  T
   8   -399.2913801  0.740268E-02  0.197E-01    0.02       1.0  T
   9   -399.2995055 -0.812545E-02  0.124E-01    0.02       1.0  T
  10   -399.3016509 -0.214531E-02  0.742E-02    0.01       1.0  T
  11   -399.3026072 -0.956293E-03  0.419E-02    0.02       1.0  T
  12   -399.3025818  0.253226E-04  0.431E-02    0.02       1.0  T
  13   -399.3031711 -0.589246E-03  0.152E-02    0.02       1.0  T
  14   -399.3031983 -0.272446E-04  0.750E-03    0.02       1.0  T
  15   -399.3031250  0.733209E-04  0.140E-02    0.02       1.0  T
  16   -399.3031374 -0.124180E-04  0.133E-02    0.02       1.0  T
  17   -399.3031973 -0.599111E-04  0.514E-03    0.02       1.2  T
  18   -399.3032072 -0.989130E-05  0.116E-03    0.02       5.5  T
  19   -399.3032067  0.510071E-06  0.143E-03    0.02       4.5  T
  20   -399.3032075 -0.793933E-06  0.413E-04    0.02      15.6  T
  21   -399.3032072  0.262950E-06  0.880E-04    0.02       7.3  T
     SCC iter.                  ...        0 min,  2.021 sec
     gradient                   ...        0 min,  0.566 sec
 * total energy  :  -393.2759597 Eh     change        0.3567083E+00 Eh
   gradient norm :     0.1016756 Eh/α   predicted    -0.3389339E-02 (-100.95%)
   displ. norm   :     0.7564962 α      lambda       -0.4454163E-02
   maximum displ.:     0.5613290 α      in ANC's #55, #1, #39, ...

........................................................................
.............................. CYCLE   15 ..............................
........................................................................

 iter      E             dE          RMSdq      gap      omega  full diag
   1   -399.2368302 -0.399237E+03  0.649E-01    0.02       0.0  T
   2   -397.9439791  0.129285E+01  0.180E+00    0.10       1.0  T
   3   -399.1827946 -0.123882E+01  0.641E-01    0.07       1.0  T
   4   -399.2333944 -0.505998E-01  0.499E-01    0.08       1.0  T
   5   -399.2417003 -0.830584E-02  0.410E-01    0.04       1.0  T
   6   -399.2601197 -0.184194E-01  0.285E-01    0.03       1.0  T
   7   -399.2710691 -0.109494E-01  0.189E-01    0.02       1.0  T
   8   -399.2756445 -0.457544E-02  0.138E-01    0.02       1.0  T
   9   -399.2809962 -0.535167E-02  0.744E-02    0.02       1.0  T
  10   -399.2811369 -0.140731E-03  0.659E-02    0.02       1.0  T
  11   -399.2822268 -0.108986E-02  0.428E-02    0.02       1.0  T
  12   -399.2810322  0.119452E-02  0.627E-02    0.02       1.0  T
  13   -399.2824529 -0.142066E-02  0.190E-02    0.02       1.0  T
  14   -399.2824938 -0.408570E-04  0.161E-02    0.02       1.0  T
  15   -399.2825749 -0.811224E-04  0.859E-03    0.02       1.0  T
  16   -399.2826011 -0.261938E-04  0.301E-03    0.02       2.1  T
  17   -399.2825983  0.275328E-05  0.369E-03    0.02       1.7  T
  18   -399.2826040 -0.562894E-05  0.918E-04    0.02       7.0  T
  19   -399.2826034  0.571960E-06  0.139E-03    0.02       4.6  T
  20   -399.2826042 -0.855082E-06  0.203E-04    0.02      31.6  T
  21   -399.2826042 -0.122191E-08  0.143E-04    0.02      45.0  T
     SCC iter.                  ...        0 min,  2.022 sec
     gradient                   ...        0 min,  0.572 sec
 * total energy  :  -393.1073093 Eh     change        0.1686504E+00 Eh
   gradient norm :     0.1381509 Eh/α   predicted    -0.3501461E-02 (-102.08%)
   displ. norm   :     0.7429914 α      lambda       -0.5483600E-02
   maximum displ.:     0.5510117 α      in ANC's #55, #1, #39, ...

........................................................................
.............................. CYCLE   16 ..............................
........................................................................

 iter      E             dE          RMSdq      gap      omega  full diag
   1   -399.2531823 -0.399253E+03  0.415E-01    0.02       0.0  T
   2   -398.4784794  0.774703E+00  0.147E+00    0.05       1.0  T
   3   -399.2317278 -0.753248E+00  0.398E-01    0.04       1.0  T
   4   -399.2351337 -0.340599E-02  0.389E-01    0.07       1.0  T
   5   -399.2519802 -0.168464E-01  0.253E-01    0.02       1.0  T
   6   -399.2536028 -0.162266E-02  0.210E-01    0.02       1.0  T
   7   -399.2587439 -0.514107E-02  0.161E-01    0.02       1.0  T
   8   -399.2599600 -0.121612E-02  0.141E-01    0.02       1.0  T
   9   -399.2627692 -0.280919E-02  0.111E-01    0.02       1.0  T
  10   -399.2623855  0.383764E-03  0.112E-01    0.02       1.0  T
  11   -399.2640589 -0.167345E-02  0.912E-02    0.02       1.0  T
  12   -399.2646006 -0.541659E-03  0.789E-02    0.02       1.0  T
  13   -399.2659332 -0.133262E-02  0.437E-02    0.02       1.0  T
  14   -399.2662800 -0.346850E-03  0.228E-02    0.02       1.0  T
  15   -399.2663931 -0.113077E-03  0.144E-02    0.02       1.0  T
  16   -399.2664359 -0.428035E-04  0.629E-03    0.02       1.0  T
  17   -399.2664296  0.631205E-05  0.715E-03    0.02       1.0  T
  18   -399.2664408 -0.111773E-04  0.368E-03    0.02       1.7  T
  19   -399.2664442 -0.345728E-05  0.152E-03    0.02       4.2  T
  20   -399.2664449 -0.626653E-06  0.198E-04    0.02      32.5  T
  21   -399.2664449  0.204841E-08  0.188E-04    0.02      34.1  T
     SCC iter.                  ...        0 min,  2.029 sec
     gradient                   ...        0 min,  0.566 sec
 * total energy  :  -393.0813356 Eh     change        0.2597370E-01 Eh
   gradient norm :     0.1410167 Eh/α   predicted    -0.4255165E-02 (-116.38%)
   displ. norm   :     0.7511698 α      lambda       -0.1000376E-01
   maximum displ.:     0.5575755 α      in ANC's #55, #1, #39, ...

........................................................................
.............................. CYCLE   17 ..............................
........................................................................

 iter      E             dE          RMSdq      gap      omega  full diag
   1   -399.2217600 -0.399222E+03  0.430E-01    0.02       0.0  T
   2   -399.1506716  0.710884E-01  0.556E-01    0.01       1.0  T
   3   -399.1680174 -0.173458E-01  0.489E-01    0.01       1.0  T
   4   -398.7888636  0.379154E+00  0.104E+00    0.18       1.0  T
   5   -399.1588812 -0.370018E+00  0.462E-01    0.02       1.0  T
   6   -399.2163124 -0.574312E-01  0.216E-01    0.02       1.0  T
   7   -399.2225307 -0.621832E-02  0.170E-01    0.01       1.0  T
   8   -399.2253493 -0.281861E-02  0.135E-01    0.02       1.0  T
   9   -399.2298568 -0.450748E-02  0.804E-02    0.02       1.0  T
  10   -399.2311135 -0.125672E-02  0.470E-02    0.02       1.0  T
  11   -399.2290989  0.201460E-02  0.762E-02    0.02       1.0  T
  12   -399.2313386 -0.223972E-02  0.278E-02    0.02       1.0  T
  13   -399.2315369 -0.198322E-03  0.118E-02    0.02       1.0  T
  14   -399.2313377  0.199234E-03  0.242E-02    0.02       1.0  T
  15   -399.2315509 -0.213230E-03  0.940E-03    0.02       1.0  T
  16   -399.2315653 -0.143516E-04  0.742E-03    0.02       1.0  T
  17   -399.2315870 -0.216842E-04  0.148E-03    0.02       4.4  T
  18   -399.2315872 -0.276907E-06  0.123E-03    0.02       5.2  T
  19   -399.2315878 -0.540012E-06  0.381E-04    0.02      16.9  T
  20   -399.2315878 -0.428258E-08  0.328E-04    0.02      19.6  T
     SCC iter.                  ...        0 min,  1.943 sec
     gradient                   ...        0 min,  0.579 sec
 * total energy  :  -393.0219484 Eh     change        0.5938720E-01 Eh
   gradient norm :     0.1706394 Eh/α   predicted    -0.7823834E-02 (-113.17%)
   displ. norm   :     0.6765662 α      lambda       -0.1986373E-01
   maximum displ.:     0.5028431 α      in ANC's #55, #1, #39, ...

........................................................................
.............................. CYCLE   18 ..............................
........................................................................

 iter      E             dE          RMSdq      gap      omega  full diag
   1   -399.1674446 -0.399167E+03  0.503E-01    0.01       0.0  T
   2   -398.6777372  0.489707E+00  0.133E+00    0.01       1.0  T
   3   -399.1762746 -0.498537E+00  0.328E-01    0.02       1.0  T
   4   -398.9526445  0.223630E+00  0.855E-01    0.29       1.0  T
   5   -398.9048983  0.477461E-01  0.801E-01    0.07       1.0  T
   6   -399.1038048 -0.198906E+00  0.495E-01    0.00       1.0  T
   7   -399.1061568 -0.235198E-02  0.454E-01    0.05       1.0  T
   8   -399.1748503 -0.686935E-01  0.253E-01    0.01       1.0  T
   9   -399.1834486 -0.859825E-02  0.198E-01    0.01       1.0  T
  10   -399.1901437 -0.669511E-02  0.150E-01    0.02       1.0  T
  11   -399.1908188 -0.675122E-03  0.138E-01    0.01       1.0  T
  12   -399.1929577 -0.213887E-02  0.117E-01    0.01       1.0  T
  13   -399.1942561 -0.129842E-02  0.101E-01    0.01       1.0  T
  14   -399.1985658 -0.430975E-02  0.128E-02    0.01       1.0  T
  15   -399.1985258  0.400069E-04  0.168E-02    0.01       1.0  T
  16   -399.1985846 -0.588105E-04  0.912E-03    0.01       1.0  T
  17   -399.1986091 -0.244718E-04  0.429E-03    0.01       1.5  T
  18   -399.1986133 -0.415179E-05  0.123E-03    0.01       5.2  T
  19   -399.1986131  0.125237E-06  0.135E-03    0.01       4.8  T
  20   -399.1986136 -0.457073E-06  0.279E-04    0.01      23.1  T
  21   -399.1986136  0.578586E-08  0.306E-04    0.01      21.0  T
     SCC iter.                  ...        0 min,  2.051 sec
     gradient                   ...        0 min,  0.575 sec
 * total energy  :  -392.7942166 Eh     change        0.2277318E+00 Eh
   gradient norm :     0.2352659 Eh/α   predicted    -0.1447743E-01 (-106.36%)
   displ. norm   :     0.6410743 α      lambda       -0.2782614E-01
   maximum displ.:     0.4806141 α      in ANC's #55, #1, #39, ...

........................................................................
.............................. CYCLE   19 ..............................
........................................................................

 iter      E             dE          RMSdq      gap      omega  full diag
   1   -399.1178463 -0.399118E+03  0.709E-01    0.02       0.0  T
   2   -398.7525073  0.365339E+00  0.109E+00    0.53       1.0  T
   3   -398.5405017  0.212006E+00  0.123E+00    0.16       1.0  T
   4   -398.8960529 -0.355551E+00  0.849E-01    0.25       1.0  T
   5   -399.0200860 -0.124033E+00  0.648E-01    0.11       1.0  T
   6   -399.1260730 -0.105987E+00  0.431E-01    0.02       1.0  T
   7   -399.1309325 -0.485945E-02  0.361E-01    0.01       1.0  T
   8   -399.1432303 -0.122979E-01  0.309E-01    0.02       1.0  T
   9   -399.1464231 -0.319280E-02  0.284E-01    0.01       1.0  T
  10   -399.1518569 -0.543379E-02  0.208E-01    0.01       1.0  T
  11   -399.1615308 -0.967388E-02  0.136E-01    0.01       1.0  T
  12   -399.1679338 -0.640301E-02  0.741E-02    0.02       1.0  T
  13   -399.1688259 -0.892095E-03  0.530E-02    0.02       1.0  T
  14   -399.1672218  0.160409E-02  0.774E-02    0.00       1.0  T
  15   -399.1684918 -0.127002E-02  0.535E-02    0.02       1.0  T
  16   -399.1697169 -0.122511E-02  0.118E-02    0.02       1.0  T
  17   -399.1697171 -0.155588E-06  0.101E-02    0.02       1.0  T
  18   -399.1697585 -0.414182E-04  0.350E-03    0.02       1.8  T
  19   -399.1697587 -0.222045E-06  0.341E-03    0.02       1.9  T
  20   -399.1697611 -0.239097E-05  0.250E-03    0.02       2.6  T
  21   -399.1697628 -0.166791E-05  0.144E-03    0.02       4.5  T
  22   -399.1697637 -0.851436E-06  0.502E-04    0.02      12.8  T
  23   -399.1697632  0.462701E-06  0.129E-03    0.02       5.0  T
  24   -399.1697637 -0.543221E-06  0.230E-04    0.02      27.9  T
     SCC iter.                  ...        0 min,  2.344 sec
     gradient                   ...        0 min,  0.577 sec
 * total energy  :  -392.3290750 Eh     change        0.4651416E+00 Eh
   gradient norm :     0.3884489 Eh/α   predicted    -0.1963019E-01 (-104.22%)
   displ. norm   :     0.3652240 α      lambda       -0.4894756E-01
   maximum displ.:     0.2726302 α      in ANC's #55, #1, #5, ...

........................................................................
.............................. CYCLE   20 ..............................
........................................................................

 iter      E             dE          RMSdq      gap      omega  full diag
   1   -399.1007389 -0.399101E+03  0.499E-01    0.02       0.0  T
   2   -398.7782826  0.322456E+00  0.101E+00    0.36       1.0  T
   3   -398.1440097  0.634273E+00  0.167E+00    0.05       1.0  T
   4   -399.1071344 -0.963125E+00  0.413E-01    0.03       1.0  T
   5   -399.1346800 -0.275456E-01  0.291E-01    0.01       1.0  T
   6   -399.1024409  0.322391E-01  0.382E-01    0.04       1.0  T
   7   -399.1229966 -0.205557E-01  0.318E-01    0.00       1.0  T
   8   -399.1490556 -0.260591E-01  0.198E-01    0.02       1.0  T
   9   -399.1566457 -0.759006E-02  0.115E-01    0.02       1.0  T
  10   -399.1576382 -0.992467E-03  0.954E-02    0.01       1.0  T
  11   -399.1577691 -0.130915E-03  0.740E-02    0.02       1.0  T
  12   -399.1595433 -0.177427E-02  0.351E-02    0.02       1.0  T
  13   -399.1594885  0.548684E-04  0.305E-02    0.02       1.0  T
  14   -399.1598762 -0.387738E-03  0.688E-03    0.02       1.0  T
  15   -399.1598607  0.154689E-04  0.882E-03    0.02       1.0  T
  16   -399.1598830 -0.222174E-04  0.524E-03    0.02       1.2  T
  17   -399.1598917 -0.875532E-05  0.145E-03    0.02       4.4  T
  18   -399.1598914  0.302275E-06  0.160E-03    0.02       4.0  T
  19   -399.1598924 -0.966711E-06  0.368E-04    0.02      17.5  T
  20   -399.1598924 -0.259534E-07  0.205E-04    0.02      31.3  T
     SCC iter.                  ...        0 min,  1.975 sec
     gradient                   ...        0 min,  0.568 sec
 * total energy  :  -391.9957519 Eh     change        0.3333231E+00 Eh
   gradient norm :     0.4646504 Eh/α   predicted    -0.2773793E-01 (-108.32%)
   displ. norm   :     0.2384293 α      lambda       -0.6087029E-01
   maximum displ.:     0.1622175 α      in ANC's #55, #71, #1, ...
 * RMSD in coord.:     0.5479971 α      energy gain   0.2743274E+01 Eh

generating ANC from exact Hessian ...
Using Lindh-Hessian (1995)
 Shifting diagonal of input Hessian by    1.0084683052330795E-002
 Lowest  eigenvalues of input Hessian
    0.010000    0.010056    0.000000    0.010065    0.010067    0.000000
    0.000000    0.000000    0.000000    0.000000    0.010103    0.010113
    0.010116    0.010132    0.010148    0.010162    0.010184    0.010194
 Highest eigenvalues
    3.421611    3.582666    3.652942    4.475610    4.763903    6.142745


........................................................................
.............................. CYCLE   21 ..............................
........................................................................

 iter      E             dE          RMSdq      gap      omega  full diag
   1   -399.1310003 -0.399131E+03  0.310E-01    0.02       0.0  T
   2   -399.0279798  0.103021E+00  0.606E-01    0.03       1.0  T
   3   -399.1006911 -0.727113E-01  0.415E-01    0.05       1.0  T
   4   -399.1170668 -0.163758E-01  0.301E-01    0.02       1.0  T
   5   -399.1356941 -0.186272E-01  0.216E-01    0.04       1.0  T
   6   -399.1508793 -0.151852E-01  0.108E-01    0.01       1.0  T
   7   -399.1487429  0.213639E-02  0.104E-01    0.02       1.0  T
   8   -399.1507363 -0.199336E-02  0.783E-02    0.02       1.0  T
   9   -399.1523152 -0.157890E-02  0.393E-02    0.02       1.0  T
  10   -399.1521089  0.206299E-03  0.423E-02    0.02       1.0  T
  11   -399.1525083 -0.399490E-03  0.233E-02    0.02       1.0  T
  12   -399.1526380 -0.129607E-03  0.110E-02    0.02       1.0  T
  13   -399.1526753 -0.373358E-04  0.501E-03    0.02       1.3  T
  14   -399.1526823 -0.699708E-05  0.168E-03    0.02       3.8  T
  15   -399.1526822  0.107019E-06  0.153E-03    0.02       4.2  T
  16   -399.1526827 -0.486814E-06  0.898E-04    0.02       7.2  T
  17   -399.1526829 -0.213585E-06  0.259E-04    0.02      24.8  T
     SCC iter.                  ...        0 min,  1.698 sec
     gradient                   ...        0 min,  0.567 sec
 * total energy  :  -391.8142393 Eh     change        0.1815126E+00 Eh
   gradient norm :     0.7552058 Eh/α   predicted     0.0000000E+00 (-100.00%)
   displ. norm   :     0.2334097 α      lambda       -0.1711624E+00
   maximum displ.:     0.1400761 α      in ANC's #70, #77, #36, ...

........................................................................
.............................. CYCLE   22 ..............................
........................................................................

 iter      E             dE          RMSdq      gap      omega  full diag
   1   -399.1350952 -0.399135E+03  0.296E-01    0.02       0.0  T
   2   -398.2649913  0.870104E+00  0.149E+00    0.05       1.0  T
   3   -399.0735030 -0.808512E+00  0.513E-01    0.04       1.0  T
   4   -399.0697046  0.379836E-02  0.511E-01    0.07       1.0  T
   5   -399.1601284 -0.904237E-01  0.172E-01    0.02       1.0  T
   6   -399.1667491 -0.662074E-02  0.991E-02    0.02       1.0  T
   7   -399.1660746  0.674539E-03  0.118E-01    0.02       1.0  T
   8   -399.1686442 -0.256961E-02  0.540E-02    0.02       1.0  T
   9   -399.1682392  0.404937E-03  0.619E-02    0.02       1.0  T
  10   -399.1693630 -0.112372E-02  0.217E-02    0.02       1.0  T
  11   -399.1694043 -0.412993E-04  0.139E-02    0.02       1.0  T
  12   -399.1694525 -0.482548E-04  0.488E-03    0.02       1.3  T
  13   -399.1694574 -0.492900E-05  0.295E-03    0.02       2.2  T
  14   -399.1694594 -0.200254E-05  0.140E-03    0.02       4.6  T
  15   -399.1694598 -0.357379E-06  0.887E-04    0.02       7.2  T
  16   -399.1694600 -0.188711E-06  0.468E-04    0.02      13.7  T
     SCC iter.                  ...        0 min,  1.571 sec
     gradient                   ...        0 min,  0.570 sec
 * total energy  :  -391.9709744 Eh     change       -0.1567351E+00 Eh
   gradient norm :     0.3195466 Eh/α   predicted    -0.9024383E-01 ( -42.42%)
   displ. norm   :     0.1625964 α      lambda       -0.5061357E-01
   maximum displ.:     0.0795500 α      in ANC's #70, #72, #75, ...

........................................................................
.............................. CYCLE   23 ..............................
........................................................................

 iter      E             dE          RMSdq      gap      omega  full diag
   1   -399.1621603 -0.399162E+03  0.173E-01    0.02       0.0  T
   2   -398.6340233  0.528137E+00  0.108E+00    0.01       1.0  T
   3   -399.0647761 -0.430753E+00  0.523E-01    0.08       1.0  T
   4   -399.1648921 -0.100116E+00  0.184E-01    0.03       1.0  T
   5   -399.1737461 -0.885400E-02  0.778E-02    0.02       1.0  T
   6   -399.1749192 -0.117310E-02  0.465E-02    0.03       1.0  T
   7   -399.1732964  0.162283E-02  0.803E-02    0.02       1.0  T
   8   -399.1747371 -0.144077E-02  0.417E-02    0.02       1.0  T
   9   -399.1751881 -0.450935E-03  0.225E-02    0.02       1.0  T
  10   -399.1752817 -0.936238E-04  0.111E-02    0.02       1.0  T
  11   -399.1753147 -0.329598E-04  0.452E-03    0.02       1.4  T
  12   -399.1753150 -0.375204E-06  0.382E-03    0.02       1.7  T
  13   -399.1753175 -0.247832E-05  0.276E-03    0.02       2.3  T
  14   -399.1753197 -0.220649E-05  0.107E-03    0.02       6.0  T
  15   -399.1753200 -0.323170E-06  0.439E-04    0.02      14.6  T
  16   -399.1753201 -0.234264E-07  0.312E-04    0.02      20.6  T
     SCC iter.                  ...        0 min,  1.582 sec
     gradient                   ...        0 min,  0.580 sec
 * total energy  :  -392.0236026 Eh     change       -0.5262828E-01 Eh
   gradient norm :     0.1466176 Eh/α   predicted    -0.2597641E-01 ( -50.64%)
   displ. norm   :     0.1162174 α      lambda       -0.1605752E-01
   maximum displ.:     0.0721456 α      in ANC's #72, #79, #75, ...

........................................................................
.............................. CYCLE   24 ..............................
........................................................................

 iter      E             dE          RMSdq      gap      omega  full diag
   1   -399.1700652 -0.399170E+03  0.102E-01    0.02       0.0  T
   2   -398.7797991  0.390266E+00  0.895E-01    0.05       1.0  T
   3   -399.1139403 -0.334141E+00  0.387E-01    0.05       1.0  T
   4   -399.1700426 -0.561023E-01  0.117E-01    0.03       1.0  T
   5   -399.1717560 -0.171343E-02  0.913E-02    0.03       1.0  T
   6   -399.1739565 -0.220046E-02  0.476E-02    0.02       1.0  T
   7   -399.1741533 -0.196791E-03  0.415E-02    0.02       1.0  T
   8   -399.1741938 -0.405434E-04  0.318E-02    0.02       1.0  T
   9   -399.1745107 -0.316826E-03  0.160E-02    0.02       1.0  T
  10   -399.1745698 -0.591416E-04  0.925E-03    0.02       1.0  T
  11   -399.1745984 -0.286054E-04  0.552E-03    0.02       1.2  T
  12   -399.1746015 -0.313084E-05  0.406E-03    0.02       1.6  T
  13   -399.1746050 -0.342417E-05  0.281E-03    0.02       2.3  T
  14   -399.1746070 -0.207705E-05  0.132E-03    0.02       4.9  T
  15   -399.1746076 -0.514750E-06  0.420E-04    0.02      15.3  T
  16   -399.1746076 -0.468404E-07  0.145E-04    0.02      44.3  T
     SCC iter.                  ...        0 min,  1.571 sec
     gradient                   ...        0 min,  0.591 sec
 * total energy  :  -392.0415125 Eh     change       -0.1790988E-01 Eh
   gradient norm :     0.1072952 Eh/α   predicted    -0.8144731E-02 ( -54.52%)
   displ. norm   :     0.1332073 α      lambda       -0.1166071E-01
   maximum displ.:     0.0916872 α      in ANC's #72, #79, #75, ...

........................................................................
.............................. CYCLE   25 ..............................
........................................................................

 iter      E             dE          RMSdq      gap      omega  full diag
   1   -399.1669348 -0.399167E+03  0.944E-02    0.02       0.0  T
   2   -398.8287272  0.338208E+00  0.832E-01    0.07       1.0  T
   3   -399.1506456 -0.321918E+00  0.225E-01    0.01       1.0  T
   4   -399.1640413 -0.133957E-01  0.128E-01    0.03       1.0  T
   5   -399.1657665 -0.172521E-02  0.110E-01    0.03       1.0  T
   6   -399.1690334 -0.326687E-02  0.538E-02    0.02       1.0  T
   7   -399.1691991 -0.165710E-03  0.505E-02    0.02       1.0  T
   8   -399.1691996 -0.517647E-06  0.401E-02    0.02       1.0  T
   9   -399.1698150 -0.615369E-03  0.139E-02    0.02       1.0  T
  10   -399.1698817 -0.666838E-04  0.552E-03    0.02       1.2  T
  11   -399.1698848 -0.306782E-05  0.461E-03    0.02       1.4  T
  12   -399.1698918 -0.706673E-05  0.230E-03    0.02       2.8  T
  13   -399.1698923 -0.454213E-06  0.192E-03    0.02       3.3  T
  14   -399.1698921  0.168162E-06  0.160E-03    0.02       4.0  T
  15   -399.1698930 -0.939585E-06  0.407E-04    0.02      15.8  T
  16   -399.1698931 -0.443463E-07  0.134E-04    0.02      47.9  T
     SCC iter.                  ...        0 min,  1.584 sec
     gradient                   ...        0 min,  0.591 sec
 * total energy  :  -392.0541694 Eh     change       -0.1265691E-01 Eh
   gradient norm :     0.1036483 Eh/α   predicted    -0.5933846E-02 ( -53.12%)
   displ. norm   :     0.1681431 α      lambda       -0.1124946E-01
   maximum displ.:     0.1143515 α      in ANC's #72, #79, #15, ...

........................................................................
.............................. CYCLE   26 ..............................
........................................................................

 iter      E             dE          RMSdq      gap      omega  full diag
   1   -399.1590540 -0.399159E+03  0.113E-01    0.02       0.0  T
   2   -398.8508061  0.308248E+00  0.809E-01    0.06       1.0  T
   3   -399.1572646 -0.306458E+00  0.132E-01    0.02       1.0  T
   4   -399.1577610 -0.496440E-03  0.118E-01    0.03       1.0  T
   5   -399.1496523  0.810869E-02  0.169E-01    0.01       1.0  T
   6   -399.1584791 -0.882682E-02  0.933E-02    0.03       1.0  T
   7   -399.1599348 -0.145564E-02  0.645E-02    0.03       1.0  T
   8   -399.1610611 -0.112634E-02  0.392E-02    0.03       1.0  T
   9   -399.1613447 -0.283562E-03  0.288E-02    0.02       1.0  T
  10   -399.1615968 -0.252163E-03  0.166E-02    0.02       1.0  T
  11   -399.1616898 -0.929743E-04  0.568E-03    0.02       1.1  T
  12   -399.1616806  0.924228E-05  0.664E-03    0.02       1.0  T
  13   -399.1616962 -0.156592E-04  0.261E-03    0.02       2.5  T
  14   -399.1616978 -0.155583E-05  0.162E-03    0.02       4.0  T
  15   -399.1616984 -0.582856E-06  0.831E-04    0.02       7.7  T
  16   -399.1616986 -0.265631E-06  0.357E-04    0.02      18.0  T
     SCC iter.                  ...        0 min,  1.620 sec
     gradient                   ...        0 min,  0.588 sec
 * total energy  :  -392.0723805 Eh     change       -0.1821111E-01 Eh
   gradient norm :     0.1095765 Eh/α   predicted    -0.5784096E-02 ( -68.24%)
   displ. norm   :     0.2010878 α      lambda       -0.1192570E-01
   maximum displ.:     0.1280160 α      in ANC's #72, #36, #15, ...

........................................................................
.............................. CYCLE   27 ..............................
........................................................................

 iter      E             dE          RMSdq      gap      omega  full diag
   1   -399.1506382 -0.399151E+03  0.133E-01    0.02       0.0  T
   2   -398.9583641  0.192274E+00  0.668E-01    0.03       1.0  T
   3   -399.1481130 -0.189749E+00  0.143E-01    0.02       1.0  T
   4   -399.1457906  0.232242E-02  0.141E-01    0.02       1.0  T
   5   -399.1458657 -0.750950E-04  0.150E-01    0.03       1.0  T
   6   -399.1519495 -0.608386E-02  0.558E-02    0.02       1.0  T
   7   -399.1526678 -0.718244E-03  0.270E-02    0.02       1.0  T
   8   -399.1527779 -0.110151E-03  0.192E-02    0.02       1.0  T
   9   -399.1528202 -0.422480E-04  0.141E-02    0.02       1.0  T
  10   -399.1527666  0.535437E-04  0.163E-02    0.02       1.0  T
  11   -399.1528641 -0.975025E-04  0.461E-03    0.02       1.4  T
  12   -399.1528706 -0.643221E-05  0.265E-03    0.02       2.4  T
  13   -399.1528709 -0.354276E-06  0.197E-03    0.02       3.3  T
  14   -399.1528717 -0.751936E-06  0.131E-03    0.02       4.9  T
  15   -399.1528721 -0.415707E-06  0.729E-04    0.02       8.8  T
  16   -399.1528722 -0.143279E-06  0.166E-04    0.02      38.7  T
     SCC iter.                  ...        0 min,  1.603 sec
     gradient                   ...        0 min,  0.587 sec
 * total energy  :  -392.1049289 Eh     change       -0.3254833E-01 Eh
   gradient norm :     0.1115836 Eh/α   predicted    -0.6203984E-02 ( -80.94%)
   displ. norm   :     0.2055314 α      lambda       -0.1239643E-01
   maximum displ.:     0.1143843 α      in ANC's #72, #36, #70, ...

........................................................................
.............................. CYCLE   28 ..............................
........................................................................

 iter      E             dE          RMSdq      gap      omega  full diag
   1   -399.1473608 -0.399147E+03  0.135E-01    0.02       0.0  T
   2   -399.1200849  0.272759E-01  0.286E-01    0.05       1.0  T
   3   -399.1388785 -0.187936E-01  0.180E-01    0.01       1.0  T
   4   -399.1446723 -0.579386E-02  0.131E-01    0.03       1.0  T
   5   -399.1358300  0.884235E-02  0.175E-01    0.02       1.0  T
   6   -399.1463153 -0.104853E-01  0.829E-02    0.02       1.0  T
   7   -399.1480918 -0.177649E-02  0.417E-02    0.02       1.0  T
   8   -399.1482501 -0.158289E-03  0.308E-02    0.02       1.0  T
   9   -399.1483365 -0.864410E-04  0.278E-02    0.02       1.0  T
  10   -399.1483780 -0.414743E-04  0.241E-02    0.02       1.0  T
  11   -399.1484890 -0.110989E-03  0.152E-02    0.02       1.0  T
  12   -399.1485141 -0.251528E-04  0.792E-03    0.03       1.0  T
  13   -399.1485326 -0.184844E-04  0.266E-03    0.03       2.4  T
  14   -399.1485351 -0.253119E-05  0.552E-04    0.03      11.6  T
  15   -399.1485352 -0.394024E-07  0.335E-04    0.03      19.2  T
  16   -399.1485352 -0.924894E-08  0.184E-04    0.03      34.9  T
     SCC iter.                  ...        0 min,  1.617 sec
     gradient                   ...        0 min,  0.594 sec
 * total energy  :  -392.1460598 Eh     change       -0.4113095E-01 Eh
   gradient norm :     0.1134015 Eh/α   predicted    -0.6460118E-02 ( -84.29%)
   displ. norm   :     0.2200316 α      lambda       -0.1545449E-01
   maximum displ.:     0.1060900 α      in ANC's #36, #70, #72, ...

........................................................................
.............................. CYCLE   29 ..............................
........................................................................

 iter      E             dE          RMSdq      gap      omega  full diag
   1   -399.1491280 -0.399149E+03  0.141E-01    0.03       0.0  T
   2   -399.1463823  0.274564E-02  0.130E-01    0.04       1.0  T
   3   -399.1316031  0.147793E-01  0.227E-01    0.01       1.0  T
   4   -399.0441759  0.874271E-01  0.541E-01    0.05       1.0  T
   5   -399.1424350 -0.982591E-01  0.168E-01    0.02       1.0  T
   6   -399.1488395 -0.640443E-02  0.564E-02    0.03       1.0  T
   7   -399.1493086 -0.469136E-03  0.383E-02    0.03       1.0  T
   8   -399.1496996 -0.390965E-03  0.254E-02    0.03       1.0  T
   9   -399.1497688 -0.692280E-04  0.197E-02    0.03       1.0  T
  10   -399.1497591  0.965010E-05  0.208E-02    0.03       1.0  T
  11   -399.1498048 -0.456965E-04  0.155E-02    0.03       1.0  T
  12   -399.1497982  0.660084E-05  0.142E-02    0.03       1.0  T
  13   -399.1498551 -0.568411E-04  0.765E-03    0.03       1.0  T
  14   -399.1498655 -0.104622E-04  0.502E-03    0.03       1.3  T
  15   -399.1498709 -0.536903E-05  0.312E-03    0.03       2.1  T
  16   -399.1498725 -0.156465E-05  0.195E-03    0.03       3.3  T
  17   -399.1498734 -0.883183E-06  0.108E-03    0.03       6.0  T
  18   -399.1498737 -0.302950E-06  0.563E-04    0.03      11.4  T
  19   -399.1498737 -0.837469E-07  0.257E-04    0.03      25.0  T
     SCC iter.                  ...        0 min,  1.925 sec
     gradient                   ...        0 min,  0.590 sec
 * total energy  :  -392.1852844 Eh     change       -0.3922461E-01 Eh
   gradient norm :     0.1093122 Eh/α   predicted    -0.8101368E-02 ( -79.35%)
   displ. norm   :     0.1908817 α      lambda       -0.1475711E-01
   maximum displ.:     0.0890984 α      in ANC's #77, #70, #60, ...

........................................................................
.............................. CYCLE   30 ..............................
........................................................................

 iter      E             dE          RMSdq      gap      omega  full diag
   1   -399.1532748 -0.399153E+03  0.110E-01    0.03       0.0  T
   2   -399.1498918  0.338303E-02  0.122E-01    0.02       1.0  T
   3   -399.1206101  0.292817E-01  0.310E-01    0.04       1.0  T
   4   -399.1339113 -0.133012E-01  0.225E-01    0.02       1.0  T
   5   -399.1513588 -0.174475E-01  0.985E-02    0.04       1.0  T
   6   -399.1531952 -0.183639E-02  0.559E-02    0.02       1.0  T
   7   -399.1535011 -0.305902E-03  0.372E-02    0.03       1.0  T
   8   -399.1537124 -0.211230E-03  0.266E-02    0.03       1.0  T
   9   -399.1537782 -0.658257E-04  0.224E-02    0.03       1.0  T
  10   -399.1538209 -0.427508E-04  0.188E-02    0.03       1.0  T
  11   -399.1538885 -0.675457E-04  0.108E-02    0.03       1.0  T
  12   -399.1539223 -0.337904E-04  0.395E-03    0.03       1.6  T
  13   -399.1539253 -0.298689E-05  0.209E-03    0.03       3.1  T
  14   -399.1539264 -0.112867E-05  0.121E-03    0.03       5.3  T
  15   -399.1539268 -0.398458E-06  0.454E-04    0.03      14.2  T
  16   -399.1539268 -0.433886E-07  0.190E-04    0.03      33.8  T
     SCC iter.                  ...        0 min,  1.630 sec
     gradient                   ...        0 min,  0.597 sec
 * total energy  :  -392.1972147 Eh     change       -0.1193030E-01 Eh
   gradient norm :     0.0830627 Eh/α   predicted    -0.7647410E-02 ( -35.90%)
   displ. norm   :     0.1234163 α      lambda       -0.6694783E-02
   maximum displ.:     0.0775202 α      in ANC's #15, #72, #36, ...

........................................................................
.............................. CYCLE   31 ..............................
........................................................................

 iter      E             dE          RMSdq      gap      omega  full diag
   1   -399.1574313 -0.399157E+03  0.729E-02    0.03       0.0  T
   2   -399.1563401  0.109121E-02  0.830E-02    0.02       1.0  T
   3   -399.1476798  0.866034E-02  0.176E-01    0.04       1.0  T
   4   -399.1571007 -0.942092E-02  0.626E-02    0.02       1.0  T
   5   -399.1575961 -0.495432E-03  0.508E-02    0.02       1.0  T
   6   -399.1578552 -0.259108E-03  0.336E-02    0.03       1.0  T
   7   -399.1580549 -0.199670E-03  0.166E-02    0.03       1.0  T
   8   -399.1581201 -0.651477E-04  0.846E-03    0.03       1.0  T
   9   -399.1581274 -0.738140E-05  0.603E-03    0.03       1.1  T
  10   -399.1581322 -0.470317E-05  0.446E-03    0.03       1.4  T
  11   -399.1581362 -0.403684E-05  0.245E-03    0.03       2.6  T
  12   -399.1581377 -0.147107E-05  0.939E-04    0.03       6.8  T
  13   -399.1581379 -0.202589E-06  0.462E-04    0.03      13.9  T
  14   -399.1581379 -0.565096E-07  0.244E-04    0.03      26.3  T
     SCC iter.                  ...        0 min,  1.413 sec
     gradient                   ...        0 min,  0.697 sec
 * total energy  :  -392.1812851 Eh     change        0.1592960E-01 Eh
   gradient norm :     0.0552605 Eh/α   predicted    -0.3399417E-02 (-121.34%)
   displ. norm   :     0.0854748 α      lambda       -0.3033897E-02
   maximum displ.:     0.0521842 α      in ANC's #36, #15, #72, ...

........................................................................
.............................. CYCLE   32 ..............................
........................................................................

 iter      E             dE          RMSdq      gap      omega  full diag
   1   -399.1594638 -0.399159E+03  0.532E-02    0.03       0.0  T
   2   -399.1585615  0.902305E-03  0.683E-02    0.02       1.0  T
   3   -399.1556922  0.286926E-02  0.112E-01    0.04       1.0  T
   4   -399.1589791 -0.328687E-02  0.529E-02    0.02       1.0  T
   5   -399.1592034 -0.224349E-03  0.461E-02    0.03       1.0  T
   6   -399.1595704 -0.366972E-03  0.275E-02    0.03       1.0  T
   7   -399.1597104 -0.139995E-03  0.141E-02    0.03       1.0  T
   8   -399.1597597 -0.493041E-04  0.641E-03    0.03       1.0  T
   9   -399.1597688 -0.912759E-05  0.393E-03    0.03       1.6  T
  10   -399.1597698 -0.101251E-05  0.317E-03    0.03       2.0  T
  11   -399.1597723 -0.251665E-05  0.111E-03    0.03       5.8  T
  12   -399.1597725 -0.162249E-06  0.862E-04    0.03       7.5  T
  13   -399.1597726 -0.128257E-06  0.434E-04    0.03      14.8  T
     SCC iter.                  ...        0 min,  1.349 sec
     gradient                   ...        0 min,  0.621 sec
 * total energy  :  -392.1713774 Eh     change        0.9907765E-02 Eh
   gradient norm :     0.0354817 Eh/α   predicted    -0.1528236E-02 (-115.42%)
   displ. norm   :     0.0362405 α      lambda       -0.1001665E-02
   maximum displ.:     0.0191094 α      in ANC's #15, #70, #72, ...

........................................................................
.............................. CYCLE   33 ..............................
........................................................................

 iter      E             dE          RMSdq      gap      omega  full diag
   1   -399.1587109 -0.399159E+03  0.261E-02    0.03       0.0  T
   2   -399.1582768  0.434132E-03  0.393E-02    0.02       1.0  T
   3   -399.1575538  0.723024E-03  0.605E-02    0.03       1.0  T
   4   -399.1582442 -0.690443E-03  0.387E-02    0.02       1.0  T
   5   -399.1587138 -0.469565E-03  0.149E-02    0.03       1.0  T
   6   -399.1587229 -0.911098E-05  0.144E-02    0.03       1.0  T
   7   -399.1587669 -0.439485E-04  0.392E-03    0.03       1.6  T
   8   -399.1587698 -0.295167E-05  0.249E-03    0.03       2.6  T
   9   -399.1587714 -0.155864E-05  0.130E-03    0.03       4.9  T
  10   -399.1587715 -0.148197E-06  0.867E-04    0.03       7.4  T
  11   -399.1587716 -0.114409E-06  0.353E-04    0.03      18.2  T
     SCC iter.                  ...        0 min,  1.144 sec
     gradient                   ...        0 min,  0.593 sec
 * total energy  :  -392.1758286 Eh     change       -0.4451241E-02 Eh
   gradient norm :     0.0324128 Eh/α   predicted    -0.5015745E-03 ( -88.73%)
   displ. norm   :     0.2142379 α      lambda       -0.4944513E-02
   maximum displ.:     0.1152570 α      in ANC's #72, #70, #60, ...

........................................................................
.............................. CYCLE   34 ..............................
........................................................................

 iter      E             dE          RMSdq      gap      omega  full diag
   1   -399.1474641 -0.399147E+03  0.156E-01    0.03       0.0  T
   2   -399.1381897  0.927440E-02  0.188E-01    0.02       1.0  T
   3   -399.0771040  0.610857E-01  0.462E-01    0.06       1.0  T
   4   -399.0961422 -0.190383E-01  0.350E-01    0.01       1.0  T
   5   -399.1442238 -0.480816E-01  0.150E-01    0.04       1.0  T
   6   -399.1482927 -0.406883E-02  0.749E-02    0.02       1.0  T
   7   -399.1483476 -0.549649E-04  0.604E-02    0.03       1.0  T
   8   -399.1489597 -0.612120E-03  0.446E-02    0.03       1.0  T
   9   -399.1491157 -0.155956E-03  0.366E-02    0.03       1.0  T
  10   -399.1492773 -0.161589E-03  0.284E-02    0.03       1.0  T
  11   -399.1494413 -0.164015E-03  0.142E-02    0.03       1.0  T
  12   -399.1494716 -0.303020E-04  0.117E-02    0.03       1.0  T
  13   -399.1495008 -0.292364E-04  0.628E-03    0.03       1.0  T
  14   -399.1495098 -0.891748E-05  0.336E-03    0.03       1.9  T
  15   -399.1495134 -0.361043E-05  0.121E-03    0.03       5.3  T
  16   -399.1495137 -0.353795E-06  0.525E-04    0.03      12.2  T
  17   -399.1495138 -0.677566E-07  0.182E-04    0.03      35.3  T
     SCC iter.                  ...        0 min,  1.767 sec
     gradient                   ...        0 min,  0.598 sec
 * total energy  :  -392.2047018 Eh     change       -0.2887318E-01 Eh
   gradient norm :     0.0351104 Eh/α   predicted    -0.2585731E-02 ( -91.04%)
   displ. norm   :     0.0942680 α      lambda       -0.1175946E-02
   maximum displ.:     0.0629207 α      in ANC's #72, #79, #70, ...

........................................................................
.............................. CYCLE   35 ..............................
........................................................................

 iter      E             dE          RMSdq      gap      omega  full diag
   1   -399.1428590 -0.399143E+03  0.733E-02    0.03       0.0  T
   2   -399.1402079  0.265112E-02  0.948E-02    0.02       1.0  T
   3   -399.1264250  0.137829E-01  0.222E-01    0.04       1.0  T
   4   -399.1393839 -0.129588E-01  0.104E-01    0.02       1.0  T
   5   -399.1424513 -0.306744E-02  0.572E-02    0.03       1.0  T
   6   -399.1431823 -0.730969E-03  0.297E-02    0.02       1.0  T
   7   -399.1431582  0.240084E-04  0.243E-02    0.03       1.0  T
   8   -399.1432705 -0.112272E-03  0.151E-02    0.03       1.0  T
   9   -399.1433227 -0.521317E-04  0.883E-03    0.03       1.0  T
  10   -399.1433367 -0.140396E-04  0.442E-03    0.03       1.5  T
  11   -399.1433425 -0.580803E-05  0.154E-03    0.03       4.2  T
  12   -399.1433426 -0.133038E-06  0.123E-03    0.03       5.2  T
  13   -399.1433429 -0.252978E-06  0.613E-04    0.03      10.5  T
  14   -399.1433429  0.102859E-07  0.560E-04    0.03      11.5  T
     SCC iter.                  ...        0 min,  1.450 sec
     gradient                   ...        0 min,  0.602 sec
 * total energy  :  -392.2170644 Eh     change       -0.1236263E-01 Eh
   gradient norm :     0.0385378 Eh/α   predicted    -0.5932193E-03 ( -95.20%)
   displ. norm   :     0.1810900 α      lambda       -0.2341539E-02
   maximum displ.:     0.1254018 α      in ANC's #72, #79, #70, ...

........................................................................
.............................. CYCLE   36 ..............................
........................................................................

 iter      E             dE          RMSdq      gap      omega  full diag
   1   -399.1276830 -0.399128E+03  0.155E-01    0.03       0.0  T
   2   -399.1172830  0.104000E-01  0.194E-01    0.01       1.0  T
   3   -399.0503453  0.669377E-01  0.481E-01    0.06       1.0  T
   4   -399.1130879 -0.627426E-01  0.212E-01    0.02       1.0  T
   5   -399.1241458 -0.110578E-01  0.148E-01    0.04       1.0  T
   6   -399.1289258 -0.478006E-02  0.801E-02    0.02       1.0  T
   7   -399.1292471 -0.321282E-03  0.603E-02    0.03       1.0  T
   8   -399.1297287 -0.481592E-03  0.475E-02    0.02       1.0  T
   9   -399.1299120 -0.183271E-03  0.397E-02    0.03       1.0  T
  10   -399.1301950 -0.283014E-03  0.249E-02    0.03       1.0  T
  11   -399.1303118 -0.116810E-03  0.153E-02    0.03       1.0  T
  12   -399.1303639 -0.521138E-04  0.894E-03    0.03       1.0  T
  13   -399.1303719 -0.803118E-05  0.751E-03    0.03       1.0  T
  14   -399.1303843 -0.123409E-04  0.387E-03    0.03       1.7  T
  15   -399.1303886 -0.427869E-05  0.115E-03    0.03       5.6  T
  16   -399.1303888 -0.246043E-06  0.537E-04    0.03      12.0  T
  17   -399.1303889 -0.476410E-07  0.266E-04    0.03      24.2  T
     SCC iter.                  ...        0 min,  1.743 sec
     gradient                   ...        0 min,  0.610 sec
 * total energy  :  -392.2356745 Eh     change       -0.1861011E-01 Eh
   gradient norm :     0.0470866 Eh/α   predicted    -0.1209198E-02 ( -93.50%)
   displ. norm   :     0.3624402 α      lambda       -0.4805194E-02
   maximum displ.:     0.2513281 α      in ANC's #72, #79, #70, ...

........................................................................
.............................. CYCLE   37 ..............................
........................................................................

 iter      E             dE          RMSdq      gap      omega  full diag
   1   -399.0852757 -0.399085E+03  0.361E-01    0.03       0.0  T
   2   -399.0206559  0.646198E-01  0.513E-01    0.01       1.0  T
   3   -399.0784919 -0.578360E-01  0.308E-01    0.06       1.0  T
   4   -398.9391905  0.139301E+00  0.638E-01    0.12       1.0  T
   5   -399.0945313 -0.155341E+00  0.219E-01    0.01       1.0  T
   6   -399.1029311 -0.839976E-02  0.955E-02    0.02       1.0  T
   7   -399.1000922  0.283887E-02  0.113E-01    0.02       1.0  T
   8   -399.1037592 -0.366695E-02  0.690E-02    0.03       1.0  T
   9   -399.1045612 -0.801988E-03  0.346E-02    0.03       1.0  T
  10   -399.1044163  0.144828E-03  0.347E-02    0.03       1.0  T
  11   -399.1045118 -0.954564E-04  0.266E-02    0.03       1.0  T
  12   -399.1046524 -0.140564E-03  0.130E-02    0.03       1.0  T
  13   -399.1046812 -0.288325E-04  0.823E-03    0.03       1.0  T
  14   -399.1046968 -0.156217E-04  0.404E-03    0.03       1.6  T
  15   -399.1046990 -0.221676E-05  0.272E-03    0.03       2.4  T
  16   -399.1047004 -0.137584E-05  0.173E-03    0.03       3.7  T
  17   -399.1047011 -0.666563E-06  0.615E-04    0.03      10.5  T
  18   -399.1047011 -0.544996E-07  0.292E-04    0.03      22.0  T
     SCC iter.                  ...        0 min,  1.855 sec
     gradient                   ...        0 min,  0.592 sec
 * total energy  :  -392.2564288 Eh     change       -0.2075428E-01 Eh
   gradient norm :     0.0643706 Eh/α   predicted    -0.2718250E-02 ( -86.90%)
   displ. norm   :     0.3607831 α      lambda       -0.5504820E-02
   maximum displ.:     0.2510142 α      in ANC's #72, #79, #70, ...

........................................................................
.............................. CYCLE   38 ..............................
........................................................................

 iter      E             dE          RMSdq      gap      omega  full diag
   1   -399.0285766 -0.399029E+03  0.489E-01    0.03       0.0  T
   2   -398.6304873  0.398089E+00  0.112E+00    0.01       1.0  T
   3   -398.4238709  0.206616E+00  0.122E+00    0.20       1.0  T
   4   -399.0657599 -0.641889E+00  0.243E-01    0.03       1.0  T
   5   -398.8786589  0.187101E+00  0.747E-01    0.07       1.0  T
   6   -399.0704738 -0.191815E+00  0.208E-01    0.03       1.0  T
   7   -399.0753705 -0.489662E-02  0.133E-01    0.03       1.0  T
   8   -399.0707484  0.462202E-02  0.183E-01    0.03       1.0  T
   9   -399.0798028 -0.905432E-02  0.848E-02    0.03       1.0  T
  10   -399.0801413 -0.338496E-03  0.677E-02    0.03       1.0  T
  11   -399.0810592 -0.917940E-03  0.338E-02    0.03       1.0  T
  12   -399.0811337 -0.744714E-04  0.281E-02    0.03       1.0  T
  13   -399.0812244 -0.906885E-04  0.217E-02    0.03       1.0  T
  14   -399.0812892 -0.648729E-04  0.146E-02    0.03       1.0  T
  15   -399.0813183 -0.290806E-04  0.100E-02    0.03       1.0  T
  16   -399.0813329 -0.145876E-04  0.721E-03    0.03       1.0  T
  17   -399.0813435 -0.106274E-04  0.390E-03    0.03       1.6  T
  18   -399.0813465 -0.294149E-05  0.234E-03    0.03       2.7  T
  19   -399.0813479 -0.144804E-05  0.891E-04    0.03       7.2  T
  20   -399.0813481 -0.152861E-06  0.493E-04    0.03      13.0  T
  21   -399.0813481 -0.603065E-07  0.308E-04    0.03      20.9  T
     SCC iter.                  ...        0 min,  2.170 sec
     gradient                   ...        0 min,  0.599 sec
 * total energy  :  -392.2621643 Eh     change       -0.5735497E-02 Eh
   gradient norm :     0.0802401 Eh/α   predicted    -0.3110709E-02 ( -45.76%)
   displ. norm   :     0.4323632 α      lambda       -0.8295604E-02
   maximum displ.:     0.2996003 α      in ANC's #72, #79, #70, ...

........................................................................
.............................. CYCLE   39 ..............................
........................................................................

 iter      E             dE          RMSdq      gap      omega  full diag
   1   -398.9464571 -0.398946E+03  0.644E-01    0.03       0.0  T
   2   -397.3459839  0.160047E+01  0.195E+00    0.22       1.0  T
   3   -398.6774710 -0.133149E+01  0.988E-01    0.28       1.0  T
   4   -398.6011824  0.762887E-01  0.104E+00    0.05       1.0  T
   5   -398.9804859 -0.379304E+00  0.471E-01    0.04       1.0  T
   6   -398.9736455  0.684040E-02  0.475E-01    0.05       1.0  T
   7   -399.0399111 -0.662656E-01  0.219E-01    0.03       1.0  T
   8   -399.0376140  0.229713E-02  0.183E-01    0.03       1.0  T
   9   -399.0365238  0.109013E-02  0.212E-01    0.03       1.0  T
  10   -399.0421696 -0.564572E-02  0.169E-01    0.03       1.0  T
  11   -399.0431564 -0.986847E-03  0.148E-01    0.04       1.0  T
  12   -399.0488300 -0.567360E-02  0.890E-02    0.04       1.0  T
  13   -399.0513176 -0.248760E-02  0.279E-02    0.04       1.0  T
  14   -399.0511173  0.200364E-03  0.326E-02    0.04       1.0  T
  15   -399.0513155 -0.198201E-03  0.206E-02    0.04       1.0  T
  16   -399.0514419 -0.126450E-03  0.117E-02    0.04       1.0  T
  17   -399.0514872 -0.453145E-04  0.588E-03    0.04       1.1  T
  18   -399.0514919 -0.471999E-05  0.361E-03    0.04       1.8  T
  19   -399.0514946 -0.270950E-05  0.219E-03    0.04       2.9  T
  20   -399.0514960 -0.135300E-05  0.112E-03    0.04       5.7  T
  21   -399.0514964 -0.399478E-06  0.529E-04    0.04      12.1  T
  22   -399.0514965 -0.591510E-07  0.270E-04    0.04      23.8  T
     SCC iter.                  ...        0 min,  2.261 sec
     gradient                   ...        0 min,  0.619 sec
 * total energy  :  -392.2532320 Eh     change        0.8932313E-02 Eh
   gradient norm :     0.1084698 Eh/α   predicted    -0.4923241E-02 (-155.12%)
   displ. norm   :     0.6106779 α      lambda       -0.1593825E-01
   maximum displ.:     0.4028745 α      in ANC's #72, #79, #77, ...

........................................................................
.............................. CYCLE   40 ..............................
........................................................................

 iter      E             dE          RMSdq      gap      omega  full diag
   1   -398.8873504 -0.398887E+03  0.545E-01    0.03       0.0  T
   2   -397.1347878  0.175256E+01  0.201E+00    0.66       1.0  T
   3   -398.7695924 -0.163480E+01  0.736E-01    0.05       1.0  T
   4   -398.9208513 -0.151259E+00  0.521E-01    0.07       1.0  T
   5   -398.9819154 -0.610641E-01  0.291E-01    0.03       1.0  T
   6   -398.9203025  0.616129E-01  0.471E-01    0.05       1.0  T
   7   -398.8004747  0.119828E+00  0.623E-01    0.08       1.0  T
   8   -398.9444548 -0.143980E+00  0.349E-01    0.05       1.0  T
   9   -398.9704344 -0.259797E-01  0.240E-01    0.05       1.0  T
  10   -398.9731708 -0.273635E-02  0.203E-01    0.04       1.0  T
  11   -398.9847008 -0.115300E-01  0.138E-01    0.04       1.0  T
  12   -398.9878761 -0.317534E-02  0.110E-01    0.04       1.0  T
  13   -398.9902229 -0.234681E-02  0.859E-02    0.04       1.0  T
  14   -398.9907622 -0.539271E-03  0.769E-02    0.04       1.0  T
  15   -398.9917544 -0.992200E-03  0.587E-02    0.04       1.0  T
  16   -398.9928059 -0.105149E-02  0.327E-02    0.04       1.0  T
  17   -398.9931820 -0.376152E-03  0.162E-02    0.04       1.0  T
  18   -398.9932366 -0.546205E-04  0.111E-02    0.04       1.0  T
  19   -398.9932781 -0.414627E-04  0.587E-03    0.04       1.1  T
  20   -398.9932905 -0.123989E-04  0.266E-03    0.04       2.4  T
  21   -398.9932931 -0.264088E-05  0.106E-03    0.04       6.1  T
  22   -398.9932934 -0.223181E-06  0.588E-04    0.04      10.9  T
  23   -398.9932934 -0.454450E-07  0.396E-04    0.04      16.2  T
     SCC iter.                  ...        0 min,  2.368 sec
     gradient                   ...        0 min,  0.616 sec
 * total energy  :  -392.2229028 Eh     change        0.3032921E-01 Eh
   gradient norm :     0.0998328 Eh/α   predicted    -0.1094143E-01 (-136.08%)
   displ. norm   :     0.1953830 α      lambda       -0.1033821E-01
   maximum displ.:     0.1335855 α      in ANC's #72, #79, #75, ...

........................................................................
.............................. CYCLE   41 ..............................
........................................................................

 iter      E             dE          RMSdq      gap      omega  full diag
   1   -399.0021980 -0.399002E+03  0.204E-01    0.04       0.0  T
   2   -398.3136005  0.688598E+00  0.129E+00    0.09       1.0  T
   3   -398.8908253 -0.577225E+00  0.575E-01    0.08       1.0  T
   4   -398.9833640 -0.925386E-01  0.316E-01    0.05       1.0  T
   5   -399.0117033 -0.283393E-01  0.141E-01    0.03       1.0  T
   6   -399.0153802 -0.367693E-02  0.100E-01    0.04       1.0  T
   7   -399.0155759 -0.195654E-03  0.954E-02    0.04       1.0  T
   8   -399.0140433  0.153258E-02  0.101E-01    0.04       1.0  T
   9   -399.0173574 -0.331412E-02  0.480E-02    0.04       1.0  T
  10   -399.0180234 -0.665954E-03  0.136E-02    0.04       1.0  T
  11   -399.0180498 -0.264668E-04  0.890E-03    0.04       1.0  T
  12   -399.0180431  0.673752E-05  0.812E-03    0.04       1.0  T
  13   -399.0180462 -0.311701E-05  0.688E-03    0.04       1.0  T
  14   -399.0180518 -0.563459E-05  0.526E-03    0.04       1.2  T
  15   -399.0180572 -0.535451E-05  0.324E-03    0.04       2.0  T
  16   -399.0180590 -0.177844E-05  0.224E-03    0.04       2.9  T
  17   -399.0180593 -0.318769E-06  0.182E-03    0.04       3.5  T
  18   -399.0180600 -0.733149E-06  0.949E-04    0.04       6.8  T
  19   -399.0180603 -0.263725E-06  0.297E-04    0.04      21.6  T
     SCC iter.                  ...        0 min,  1.992 sec
     gradient                   ...        0 min,  0.602 sec
 * total energy  :  -392.2369987 Eh     change       -0.1409596E-01 Eh
   gradient norm :     0.0544292 Eh/α   predicted    -0.5366496E-02 ( -61.93%)
   displ. norm   :     0.1021814 α      lambda       -0.4171612E-02
   maximum displ.:     0.0606391 α      in ANC's #75, #70, #60, ...

........................................................................
.............................. CYCLE   42 ..............................
........................................................................

 iter      E             dE          RMSdq      gap      omega  full diag
   1   -399.0200016 -0.399020E+03  0.145E-01    0.04       0.0  T
   2   -398.8972668  0.122735E+00  0.539E-01    0.07       1.0  T
   3   -398.9029927 -0.572584E-02  0.535E-01    0.04       1.0  T
   4   -399.0187983 -0.115806E+00  0.136E-01    0.03       1.0  T
   5   -399.0090266  0.977172E-02  0.186E-01    0.03       1.0  T
   6   -399.0103029 -0.127630E-02  0.179E-01    0.03       1.0  T
   7   -399.0195104 -0.920753E-02  0.118E-01    0.04       1.0  T
   8   -399.0233456 -0.383521E-02  0.476E-02    0.04       1.0  T
   9   -399.0235748 -0.229150E-03  0.359E-02    0.04       1.0  T
  10   -399.0236523 -0.774827E-04  0.310E-02    0.04       1.0  T
  11   -399.0237427 -0.903806E-04  0.229E-02    0.04       1.0  T
  12   -399.0238369 -0.942909E-04  0.953E-03    0.04       1.0  T
  13   -399.0238508 -0.139038E-04  0.577E-03    0.04       1.1  T
  14   -399.0238574 -0.653307E-05  0.311E-03    0.04       2.1  T
  15   -399.0238593 -0.187212E-05  0.147E-03    0.04       4.4  T
  16   -399.0238594 -0.139023E-06  0.102E-03    0.04       6.3  T
  17   -399.0238597 -0.279567E-06  0.453E-04    0.04      14.2  T
  18   -399.0238597 -0.629292E-07  0.250E-04    0.04      25.8  T
     SCC iter.                  ...        0 min,  1.885 sec
     gradient                   ...        0 min,  0.623 sec
 * total energy  :  -392.2400071 Eh     change       -0.3008319E-02 Eh
   gradient norm :     0.0455578 Eh/α   predicted    -0.2107666E-02 ( -29.94%)
   displ. norm   :     0.0615056 α      lambda       -0.1290831E-02
   maximum displ.:     0.0401389 α      in ANC's #72, #79, #15, ...
 * RMSD in coord.:     0.1757145 α      energy gain  -0.2442552E+00 Eh

generating ANC from exact Hessian ...
Using Lindh-Hessian (1995)
 Shifting diagonal of input Hessian by    1.0096926273347476E-002
 Lowest  eigenvalues of input Hessian
    0.010000    0.010060    0.010075    0.010077    0.000000    0.000000
    0.000000    0.000000    0.000000    0.000000    0.010113    0.010123
    0.010127    0.010144    0.010160    0.010174    0.010191    0.010206
 Highest eigenvalues
    2.975820    3.070617    3.421743    3.653039    4.764158    6.143105


........................................................................
.............................. CYCLE   43 ..............................
........................................................................

 iter      E             dE          RMSdq      gap      omega  full diag
   1   -399.0287928 -0.399029E+03  0.799E-02    0.04       0.0  T
   2   -398.8398472  0.188946E+00  0.635E-01    0.07       1.0  T
   3   -399.0182560 -0.178409E+00  0.187E-01    0.04       1.0  T
   4   -399.0197683 -0.151229E-02  0.162E-01    0.03       1.0  T
   5   -399.0270015 -0.723316E-02  0.997E-02    0.03       1.0  T
   6   -399.0303680 -0.336651E-02  0.368E-02    0.04       1.0  T
   7   -399.0297694  0.598581E-03  0.562E-02    0.03       1.0  T
   8   -399.0306873 -0.917924E-03  0.187E-02    0.04       1.0  T
   9   -399.0307801 -0.927404E-04  0.105E-02    0.04       1.0  T
  10   -399.0308026 -0.225431E-04  0.695E-03    0.04       1.0  T
  11   -399.0308090 -0.637417E-05  0.388E-03    0.04       1.7  T
  12   -399.0308095 -0.553356E-06  0.255E-03    0.04       2.5  T
  13   -399.0308098 -0.295225E-06  0.183E-03    0.04       3.5  T
  14   -399.0308107 -0.846819E-06  0.982E-04    0.04       6.5  T
  15   -399.0308108 -0.121665E-06  0.630E-04    0.04      10.2  T
     SCC iter.                  ...        0 min,  1.570 sec
     gradient                   ...        0 min,  0.626 sec
 * total energy  :  -392.2451472 Eh     change       -0.5140125E-02 Eh
   gradient norm :     0.0716574 Eh/α   predicted     0.0000000E+00 (-100.00%)
   displ. norm   :     0.0378851 α      lambda       -0.2652432E-02
   maximum displ.:     0.0274045 α      in ANC's #61, #14, #3, ...

........................................................................
.............................. CYCLE   44 ..............................
........................................................................

 iter      E             dE          RMSdq      gap      omega  full diag
   1   -399.0292841 -0.399029E+03  0.334E-02    0.04       0.0  T
   2   -399.0169060  0.123781E-01  0.164E-01    0.03       1.0  T
   3   -399.0260562 -0.915017E-02  0.864E-02    0.04       1.0  T
   4   -399.0279938 -0.193762E-02  0.637E-02    0.04       1.0  T
   5   -399.0289527 -0.958881E-03  0.364E-02    0.04       1.0  T
   6   -399.0290843 -0.131643E-03  0.294E-02    0.04       1.0  T
   7   -399.0293390 -0.254723E-03  0.127E-02    0.04       1.0  T
   8   -399.0293820 -0.429828E-04  0.529E-03    0.04       1.2  T
   9   -399.0293784  0.362570E-05  0.618E-03    0.04       1.0  T
  10   -399.0293843 -0.584498E-05  0.417E-03    0.04       1.5  T
  11   -399.0293867 -0.242294E-05  0.157E-03    0.04       4.1  T
  12   -399.0293872 -0.546693E-06  0.852E-04    0.04       7.5  T
  13   -399.0293874 -0.213614E-06  0.386E-04    0.04      16.7  T
     SCC iter.                  ...        0 min,  1.370 sec
     gradient                   ...        0 min,  0.627 sec
 * total energy  :  -392.2470385 Eh     change       -0.1891342E-02 Eh
   gradient norm :     0.0272382 Eh/α   predicted    -0.1347822E-02 ( -28.74%)
   displ. norm   :     0.0231314 α      lambda       -0.6244939E-03
   maximum displ.:     0.0176387 α      in ANC's #61, #14, #3, ...

........................................................................
.............................. CYCLE   45 ..............................
........................................................................

 iter      E             dE          RMSdq      gap      omega  full diag
   1   -399.0281299 -0.399028E+03  0.254E-02    0.04       0.0  T
   2   -399.0220701  0.605983E-02  0.116E-01    0.03       1.0  T
   3   -399.0255247 -0.345465E-02  0.772E-02    0.04       1.0  T
   4   -399.0274846 -0.195984E-02  0.458E-02    0.04       1.0  T
   5   -399.0279093 -0.424755E-03  0.290E-02    0.04       1.0  T
   6   -399.0280118 -0.102507E-03  0.231E-02    0.04       1.0  T
   7   -399.0281698 -0.157981E-03  0.941E-03    0.04       1.0  T
   8   -399.0281946 -0.247712E-04  0.294E-03    0.04       2.2  T
   9   -399.0281925  0.213597E-05  0.383E-03    0.04       1.7  T
  10   -399.0281947 -0.227829E-05  0.248E-03    0.04       2.6  T
  11   -399.0281956 -0.849344E-06  0.124E-03    0.04       5.2  T
  12   -399.0281960 -0.407693E-06  0.639E-04    0.04      10.1  T
  13   -399.0281961 -0.973459E-07  0.223E-04    0.04      28.9  T
     SCC iter.                  ...        0 min,  1.379 sec
     gradient                   ...        0 min,  0.628 sec
 * total energy  :  -392.2473550 Eh     change       -0.3164976E-03 Eh
   gradient norm :     0.0040328 Eh/α   predicted    -0.3124942E-03 (  -1.26%)
   displ. norm   :     0.0027063 α      lambda       -0.1034967E-04
   maximum displ.:     0.0018892 α      in ANC's #61, #27, #50, ...

........................................................................
.............................. CYCLE   46 ..............................
........................................................................

 iter      E             dE          RMSdq      gap      omega  full diag
   1   -399.0280167 -0.399028E+03  0.478E-03    0.04       0.0  T
   2   -399.0278699  0.146789E-03  0.185E-02    0.04       1.0  T
   3   -399.0278763 -0.640523E-05  0.179E-02    0.04       1.0  T
   4   -399.0279999 -0.123592E-03  0.783E-03    0.04       1.0  T
   5   -399.0280083 -0.847360E-05  0.555E-03    0.04       1.2  T
   6   -399.0280128 -0.450803E-05  0.450E-03    0.04       1.4  T
   7   -399.0280190 -0.617958E-05  0.146E-03    0.04       4.4  T
   8   -399.0280196 -0.585006E-06  0.299E-04    0.04      21.5  T
   9   -399.0280196  0.216457E-07  0.332E-04    0.04      19.4  T
     SCC iter.                  ...        0 min,  0.948 sec
     gradient                   ...        0 min,  0.633 sec
 * total energy  :  -392.2473102 Eh     change        0.4485309E-04 Eh
   gradient norm :     0.0018221 Eh/α   predicted    -0.5265135E-05 (-111.74%)
   displ. norm   :     0.0028037 α      lambda       -0.2393013E-05
   maximum displ.:     0.0015642 α      in ANC's #27, #14, #61, ...

........................................................................
.............................. CYCLE   47 ..............................
........................................................................

 iter      E             dE          RMSdq      gap      omega  full diag
   1   -399.0278896 -0.399028E+03  0.430E-03    0.04       0.0  T
   2   -399.0277812  0.108433E-03  0.159E-02    0.04       1.0  T
   3   -399.0277685  0.126984E-04  0.166E-02    0.04       1.0  T
   4   -399.0278783 -0.109853E-03  0.646E-03    0.04       1.0  T
   5   -399.0278846 -0.621663E-05  0.451E-03    0.04       1.4  T
   6   -399.0278843  0.300190E-06  0.477E-03    0.04       1.3  T
   7   -399.0278916 -0.736798E-05  0.134E-03    0.04       4.8  T
   8   -399.0278921 -0.499782E-06  0.198E-04    0.04      32.4  T
   9   -399.0278921  0.785752E-08  0.209E-04    0.04      30.8  T
     SCC iter.                  ...        0 min,  0.940 sec
     gradient                   ...        0 min,  0.632 sec
 * total energy  :  -392.2471856 Eh     change        0.1245663E-03 Eh
   gradient norm :     0.0008670 Eh/α   predicted    -0.1666137E-05 (-101.34%)
   displ. norm   :     0.0007681 α      lambda       -0.2100182E-06
   maximum displ.:     0.0004938 α      in ANC's #61, #50, #27, ...

........................................................................
.............................. CYCLE   48 ..............................
........................................................................

 iter      E             dE          RMSdq      gap      omega  full diag
   1   -399.0279460 -0.399028E+03  0.138E-03    0.04       0.0  T
   2   -399.0279354  0.105584E-04  0.502E-03    0.04       1.3  T
   3   -399.0279345  0.976285E-06  0.514E-03    0.04       1.3  T
   4   -399.0279444 -0.992491E-05  0.244E-03    0.04       2.6  T
   5   -399.0279452 -0.857738E-06  0.168E-03    0.04       3.8  T
   6   -399.0279458 -0.576655E-06  0.116E-03    0.04       5.6  T
   7   -399.0279462 -0.352543E-06  0.510E-04    0.04      12.6  T
   8   -399.0279462 -0.704427E-07  0.158E-04    0.04      40.6  T
     SCC iter.                  ...        0 min,  0.846 sec
     gradient                   ...        0 min,  0.620 sec
 * total energy  :  -392.2471385 Eh     change        0.4714521E-04 Eh
   gradient norm :     0.0003495 Eh/α   predicted    -0.2122155E-06 (-100.45%)
   displ. norm   :     0.0006442 α      lambda        0.2161782E-06
   maximum displ.:     0.0004366 α      in ANC's #61, #50, #27, ...

........................................................................
.............................. CYCLE   49 ..............................
........................................................................

 iter      E             dE          RMSdq      gap      omega  full diag
   1   -399.0279901 -0.399028E+03  0.117E-03    0.04       0.0  T
   2   -399.0279841  0.600752E-05  0.383E-03    0.04       1.7  T
   3   -399.0279815  0.261603E-05  0.444E-03    0.04       1.4  T
   4   -399.0279892 -0.770191E-05  0.191E-03    0.04       3.4  T
   5   -399.0279895 -0.366025E-06  0.141E-03    0.04       4.6  T
   6   -399.0279899 -0.342112E-06  0.109E-03    0.04       5.9  T
   7   -399.0279902 -0.311862E-06  0.495E-04    0.04      13.0  T
   8   -399.0279903 -0.689205E-07  0.145E-04    0.04      44.4  T
     SCC iter.                  ...        0 min,  0.860 sec
     gradient                   ...        0 min,  0.629 sec
 * total energy  :  -392.2471253 Eh     change        0.1317689E-04 Eh
   gradient norm :     0.0006537 Eh/α   predicted     0.1008400E-06 ( -99.23%)
   displ. norm   :     0.0006718 α      lambda       -0.1965422E-06
   maximum displ.:     0.0004121 α      in ANC's #61, #27, #3, ...

........................................................................
.............................. CYCLE   50 ..............................
........................................................................

 iter      E             dE          RMSdq      gap      omega  full diag
   1   -399.0279602 -0.399028E+03  0.107E-03    0.04       0.0  T
   2   -399.0279500  0.102736E-04  0.488E-03    0.04       1.3  T
   3   -399.0279539 -0.391673E-05  0.378E-03    0.04       1.7  T
   4   -399.0279595 -0.560567E-05  0.167E-03    0.04       3.8  T
   5   -399.0279600 -0.556949E-06  0.101E-03    0.04       6.4  T
   6   -399.0279600  0.482908E-07  0.107E-03    0.04       6.0  T
   7   -399.0279604 -0.371446E-06  0.287E-04    0.04      22.4  T
   8   -399.0279604 -0.231860E-07  0.979E-05    0.04      65.6  T
     SCC iter.                  ...        0 min,  0.852 sec
     gradient                   ...        0 min,  0.634 sec
 * total energy  :  -392.2470420 Eh     change        0.8331296E-04 Eh
   gradient norm :     0.0003228 Eh/α   predicted    -0.1448542E-06 (-100.17%)
   displ. norm   :     0.0004741 α      lambda        0.5351024E-07
   maximum displ.:     0.0003155 α      in ANC's #61, #27, #50, ...

........................................................................
.............................. CYCLE   51 ..............................
........................................................................

 iter      E             dE          RMSdq      gap      omega  full diag
   1   -399.0279356 -0.399028E+03  0.782E-04    0.04       0.0  T
   2   -399.0279325  0.304918E-05  0.275E-03    0.04       2.3  T
   3   -399.0279317  0.888928E-06  0.298E-03    0.04       2.2  T
   4   -399.0279352 -0.359654E-05  0.119E-03    0.04       5.4  T
   5   -399.0279354 -0.203086E-06  0.783E-04    0.04       8.2  T
   6   -399.0279354  0.223588E-07  0.827E-04    0.04       7.8  T
     SCC iter.                  ...        0 min,  0.649 sec
     gradient                   ...        0 min,  0.630 sec
 * total energy  :  -392.2469984 Eh     change        0.4359002E-04 Eh
   gradient norm :     0.0004970 Eh/α   predicted     0.1925060E-07 ( -99.96%)
   displ. norm   :     0.0004940 α      lambda       -0.9737651E-07
   maximum displ.:     0.0002407 α      in ANC's #1, #61, #18, ...

........................................................................
.............................. CYCLE   52 ..............................
........................................................................

 iter      E             dE          RMSdq      gap      omega  full diag
   1   -399.0279659 -0.399028E+03  0.651E-04    0.04       0.0  T
   2   -399.0279637  0.223954E-05  0.230E-03    0.04       2.8  T
   3   -399.0279637 -0.189170E-07  0.226E-03    0.04       2.8  T
   4   -399.0279659 -0.217692E-05  0.636E-04    0.04      10.1  T
   5   -399.0279657  0.114416E-06  0.788E-04    0.04       8.2  T
   6   -399.0279659 -0.142615E-06  0.564E-04    0.04      11.4  T
     SCC iter.                  ...        0 min,  0.638 sec
     gradient                   ...        0 min,  0.629 sec
 * total energy  :  -392.2468931 Eh     change        0.1052980E-03 Eh
   gradient norm :     0.0003528 Eh/α   predicted    -0.7847992E-07 (-100.07%)
   displ. norm   :     0.0026584 α      lambda       -0.4677393E-06
   maximum displ.:     0.0014954 α      in ANC's #1, #18, #4, ...

........................................................................
.............................. CYCLE   53 ..............................
........................................................................

 iter      E             dE          RMSdq      gap      omega  full diag
   1   -399.0280852 -0.399028E+03  0.214E-03    0.04       0.0  T
   2   -399.0280797  0.556322E-05  0.428E-03    0.04       1.5  T
   3   -399.0280741  0.557030E-05  0.557E-03    0.04       1.2  T
   4   -399.0280835 -0.938109E-05  0.265E-03    0.04       2.4  T
   5   -399.0280781  0.540652E-05  0.413E-03    0.04       1.6  T
   6   -399.0280850 -0.693632E-05  0.154E-03    0.04       4.2  T
   7   -399.0280855 -0.489184E-06  0.759E-04    0.04       8.5  T
   8   -399.0280857 -0.166248E-06  0.397E-04    0.04      16.2  T
     SCC iter.                  ...        0 min,  0.863 sec
     gradient                   ...        0 min,  0.613 sec
 * total energy  :  -392.2462259 Eh     change        0.6672233E-03 Eh
   gradient norm :     0.0006946 Eh/α   predicted    -0.3034985E-06 (-100.05%)
   displ. norm   :     0.0051669 α      lambda       -0.5995257E-06
   maximum displ.:     0.0030060 α      in ANC's #1, #18, #4, ...

........................................................................
.............................. CYCLE   54 ..............................
........................................................................

 iter      E             dE          RMSdq      gap      omega  full diag
   1   -399.0282574 -0.399028E+03  0.371E-03    0.04       0.0  T
   2   -399.0281882  0.691644E-04  0.139E-02    0.04       1.0  T
   3   -399.0282075 -0.192471E-04  0.105E-02    0.04       1.0  T
   4   -399.0282456 -0.381041E-04  0.589E-03    0.04       1.1  T
   5   -399.0282532 -0.760464E-05  0.390E-03    0.04       1.6  T
   6   -399.0282563 -0.312088E-05  0.303E-03    0.04       2.1  T
   7   -399.0282583 -0.195645E-05  0.147E-03    0.04       4.4  T
   8   -399.0282588 -0.516664E-06  0.785E-04    0.04       8.2  T
   9   -399.0282588 -0.373584E-07  0.630E-04    0.04      10.2  T
     SCC iter.                  ...        0 min,  0.967 sec
     gradient                   ...        0 min,  0.644 sec
 * total energy  :  -392.2448744 Eh     change        0.1351486E-02 Eh
   gradient norm :     0.0011996 Eh/α   predicted    -0.4529226E-06 (-100.03%)
   displ. norm   :     0.0316325 α      lambda       -0.5300869E-05
   maximum displ.:     0.0184755 α      in ANC's #1, #18, #4, ...

........................................................................
.............................. CYCLE   55 ..............................
........................................................................

 iter      E             dE          RMSdq      gap      omega  full diag
   1   -399.0290371 -0.399029E+03  0.220E-02    0.04       0.0  T
   2   -399.0267995  0.223756E-02  0.781E-02    0.03       1.0  T
   3   -399.0270865 -0.286940E-03  0.660E-02    0.04       1.0  T
   4   -399.0287382 -0.165170E-02  0.324E-02    0.04       1.0  T
   5   -399.0289255 -0.187308E-03  0.211E-02    0.04       1.0  T
   6   -399.0289577 -0.322476E-04  0.197E-02    0.04       1.0  T
   7   -399.0290643 -0.106592E-03  0.920E-03    0.04       1.0  T
   8   -399.0290847 -0.204220E-04  0.360E-03    0.04       1.8  T
   9   -399.0290831  0.164740E-05  0.350E-03    0.04       1.8  T
  10   -399.0290890 -0.587309E-05  0.698E-04    0.04       9.2  T
  11   -399.0290889  0.933050E-07  0.888E-04    0.04       7.2  T
  12   -399.0290890 -0.124861E-06  0.521E-04    0.04      12.3  T
     SCC iter.                  ...        0 min,  1.286 sec
     gradient                   ...        0 min,  0.645 sec
 * total energy  :  -392.2361137 Eh     change        0.8760689E-02 Eh
   gradient norm :     0.0030080 Eh/α   predicted    -0.2675595E-05 (-100.03%)
   displ. norm   :     0.0483809 α      lambda       -0.1035662E-04
   maximum displ.:     0.0283056 α      in ANC's #1, #18, #4, ...

........................................................................
.............................. CYCLE   56 ..............................
........................................................................

 iter      E             dE          RMSdq      gap      omega  full diag
   1   -399.0297034 -0.399030E+03  0.339E-02    0.04       0.0  T
   2   -399.0238504  0.585301E-02  0.125E-01    0.03       1.0  T
   3   -399.0248740 -0.102362E-02  0.104E-01    0.05       1.0  T
   4   -399.0291553 -0.428126E-02  0.469E-02    0.04       1.0  T
   5   -399.0294744 -0.319098E-03  0.313E-02    0.04       1.0  T
   6   -399.0293839  0.904825E-04  0.340E-02    0.04       1.0  T
   7   -399.0297194 -0.335469E-03  0.191E-02    0.04       1.0  T
   8   -399.0298167 -0.973626E-04  0.472E-03    0.04       1.4  T
   9   -399.0298087  0.805589E-05  0.651E-03    0.04       1.0  T
  10   -399.0298230 -0.143358E-04  0.275E-03    0.04       2.3  T
  11   -399.0298251 -0.211137E-05  0.132E-03    0.04       4.9  T
  12   -399.0298252 -0.117697E-06  0.987E-04    0.04       6.5  T
  13   -399.0298254 -0.176811E-06  0.547E-04    0.04      11.7  T
     SCC iter.                  ...        0 min,  1.402 sec
     gradient                   ...        0 min,  0.619 sec
 * total energy  :  -392.2211824 Eh     change        0.1493131E-01 Eh
   gradient norm :     0.0046074 Eh/α   predicted    -0.5380602E-05 (-100.04%)
   displ. norm   :     0.1904363 α      lambda       -0.3957710E-04
   maximum displ.:     0.1114608 α      in ANC's #1, #18, #4, ...

........................................................................
.............................. CYCLE   57 ..............................
........................................................................

 iter      E             dE          RMSdq      gap      omega  full diag
   1   -399.0254234 -0.399025E+03  0.138E-01    0.04       0.0  T
   2   -398.9031914  0.122232E+00  0.559E-01    0.05       1.0  T
   3   -398.8631257  0.400657E-01  0.595E-01    0.03       1.0  T
   4   -399.0182288 -0.155103E+00  0.169E-01    0.05       1.0  T
   5   -399.0265938 -0.836502E-02  0.662E-02    0.04       1.0  T
   6   -399.0245166  0.207721E-02  0.103E-01    0.04       1.0  T
   7   -399.0212496  0.326705E-02  0.117E-01    0.04       1.0  T
   8   -399.0249073 -0.365772E-02  0.810E-02    0.04       1.0  T
   9   -399.0271627 -0.225539E-02  0.374E-02    0.04       1.0  T
  10   -399.0273018 -0.139140E-03  0.261E-02    0.04       1.0  T
  11   -399.0273448 -0.430162E-04  0.224E-02    0.04       1.0  T
  12   -399.0273748 -0.299836E-04  0.195E-02    0.04       1.0  T
  13   -399.0273935 -0.186765E-04  0.165E-02    0.04       1.0  T
  14   -399.0274216 -0.281347E-04  0.128E-02    0.04       1.0  T
  15   -399.0274536 -0.319540E-04  0.672E-03    0.04       1.0  T
  16   -399.0274634 -0.985561E-05  0.292E-03    0.04       2.2  T
  17   -399.0274651 -0.166214E-05  0.492E-04    0.04      13.1  T
  18   -399.0274650  0.589635E-07  0.672E-04    0.04       9.6  T
  19   -399.0274650  0.520586E-07  0.651E-04    0.04       9.9  T
     SCC iter.                  ...        0 min,  1.792 sec
     gradient                   ...        0 min,  0.549 sec
 * total energy  :  -392.1451252 Eh     change        0.7605717E-01 Eh
   gradient norm :     0.0090124 Eh/α   predicted    -0.2098013E-04 (-100.03%)
   displ. norm   :     0.2348373 α      lambda       -0.4381102E-04
   maximum displ.:     0.1374850 α      in ANC's #1, #18, #4, ...

........................................................................
.............................. CYCLE   58 ..............................
........................................................................

 iter      E             dE          RMSdq      gap      omega  full diag
   1   -399.0103059 -0.399010E+03  0.196E-01    0.04       0.0  T
   2   -398.8854992  0.124807E+00  0.606E-01    0.05       1.0  T
   3   -398.5982537  0.287245E+00  0.937E-01    0.05       1.0  T
   4   -399.0007363 -0.402483E+00  0.217E-01    0.06       1.0  T
   5   -399.0117084 -0.109720E-01  0.104E-01    0.04       1.0  T
   6   -399.0029099  0.879844E-02  0.180E-01    0.03       1.0  T
   7   -399.0052971 -0.238717E-02  0.155E-01    0.04       1.0  T
   8   -399.0106982 -0.540110E-02  0.931E-02    0.04       1.0  T
   9   -399.0138660 -0.316774E-02  0.541E-02    0.05       1.0  T
  10   -399.0142464 -0.380429E-03  0.342E-02    0.04       1.0  T
  11   -399.0142509 -0.451124E-05  0.314E-02    0.04       1.0  T
  12   -399.0143184 -0.675140E-04  0.271E-02    0.04       1.0  T
  13   -399.0143772 -0.587954E-04  0.220E-02    0.04       1.0  T
  14   -399.0144887 -0.111547E-03  0.136E-02    0.04       1.0  T
  15   -399.0145235 -0.347416E-04  0.745E-03    0.04       1.0  T
  16   -399.0145363 -0.128590E-04  0.183E-03    0.04       3.5  T
  17   -399.0145372 -0.872235E-06  0.815E-04    0.04       7.9  T
  18   -399.0145371  0.851894E-07  0.840E-04    0.04       7.7  T
     SCC iter.                  ...        0 min,  1.717 sec
     gradient                   ...        0 min,  0.552 sec
 * total energy  :  -392.0167992 Eh     change        0.1283260E+00 Eh
   gradient norm :     0.0120770 Eh/α   predicted    -0.2384339E-04 (-100.02%)
   displ. norm   :     0.5052778 α      lambda       -0.1100421E-03
   maximum displ.:     0.2958720 α      in ANC's #1, #18, #4, ...

........................................................................
.............................. CYCLE   59 ..............................
........................................................................

 iter      E             dE          RMSdq      gap      omega  full diag
   1   -398.7229553 -0.398723E+03  0.978E-01    0.07       0.0  T
   2   -394.8125029  0.391045E+01  0.369E+00    0.24       1.0  T
   3   -398.0114212 -0.319892E+01  0.142E+00    0.27       1.0  T
   4   -398.6445377 -0.633116E+00  0.888E-01    0.08       1.0  T
   5   -398.6968792 -0.523415E-01  0.870E-01    0.04       1.0  T
   6   -398.8276058 -0.130727E+00  0.625E-01    0.03       1.0  T
   7   -398.8889960 -0.613901E-01  0.426E-01    0.03       1.0  T
   8   -398.9533222 -0.643263E-01  0.259E-01    0.01       1.0  T
   9   -398.9599033 -0.658106E-02  0.158E-01    0.01       1.0  T
  10   -398.9642341 -0.433079E-02  0.106E-01    0.02       1.0  T
  11   -398.9627786  0.145547E-02  0.112E-01    0.02       1.0  T
  12   -398.9641219 -0.134329E-02  0.840E-02    0.02       1.0  T
  13   -398.9645308 -0.408915E-03  0.590E-02    0.02       1.0  T
  14   -398.9651118 -0.580977E-03  0.477E-02    0.02       1.0  T
  15   -398.9657776 -0.665797E-03  0.203E-02    0.02       1.0  T
  16   -398.9657674  0.102108E-04  0.184E-02    0.02       1.0  T
  17   -398.9658464 -0.790107E-04  0.105E-02    0.02       1.0  T
  18   -398.9658740 -0.275857E-04  0.429E-03    0.02       1.5  T
  19   -398.9658662  0.777323E-05  0.545E-03    0.02       1.2  T
  20   -398.9658763 -0.100722E-04  0.253E-03    0.02       2.5  T
  21   -398.9658734  0.289785E-05  0.320E-03    0.02       2.0  T
  22   -398.9658775 -0.418415E-05  0.112E-03    0.02       5.7  T
  23   -398.9658773  0.218436E-06  0.130E-03    0.02       5.0  T
  24   -398.9658777 -0.392111E-06  0.525E-04    0.02      12.3  T
  25   -398.9658777 -0.206009E-07  0.439E-04    0.02      14.6  T
     SCC iter.                  ...        0 min,  2.364 sec
     gradient                   ...        0 min,  0.555 sec
 * total energy  :  -391.6534351 Eh     change        0.3633641E+00 Eh
   gradient norm :     0.0163216 Eh/α   predicted    -0.7508317E-04 (-100.02%)
   displ. norm   :     0.5780128 α      lambda       -0.1911008E-03
   maximum displ.:     0.3384929 α      in ANC's #1, #18, #4, ...

........................................................................
.............................. CYCLE   60 ..............................
........................................................................

 iter      E             dE          RMSdq      gap      omega  full diag
   1   -398.7322835 -0.398732E+03  0.721E-01    0.05       0.0  T
   2   -395.6816662  0.305062E+01  0.345E+00    0.21       1.0  T
   3   -398.2660552 -0.258439E+01  0.126E+00    0.08       1.0  T
   4   -398.1527632  0.113292E+00  0.128E+00    0.01       1.0  T
   5   -398.7578238 -0.605061E+00  0.606E-01    0.03       1.0  T
   6   -398.7654974 -0.767364E-02  0.578E-01    0.04       1.0  T
   7   -398.7327282  0.327692E-01  0.589E-01    0.03       1.0  T
   8   -398.8355999 -0.102872E+00  0.325E-01    0.02       1.0  T
   9   -398.8410202 -0.542037E-02  0.294E-01    0.03       1.0  T
  10   -398.8631550 -0.221348E-01  0.203E-01    0.02       1.0  T
  11   -398.8690539 -0.589887E-02  0.151E-01    0.02       1.0  T
  12   -398.8739861 -0.493219E-02  0.102E-01    0.02       1.0  T
  13   -398.8749510 -0.964959E-03  0.732E-02    0.02       1.0  T
  14   -398.8741151  0.835948E-03  0.735E-02    0.03       1.0  T
  15   -398.8730031  0.111201E-02  0.925E-02    0.01       1.0  T
  16   -398.8753504 -0.234737E-02  0.400E-02    0.01       1.0  T
  17   -398.8757636 -0.413211E-03  0.290E-02    0.02       1.0  T
  18   -398.8760566 -0.292922E-03  0.103E-02    0.02       1.0  T
  19   -398.8760896 -0.330745E-04  0.514E-03    0.02       1.3  T
  20   -398.8760908 -0.111102E-05  0.455E-03    0.02       1.4  T
  21   -398.8760987 -0.790675E-05  0.181E-03    0.02       3.5  T
  22   -398.8760986  0.436218E-07  0.165E-03    0.02       3.9  T
  23   -398.8760980  0.581819E-06  0.213E-03    0.02       3.0  T
  24   -398.8760990 -0.944545E-06  0.118E-03    0.02       5.4  T
  25   -398.8760976  0.137663E-05  0.225E-03    0.02       2.9  T
  26   -398.8760988 -0.124097E-05  0.137E-03    0.02       4.7  T
  27   -398.8760992 -0.382431E-06  0.616E-04    0.02      10.4  T
  28   -398.8760993 -0.693297E-07  0.195E-04    0.02      32.9  T
     SCC iter.                  ...        0 min,  2.631 sec
     gradient                   ...        0 min,  0.557 sec
 * total energy  :  -391.1881106 Eh     change        0.4653245E+00 Eh
   gradient norm :     0.0186396 Eh/α   predicted    -0.1408803E-03 (-100.03%)
   displ. norm   :     0.4851399 α      lambda       -0.4430080E-03
   maximum displ.:     0.2839611 α      in ANC's #1, #18, #4, ...

........................................................................
.............................. CYCLE   61 ..............................
........................................................................

 iter      E             dE          RMSdq      gap      omega  full diag
   1   -398.7034293 -0.398703E+03  0.437E-01    0.03       0.0  T
   2   -398.1202072  0.583222E+00  0.161E+00    0.04       1.0  T
   3   -398.6998107 -0.579603E+00  0.436E-01    0.01       1.0  T
   4   -398.1223493  0.577461E+00  0.122E+00    0.02       1.0  T
   5   -398.5978648 -0.475516E+00  0.586E-01    0.16       1.0  T
   6   -398.6962611 -0.983963E-01  0.379E-01    0.09       1.0  T
   7   -398.6974237 -0.116260E-02  0.348E-01    0.03       1.0  T
   8   -398.7218369 -0.244132E-01  0.244E-01    0.06       1.0  T
   9   -398.7395695 -0.177326E-01  0.132E-01    0.03       1.0  T
  10   -398.7383751  0.119441E-02  0.123E-01    0.04       1.0  T
  11   -398.7406836 -0.230843E-02  0.910E-02    0.04       1.0  T
  12   -398.7426632 -0.197960E-02  0.547E-02    0.03       1.0  T
  13   -398.7418813  0.781883E-03  0.652E-02    0.04       1.0  T
  14   -398.7428307 -0.949428E-03  0.350E-02    0.03       1.0  T
  15   -398.7430523 -0.221633E-03  0.204E-02    0.03       1.0  T
  16   -398.7431423 -0.899846E-04  0.722E-03    0.03       1.0  T
  17   -398.7431447 -0.234111E-05  0.634E-03    0.03       1.0  T
  18   -398.7431432  0.149514E-05  0.618E-03    0.03       1.0  T
  19   -398.7431531 -0.996360E-05  0.129E-03    0.03       5.0  T
  20   -398.7431519  0.119472E-05  0.203E-03    0.03       3.2  T
  21   -398.7431504  0.152824E-05  0.283E-03    0.03       2.3  T
  22   -398.7431534 -0.293756E-05  0.114E-03    0.03       5.6  T
  23   -398.7431533  0.683411E-07  0.981E-04    0.03       6.6  T
  24   -398.7431531  0.195032E-06  0.110E-03    0.03       5.9  T
  25   -398.7431535 -0.363330E-06  0.208E-04    0.03      30.9  T
     SCC iter.                  ...        0 min,  2.356 sec
     gradient                   ...        0 min,  0.564 sec
 * total energy  :  -390.8076441 Eh     change        0.3804664E+00 Eh
   gradient norm :     0.0090822 Eh/α   predicted    -0.2955369E-03 (-100.08%)
   displ. norm   :     0.7611013 α      lambda       -0.1919665E-03
   maximum displ.:     0.4456759 α      in ANC's #1, #18, #4, ...

........................................................................
.............................. CYCLE   62 ..............................
........................................................................

 iter      E             dE          RMSdq      gap      omega  full diag
   1   -398.4377018 -0.398438E+03  0.668E-01    0.05       0.0  T
   2   -398.4049230  0.327788E-01  0.565E-01    0.02       1.0  T
   3   -398.3264087  0.785143E-01  0.697E-01    0.07       1.0  T
   4   -398.2495866  0.768221E-01  0.731E-01    0.05       1.0  T
   5   -398.2268496  0.227371E-01  0.747E-01    0.17       1.0  T
   6   -398.3146561 -0.878065E-01  0.664E-01    0.05       1.0  T
   7   -398.3974036 -0.827475E-01  0.396E-01    0.10       1.0  T
   8   -398.4431013 -0.456978E-01  0.241E-01    0.04       1.0  T
   9   -398.4468194 -0.371803E-02  0.187E-01    0.10       1.0  T
  10   -398.4590090 -0.121896E-01  0.931E-02    0.06       1.0  T
  11   -398.4601541 -0.114515E-02  0.655E-02    0.05       1.0  T
  12   -398.4605657 -0.411571E-03  0.532E-02    0.02       1.0  T
  13   -398.4610278 -0.462127E-03  0.351E-02    0.03       1.0  T
  14   -398.4613431 -0.315221E-03  0.191E-02    0.03       1.0  T
  15   -398.4613551 -0.120043E-04  0.131E-02    0.03       1.0  T
  16   -398.4613395  0.155192E-04  0.126E-02    0.04       1.0  T
  17   -398.4613933 -0.537498E-04  0.522E-03    0.03       1.2  T
  18   -398.4614004 -0.708531E-05  0.283E-03    0.03       2.3  T
  19   -398.4613934  0.696680E-05  0.453E-03    0.03       1.4  T
  20   -398.4614007 -0.725958E-05  0.215E-03    0.03       3.0  T
  21   -398.4614018 -0.117043E-05  0.112E-03    0.03       5.8  T
  22   -398.4614013  0.528990E-06  0.160E-03    0.03       4.0  T
  23   -398.4614017 -0.348279E-06  0.116E-03    0.03       5.6  T
  24   -398.4614020 -0.384266E-06  0.540E-04    0.03      11.9  T
  25   -398.4614021 -0.830652E-07  0.260E-04    0.03      24.7  T
     SCC iter.                  ...        0 min,  2.358 sec
     gradient                   ...        0 min,  0.553 sec
 * total energy  :  -390.2070563 Eh     change        0.6005878E+00 Eh
   gradient norm :     0.0048375 Eh/α   predicted    -0.1730090E-03 (-100.03%)
   displ. norm   :     0.7542641 α      lambda       -0.1720385E-03
   maximum displ.:     0.4416409 α      in ANC's #1, #18, #4, ...

........................................................................
.............................. CYCLE   63 ..............................
........................................................................

 iter      E             dE          RMSdq      gap      omega  full diag
   1   -398.0540871 -0.398054E+03  0.702E-01    0.05       0.0  T
   2   -397.0915669  0.962520E+00  0.184E+00    0.22       1.0  T
   3   -397.2520348 -0.160468E+00  0.165E+00    0.03       1.0  T
   4   -397.7627499 -0.510715E+00  0.920E-01    0.05       1.0  T
   5   -397.9403677 -0.177618E+00  0.701E-01    0.08       1.0  T
   6   -397.9578362 -0.174685E-01  0.670E-01    0.09       1.0  T
   7   -397.7706080  0.187228E+00  0.854E-01    0.01       1.0  T
   8   -398.0702359 -0.299628E+00  0.413E-01    0.06       1.0  T
   9   -398.1086556 -0.384197E-01  0.254E-01    0.01       1.0  T
  10   -398.1172720 -0.861637E-02  0.202E-01    0.03       1.0  T
  11   -398.1174880 -0.216017E-03  0.191E-01    0.03       1.0  T
  12   -398.1189930 -0.150501E-02  0.162E-01    0.04       1.0  T
  13   -398.1187037  0.289328E-03  0.113E-01    0.03       1.0  T
  14   -398.1208165 -0.211281E-02  0.616E-02    0.04       1.0  T
  15   -398.1211284 -0.311927E-03  0.422E-02    0.04       1.0  T
  16   -398.1211532 -0.248270E-04  0.364E-02    0.04       1.0  T
  17   -398.1211438  0.947513E-05  0.273E-02    0.04       1.0  T
  18   -398.1212383 -0.945842E-04  0.168E-02    0.05       1.0  T
  19   -398.1212692 -0.309004E-04  0.956E-03    0.04       1.0  T
  20   -398.1212887 -0.194911E-04  0.626E-03    0.04       1.0  T
  21   -398.1212948 -0.601701E-05  0.217E-03    0.04       3.0  T
  22   -398.1212957 -0.932552E-06  0.111E-03    0.04       5.8  T
  23   -398.1212958 -0.721739E-07  0.111E-03    0.04       5.8  T
  24   -398.1212955  0.226330E-06  0.114E-03    0.04       5.6  T
  25   -398.1212957 -0.176383E-06  0.847E-04    0.04       7.6  T
  26   -398.1212958 -0.138280E-06  0.483E-04    0.04      13.3  T
     SCC iter.                  ...        0 min,  2.484 sec
     gradient                   ...        0 min,  0.544 sec
 * total energy  :  -389.3226134 Eh     change        0.8844428E+00 Eh
   gradient norm :     0.0046380 Eh/α   predicted    -0.1535914E-03 (-100.02%)
   displ. norm   :     0.7379304 α      lambda       -0.1446707E-03
   maximum displ.:     0.4320690 α      in ANC's #1, #18, #4, ...

........................................................................
.............................. CYCLE   64 ..............................
........................................................................

 iter      E             dE          RMSdq      gap      omega  full diag
   1   -397.6180123 -0.397618E+03  0.767E-01    0.05       0.0  T
   2   -396.3896311  0.122838E+01  0.201E+00    0.18       1.0  T
   3   -397.3177901 -0.928159E+00  0.109E+00    0.07       1.0  T
   4   -397.3978004 -0.800103E-01  0.862E-01    0.07       1.0  T
   5   -396.5657356  0.832065E+00  0.161E+00    0.10       1.0  T
   6   -397.6271640 -0.106143E+01  0.525E-01    0.09       1.0  T
   7   -397.5009785  0.126186E+00  0.667E-01    0.13       1.0  T
   8   -397.5995687 -0.985903E-01  0.536E-01    0.13       1.0  T
   9   -397.6796278 -0.800591E-01  0.301E-01    0.06       1.0  T
  10   -397.6933185 -0.136906E-01  0.203E-01    0.06       1.0  T
  11   -397.6944689 -0.115044E-02  0.159E-01    0.11       1.0  T
  12   -397.6986847 -0.421576E-02  0.117E-01    0.09       1.0  T
  13   -397.6993801 -0.695437E-03  0.975E-02    0.09       1.0  T
  14   -397.7015315 -0.215137E-02  0.488E-02    0.09       1.0  T
  15   -397.7021397 -0.608186E-03  0.250E-02    0.07       1.0  T
  16   -397.7022829 -0.143259E-03  0.170E-02    0.08       1.0  T
  17   -397.7022617  0.212240E-04  0.162E-02    0.08       1.0  T
  18   -397.7022750 -0.133491E-04  0.139E-02    0.08       1.0  T
  19   -397.7023177 -0.426774E-04  0.717E-03    0.08       1.0  T
  20   -397.7023214 -0.370551E-05  0.462E-03    0.08       1.4  T
  21   -397.7023272 -0.572881E-05  0.299E-03    0.08       2.2  T
  22   -397.7023282 -0.102735E-05  0.235E-03    0.08       2.7  T
  23   -397.7023301 -0.189643E-05  0.836E-04    0.08       7.7  T
  24   -397.7023302 -0.131145E-06  0.556E-04    0.08      11.6  T
  25   -397.7023302 -0.174960E-07  0.448E-04    0.08      14.3  T
     SCC iter.                  ...        0 min,  2.381 sec
     gradient                   ...        0 min,  0.558 sec
 * total energy  :  -387.6291035 Eh     change        0.1693510E+01 Eh
   gradient norm :     0.0046562 Eh/α   predicted    -0.1266684E-03 (-100.01%)
   displ. norm   :     0.6758596 α      lambda       -0.1033368E-03
   maximum displ.:     0.3957379 α      in ANC's #1, #18, #4, ...

........................................................................
.............................. CYCLE   65 ..............................
........................................................................

 iter      E             dE          RMSdq      gap      omega  full diag
   1   -396.1459507 -0.396146E+03  0.176E+00    0.05       0.0  T
   2   -391.1603509  0.498560E+01  0.378E+00    0.14       1.0  T
   3   -396.0511029 -0.489075E+01  0.209E+00    0.05       1.0  T
   4   -396.6090230 -0.557920E+00  0.142E+00    0.01       1.0  T
   5   -396.4177391  0.191284E+00  0.164E+00    0.06       1.0  T
   6   -396.4321766 -0.144376E-01  0.140E+00    0.07       1.0  T
   7   -397.0282070 -0.596030E+00  0.983E-01    0.12       1.0  T
   8   -397.2774877 -0.249281E+00  0.455E-01    0.07       1.0  T
   9   -397.2302458  0.472419E-01  0.543E-01    0.04       1.0  T
  10   -397.1189672  0.111279E+00  0.806E-01    0.10       1.0  T
  11   -397.3098199 -0.190853E+00  0.275E-01    0.04       1.0  T
  12   -397.0800109  0.229809E+00  0.834E-01    0.03       1.0  T
  13   -397.2419013 -0.161890E+00  0.525E-01    0.03       1.0  T
  14   -397.3144941 -0.725928E-01  0.245E-01    0.05       1.0  T
  15   -397.2856043  0.288899E-01  0.389E-01    0.06       1.0  T
  16   -397.2924441 -0.683978E-02  0.371E-01    0.09       1.0  T
  17   -397.3149262 -0.224821E-01  0.242E-01    0.08       1.0  T
  18   -397.3333627 -0.184366E-01  0.460E-02    0.07       1.0  T
  19   -397.3320393  0.132341E-02  0.862E-02    0.07       1.0  T
  20   -397.3337102 -0.167090E-02  0.310E-02    0.07       1.0  T
  21   -397.3329956  0.714605E-03  0.608E-02    0.07       1.0  T
  22   -397.3338938 -0.898225E-03  0.237E-02    0.07       1.0  T
  23   -397.3338637  0.301794E-04  0.229E-02    0.07       1.0  T
  24   -397.3338610  0.269351E-05  0.228E-02    0.07       1.0  T
  25   -397.3339990 -0.138035E-03  0.998E-03    0.07       1.0  T
  26   -397.3340205 -0.214812E-04  0.484E-03    0.07       1.3  T
  27   -397.3340176  0.285613E-05  0.581E-03    0.07       1.1  T
  28   -397.3340261 -0.851511E-05  0.218E-03    0.07       3.0  T
  29   -397.3340273 -0.119485E-05  0.117E-03    0.07       5.5  T
  30   -397.3340270  0.367937E-06  0.147E-03    0.07       4.4  T
  31   -397.3340271 -0.989853E-07  0.138E-03    0.07       4.7  T
  32   -397.3340276 -0.563957E-06  0.224E-04    0.07      28.7  T
  33   -397.3340276  0.240720E-07  0.353E-04    0.07      18.2  T
     SCC iter.                  ...        0 min,  3.099 sec
     gradient                   ...        0 min,  0.564 sec
 * total energy  :  -384.1168322 Eh     change        0.3512271E+01 Eh
   gradient norm :     0.0058941 Eh/α   predicted    -0.8421676E-04 (-100.00%)
   displ. norm   :     0.6980531 α      lambda       -0.1064432E-03
   maximum displ.:     0.4086940 α      in ANC's #1, #18, #4, ...

........................................................................
.............................. CYCLE   66 ..............................
........................................................................

 iter      E             dE          RMSdq      gap      omega  full diag
   1   -396.1951966 -0.396195E+03  0.160E+00    0.07       0.0  T
   2   -391.2575479  0.493765E+01  0.359E+00    0.14       1.0  T
   3   -395.5092769 -0.425173E+01  0.218E+00    0.07       1.0  T
   4   -396.2292908 -0.720014E+00  0.163E+00    0.09       1.0  T
   5   -396.5711250 -0.341834E+00  0.145E+00    0.10       1.0  T
   6   -396.5242169  0.469081E-01  0.130E+00    0.09       1.0  T
   7   -396.8503699 -0.326153E+00  0.103E+00    0.09       1.0  T
   8   -396.5550819  0.295288E+00  0.113E+00    0.07       1.0  T
   9   -396.9723720 -0.417290E+00  0.716E-01    0.03       1.0  T
  10   -397.0372232 -0.648513E-01  0.473E-01    0.07       1.0  T
  11   -396.7422986  0.294925E+00  0.115E+00    0.02       1.0  T
  12   -397.0878297 -0.345531E+00  0.391E-01    0.03       1.0  T
  13   -397.1080789 -0.202492E-01  0.252E-01    0.04       1.0  T
  14   -397.1189212 -0.108423E-01  0.148E-01    0.06       1.0  T
  15   -397.0917534  0.271678E-01  0.334E-01    0.03       1.0  T
  16   -397.1034798 -0.117265E-01  0.282E-01    0.07       1.0  T
  17   -397.1088031 -0.532328E-02  0.254E-01    0.07       1.0  T
  18   -397.1204075 -0.116044E-01  0.114E-01    0.08       1.0  T
  19   -397.1224423 -0.203478E-02  0.748E-02    0.06       1.0  T
  20   -397.1223606  0.816946E-04  0.795E-02    0.07       1.0  T
  21   -397.1238274 -0.146683E-02  0.298E-02    0.07       1.0  T
  22   -397.1239731 -0.145635E-03  0.171E-02    0.07       1.0  T
  23   -397.1239420  0.310148E-04  0.169E-02    0.07       1.0  T
  24   -397.1240619 -0.119837E-03  0.685E-03    0.07       1.0  T
  25   -397.1240434  0.184718E-04  0.114E-02    0.07       1.0  T
  26   -397.1240688 -0.253487E-04  0.567E-03    0.07       1.1  T
  27   -397.1240733 -0.456229E-05  0.433E-03    0.07       1.5  T
  28   -397.1240767 -0.338417E-05  0.234E-03    0.07       2.8  T
  29   -397.1240769 -0.201098E-06  0.204E-03    0.07       3.1  T
  30   -397.1240773 -0.358108E-06  0.152E-03    0.07       4.2  T
  31   -397.1240779 -0.587499E-06  0.102E-03    0.07       6.3  T
  32   -397.1240777  0.108150E-06  0.103E-03    0.07       6.3  T
  33   -397.1240780 -0.297861E-06  0.566E-04    0.07      11.4  T
  34   -397.1240780  0.778808E-07  0.789E-04    0.07       8.2  T
     SCC iter.                  ...        0 min,  3.202 sec
     gradient                   ...        0 min,  0.563 sec
 * total energy  :  -373.8704207 Eh     change        0.1024641E+02 Eh
   gradient norm :     0.0051449 Eh/α   predicted    -0.8906748E-04 (-100.00%)
   displ. norm   :     0.6485367 α      lambda       -0.6708390E-04
   maximum displ.:     0.3796706 α      in ANC's #1, #18, #4, ...
 * RMSD in coord.:     0.4087817 α      energy gain   0.1836959E+02 Eh

generating ANC from exact Hessian ...
Using Lindh-Hessian (1995)
 Shifting diagonal of input Hessian by    1.2870871667562025E-002
 Lowest  eigenvalues of input Hessian
    0.010000    0.012764    0.012818    0.012844    0.012844    0.012847
    0.000000    0.000000    0.000000    0.000000    0.000000    0.000000
    0.012883    0.012895    0.012912    0.012926    0.012937    0.012942
 Highest eigenvalues
    4.355977    4.768884    4.925270    6.170450   10.009048  182.786509


........................................................................
.............................. CYCLE   67 ..............................
........................................................................

 iter      E             dE          RMSdq      gap      omega  full diag
   1   -396.7832522 -0.396783E+03  0.116E+00    0.03       0.0  T
   2   -392.8309988  0.395225E+01  0.306E+00    0.10       1.0  T
   3   -395.3590542 -0.252806E+01  0.188E+00    0.22       1.0  T
   4   -395.1702582  0.188796E+00  0.197E+00    0.25       1.0  T
   5   -396.3651295 -0.119487E+01  0.122E+00    0.04       1.0  T
   6   -396.2265114  0.138618E+00  0.149E+00    0.04       1.0  T
   7   -396.5828495 -0.356338E+00  0.108E+00    0.13       1.0  T
   8   -396.8297365 -0.246887E+00  0.765E-01    0.14       1.0  T
   9   -396.9615616 -0.131825E+00  0.506E-01    0.15       1.0  T
  10   -396.9643815 -0.281991E-02  0.494E-01    0.10       1.0  T
  11   -396.9765094 -0.121279E-01  0.461E-01    0.13       1.0  T
  12   -396.9886070 -0.120976E-01  0.414E-01    0.12       1.0  T
  13   -396.9932347 -0.462768E-02  0.386E-01    0.14       1.0  T
  14   -397.0023600 -0.912537E-02  0.363E-01    0.06       1.0  T
  15   -397.0151957 -0.128357E-01  0.256E-01    0.13       1.0  T
  16   -397.0257398 -0.105440E-01  0.202E-01    0.07       1.0  T
  17   -397.0338246 -0.808488E-02  0.106E-01    0.08       1.0  T
  18   -397.0334284  0.396210E-03  0.103E-01    0.06       1.0  T
  19   -397.0357660 -0.233762E-02  0.527E-02    0.07       1.0  T
  20   -397.0354854  0.280693E-03  0.590E-02    0.07       1.0  T
  21   -397.0358963 -0.410944E-03  0.432E-02    0.07       1.0  T
  22   -397.0361870 -0.290723E-03  0.252E-02    0.07       1.0  T
  23   -397.0362363 -0.493063E-04  0.243E-02    0.08       1.0  T
  24   -397.0363513 -0.114997E-03  0.928E-03    0.07       1.0  T
  25   -397.0363616 -0.102846E-04  0.628E-03    0.08       1.0  T
  26   -397.0363655 -0.386091E-05  0.459E-03    0.08       1.4  T
  27   -397.0363610  0.447391E-05  0.586E-03    0.08       1.1  T
  28   -397.0363710 -0.100351E-04  0.208E-03    0.08       3.1  T
  29   -397.0363695  0.150671E-05  0.330E-03    0.08       1.9  T
  30   -397.0363716 -0.210149E-05  0.182E-03    0.08       3.5  T
  31   -397.0363725 -0.907882E-06  0.340E-04    0.08      18.9  T
  32   -397.0363724  0.107696E-06  0.646E-04    0.07      10.0  T
     SCC iter.                  ...        0 min,  3.004 sec
     gradient                   ...        0 min,  0.562 sec
 * total energy  :  -345.5446159 Eh     change        0.2832580E+02 Eh
   gradient norm :     0.0100612 Eh/α   predicted     0.0000000E+00 (-100.00%)
   displ. norm   :     0.0052068 α      lambda       -0.5172342E-04
   maximum displ.:     0.0038589 α      in ANC's #38, #11, #40, ...

........................................................................
.............................. CYCLE   68 ..............................
........................................................................

 iter      E             dE          RMSdq      gap      omega  full diag
   1   -397.0368131 -0.397037E+03  0.110E-02    0.08       0.0  T
   2   -397.0345191  0.229404E-02  0.844E-02    0.07       1.0  T
   3   -397.0348327 -0.313585E-03  0.800E-02    0.08       1.0  T
   4   -397.0363459 -0.151322E-02  0.395E-02    0.08       1.0  T
   5   -397.0366484 -0.302511E-03  0.221E-02    0.07       1.0  T
   6   -397.0367110 -0.626209E-04  0.161E-02    0.08       1.0  T
   7   -397.0367788 -0.677099E-04  0.108E-02    0.07       1.0  T
   8   -397.0367910 -0.122710E-04  0.102E-02    0.08       1.0  T
   9   -397.0368292 -0.381360E-04  0.204E-03    0.07       3.2  T
  10   -397.0368293 -0.133640E-06  0.170E-03    0.07       3.8  T
  11   -397.0368296 -0.309509E-06  0.127E-03    0.07       5.0  T
  12   -397.0368300 -0.422960E-06  0.661E-04    0.07       9.7  T
  13   -397.0368300  0.453107E-07  0.763E-04    0.07       8.4  T
     SCC iter.                  ...        0 min,  1.227 sec
     gradient                   ...        0 min,  0.556 sec
 * total energy  :  -345.5446055 Eh     change        0.1040318E-04 Eh
   gradient norm :     0.0055038 Eh/α   predicted    -0.2607250E-04 (-350.62%)
   displ. norm   :     0.0062269 α      lambda       -0.3408766E-04
   maximum displ.:     0.0046315 α      in ANC's #38, #11, #40, ...

........................................................................
.............................. CYCLE   69 ..............................
........................................................................

 iter      E             dE          RMSdq      gap      omega  full diag
   1   -397.0374365 -0.397037E+03  0.130E-02    0.08       0.0  T
   2   -397.0344858  0.295077E-02  0.946E-02    0.06       1.0  T
   3   -397.0344214  0.643451E-04  0.981E-02    0.08       1.0  T
   4   -397.0364403 -0.201884E-02  0.567E-02    0.08       1.0  T
   5   -397.0372478 -0.807551E-03  0.240E-02    0.07       1.0  T
   6   -397.0373266 -0.787919E-04  0.173E-02    0.08       1.0  T
   7   -397.0373860 -0.594161E-04  0.130E-02    0.07       1.0  T
   8   -397.0374066 -0.206071E-04  0.119E-02    0.08       1.0  T
   9   -397.0374589 -0.522217E-04  0.279E-03    0.07       2.3  T
  10   -397.0374595 -0.650808E-06  0.207E-03    0.07       3.1  T
  11   -397.0374601 -0.570644E-06  0.145E-03    0.07       4.4  T
  12   -397.0374606 -0.513128E-06  0.796E-04    0.07       8.1  T
  13   -397.0374605  0.840901E-07  0.934E-04    0.07       6.9  T
     SCC iter.                  ...        0 min,  1.223 sec
     gradient                   ...        0 min,  0.562 sec
 * total energy  :  -345.5444762 Eh     change        0.1293140E-03 Eh
   gradient norm :     0.0006626 Eh/α   predicted    -0.1706535E-04 (-113.20%)
   displ. norm   :     0.0005331 α      lambda       -0.2088120E-06
   maximum displ.:     0.0003533 α      in ANC's #25, #40, #11, ...

........................................................................
.............................. CYCLE   70 ..............................
........................................................................

 iter      E             dE          RMSdq      gap      omega  full diag
   1   -397.0375601 -0.397038E+03  0.889E-04    0.07       0.0  T
   2   -397.0375250  0.351001E-04  0.105E-02    0.07       1.0  T
   3   -397.0375509 -0.258343E-04  0.557E-03    0.07       1.2  T
   4   -397.0375515 -0.605481E-06  0.480E-03    0.08       1.3  T
   5   -397.0375602 -0.871285E-05  0.572E-04    0.07      11.2  T
   6   -397.0375599  0.334648E-06  0.107E-03    0.07       6.0  T
   7   -397.0375602 -0.353669E-06  0.518E-04    0.07      12.4  T
   8   -397.0375602  0.925468E-08  0.513E-04    0.07      12.5  T
     SCC iter.                  ...        0 min,  0.750 sec
     gradient                   ...        0 min,  0.556 sec
 * total energy  :  -345.5443490 Eh     change        0.1271818E-03 Eh
   gradient norm :     0.0004448 Eh/α   predicted    -0.1163105E-06 (-100.09%)
   displ. norm   :     0.0010916 α      lambda       -0.2925004E-06
   maximum displ.:     0.0009348 α      in ANC's #25, #40, #11, ...

........................................................................
.............................. CYCLE   71 ..............................
........................................................................

 iter      E             dE          RMSdq      gap      omega  full diag
   1   -397.0377910 -0.397038E+03  0.170E-03    0.07       0.0  T
   2   -397.0375485  0.242578E-03  0.264E-02    0.07       1.0  T
   3   -397.0377664 -0.217908E-03  0.916E-03    0.07       1.0  T
   4   -397.0377739 -0.757978E-05  0.695E-03    0.08       1.0  T
   5   -397.0377909 -0.169345E-04  0.148E-03    0.07       4.3  T
   6   -397.0377899  0.944661E-06  0.213E-03    0.07       3.0  T
   7   -397.0377906 -0.623460E-06  0.175E-03    0.07       3.7  T
   8   -397.0377914 -0.828016E-06  0.894E-04    0.07       7.2  T
   9   -397.0377914 -0.100920E-07  0.772E-04    0.07       8.3  T
     SCC iter.                  ...        0 min,  0.905 sec
     gradient                   ...        0 min,  0.556 sec
 * total energy  :  -345.5439962 Eh     change        0.3527458E-03 Eh
   gradient norm :     0.0005051 Eh/α   predicted    -0.1584648E-06 (-100.04%)
   displ. norm   :     0.0014870 α      lambda       -0.2416040E-06
   maximum displ.:     0.0014141 α      in ANC's #25, #40, #41, ...

........................................................................
.............................. CYCLE   72 ..............................
........................................................................

 iter      E             dE          RMSdq      gap      omega  full diag
   1   -397.0381255 -0.397038E+03  0.189E-03    0.07       0.0  T
   2   -397.0378302  0.295324E-03  0.299E-02    0.07       1.0  T
   3   -397.0381035 -0.273247E-03  0.880E-03    0.07       1.0  T
   4   -397.0381113 -0.784993E-05  0.652E-03    0.08       1.0  T
   5   -397.0381221 -0.108020E-04  0.299E-03    0.07       2.2  T
   6   -397.0381239 -0.181283E-05  0.266E-03    0.07       2.4  T
   7   -397.0381235  0.444186E-06  0.266E-03    0.07       2.4  T
   8   -397.0381255 -0.205754E-05  0.139E-03    0.07       4.6  T
   9   -397.0381258 -0.240313E-06  0.109E-03    0.07       5.9  T
  10   -397.0381262 -0.374694E-06  0.569E-04    0.07      11.3  T
  11   -397.0381263 -0.981483E-07  0.227E-04    0.07      28.3  T
     SCC iter.                  ...        0 min,  1.013 sec
     gradient                   ...        0 min,  0.561 sec
 * total energy  :  -345.5435230 Eh     change        0.4732327E-03 Eh
   gradient norm :     0.0007580 Eh/α   predicted    -0.1493988E-06 (-100.03%)
   displ. norm   :     0.0057189 α      lambda       -0.7975641E-06
   maximum displ.:     0.0054533 α      in ANC's #25, #22, #40, ...

........................................................................
.............................. CYCLE   73 ..............................
........................................................................

 iter      E             dE          RMSdq      gap      omega  full diag
   1   -397.0393912 -0.397039E+03  0.583E-03    0.07       0.0  T
   2   -397.0371485  0.224264E-02  0.824E-02    0.07       1.0  T
   3   -397.0392682 -0.211969E-02  0.208E-02    0.07       1.0  T
   4   -397.0392769 -0.867501E-05  0.191E-02    0.08       1.0  T
   5   -397.0393123 -0.353611E-04  0.140E-02    0.07       1.0  T
   6   -397.0393623 -0.500017E-04  0.103E-02    0.07       1.0  T
   7   -397.0393435  0.187869E-04  0.115E-02    0.07       1.0  T
   8   -397.0393893 -0.457974E-04  0.482E-03    0.07       1.3  T
   9   -397.0393951 -0.578695E-05  0.278E-03    0.07       2.3  T
  10   -397.0393971 -0.204746E-05  0.178E-03    0.07       3.6  T
  11   -397.0393977 -0.625733E-06  0.104E-03    0.07       6.2  T
  12   -397.0393980 -0.255198E-06  0.676E-04    0.07       9.5  T
  13   -397.0393981 -0.124529E-06  0.323E-04    0.07      19.9  T
     SCC iter.                  ...        0 min,  1.185 sec
     gradient                   ...        0 min,  0.557 sec
 * total energy  :  -345.5414727 Eh     change        0.2050301E-02 Eh
   gradient norm :     0.0014432 Eh/α   predicted    -0.5862874E-06 (-100.03%)
   displ. norm   :     0.0192924 α      lambda       -0.3645464E-05
   maximum displ.:     0.0183534 α      in ANC's #25, #22, #41, ...

........................................................................
.............................. CYCLE   74 ..............................
........................................................................

 iter      E             dE          RMSdq      gap      omega  full diag
   1   -397.0435851 -0.397044E+03  0.183E-02    0.07       0.0  T
   2   -397.0271476  0.164375E-01  0.222E-01    0.06       1.0  T
   3   -397.0423985 -0.152509E-01  0.637E-02    0.07       1.0  T
   4   -397.0427596 -0.361128E-03  0.530E-02    0.08       1.0  T
   5   -397.0423408  0.418786E-03  0.560E-02    0.06       1.0  T
   6   -397.0432781 -0.937265E-03  0.333E-02    0.08       1.0  T
   7   -397.0429956  0.282508E-03  0.400E-02    0.07       1.0  T
   8   -397.0435013 -0.505754E-03  0.201E-02    0.08       1.0  T
   9   -397.0436119 -0.110563E-03  0.103E-02    0.08       1.0  T
  10   -397.0436323 -0.204064E-04  0.750E-03    0.07       1.0  T
  11   -397.0436472 -0.149534E-04  0.346E-03    0.07       1.9  T
  12   -397.0436479 -0.624673E-06  0.346E-03    0.07       1.9  T
  13   -397.0436505 -0.265923E-05  0.207E-03    0.07       3.1  T
  14   -397.0436510 -0.440557E-06  0.144E-03    0.07       4.5  T
  15   -397.0436517 -0.737771E-06  0.357E-04    0.07      18.0  T
  16   -397.0436517  0.353207E-07  0.485E-04    0.07      13.2  T
     SCC iter.                  ...        0 min,  1.470 sec
     gradient                   ...        0 min,  0.578 sec
 * total energy  :  -345.5341894 Eh     change        0.7283274E-02 Eh
   gradient norm :     0.0029997 Eh/α   predicted    -0.1837973E-05 (-100.03%)
   displ. norm   :     0.0312742 α      lambda       -0.8442245E-05
   maximum displ.:     0.0296528 α      in ANC's #25, #22, #1, ...

........................................................................
.............................. CYCLE   75 ..............................
........................................................................

 iter      E             dE          RMSdq      gap      omega  full diag
   1   -397.0503100 -0.397050E+03  0.281E-02    0.07       0.0  T
   2   -397.0220815  0.282285E-01  0.290E-01    0.05       1.0  T
   3   -397.0468852 -0.248037E-01  0.107E-01    0.08       1.0  T
   4   -397.0488523 -0.196708E-02  0.727E-02    0.08       1.0  T
   5   -397.0462103  0.264193E-02  0.103E-01    0.05       1.0  T
   6   -397.0495849 -0.337456E-02  0.508E-02    0.08       1.0  T
   7   -397.0487813  0.803639E-03  0.645E-02    0.07       1.0  T
   8   -397.0499283 -0.114705E-02  0.385E-02    0.08       1.0  T
   9   -397.0502923 -0.363982E-03  0.222E-02    0.08       1.0  T
  10   -397.0503766 -0.842838E-04  0.161E-02    0.07       1.0  T
  11   -397.0504469 -0.703175E-04  0.734E-03    0.07       1.0  T
  12   -397.0504572 -0.102962E-04  0.584E-03    0.07       1.1  T
  13   -397.0504598 -0.257955E-05  0.504E-03    0.07       1.3  T
  14   -397.0504664 -0.663851E-05  0.238E-03    0.07       2.7  T
  15   -397.0504677 -0.127531E-05  0.928E-04    0.07       6.9  T
  16   -397.0504678 -0.104551E-06  0.814E-04    0.07       7.9  T
  17   -397.0504675  0.294466E-06  0.123E-03    0.07       5.2  T
  18   -397.0504678 -0.342427E-06  0.674E-04    0.07       9.5  T
     SCC iter.                  ...        0 min,  1.668 sec
     gradient                   ...        0 min,  0.565 sec
 * total energy  :  -345.5213269 Eh     change        0.1286257E-01 Eh
   gradient norm :     0.0046420 Eh/α   predicted    -0.4255825E-05 (-100.03%)
   displ. norm   :     0.1298967 α      lambda       -0.3428136E-04
   maximum displ.:     0.1229568 α      in ANC's #25, #22, #1, ...

........................................................................
.............................. CYCLE   76 ..............................
........................................................................

 iter      E             dE          RMSdq      gap      omega  full diag
   1   -397.0756503 -0.397076E+03  0.116E-01    0.07       0.0  T
   2   -396.8267205  0.248930E+00  0.824E-01    0.06       1.0  T
   3   -396.9929335 -0.166213E+00  0.514E-01    0.08       1.0  T
   4   -397.0658624 -0.729289E-01  0.212E-01    0.07       1.0  T
   5   -396.9741956  0.916668E-01  0.520E-01    0.03       1.0  T
   6   -397.0672055 -0.930100E-01  0.171E-01    0.09       1.0  T
   7   -397.0619552  0.525035E-02  0.210E-01    0.06       1.0  T
   8   -397.0683294 -0.637420E-02  0.175E-01    0.08       1.0  T
   9   -397.0720997 -0.377031E-02  0.143E-01    0.08       1.0  T
  10   -397.0751049 -0.300516E-02  0.987E-02    0.07       1.0  T
  11   -397.0776266 -0.252172E-02  0.470E-02    0.08       1.0  T
  12   -397.0781052 -0.478601E-03  0.370E-02    0.07       1.0  T
  13   -397.0781810 -0.758021E-04  0.336E-02    0.07       1.0  T
  14   -397.0784481 -0.267114E-03  0.203E-02    0.07       1.0  T
  15   -397.0785448 -0.967082E-04  0.107E-02    0.07       1.0  T
  16   -397.0785713 -0.264991E-04  0.645E-03    0.06       1.0  T
  17   -397.0785667  0.462932E-05  0.699E-03    0.06       1.0  T
  18   -397.0785793 -0.126599E-04  0.318E-03    0.06       2.0  T
  19   -397.0785798 -0.508084E-06  0.253E-03    0.07       2.5  T
  20   -397.0785814 -0.159574E-05  0.124E-03    0.07       5.2  T
  21   -397.0785817 -0.239652E-06  0.896E-04    0.06       7.2  T
  22   -397.0785816  0.386573E-07  0.888E-04    0.07       7.2  T
     SCC iter.                  ...        0 min,  2.239 sec
     gradient                   ...        0 min,  0.559 sec
 * total energy  :  -345.4515979 Eh     change        0.6972899E-01 Eh
   gradient norm :     0.0098864 Eh/α   predicted    -0.1769929E-04 (-100.03%)
   displ. norm   :     0.1455662 α      lambda       -0.3742584E-04
   maximum displ.:     0.1374797 α      in ANC's #25, #22, #1, ...

........................................................................
.............................. CYCLE   77 ..............................
........................................................................

 iter      E             dE          RMSdq      gap      omega  full diag
   1   -397.1052760 -0.397105E+03  0.139E-01    0.06       0.0  T
   2   -396.9150386  0.190237E+00  0.706E-01    0.09       1.0  T
   3   -396.8970401  0.179985E-01  0.797E-01    0.05       1.0  T
   4   -397.0914247 -0.194385E+00  0.244E-01    0.05       1.0  T
   5   -397.0422556  0.491691E-01  0.461E-01    0.03       1.0  T
   6   -397.0827084 -0.404528E-01  0.239E-01    0.07       1.0  T
   7   -397.0967740 -0.140656E-01  0.190E-01    0.06       1.0  T
   8   -397.0946119  0.216209E-02  0.205E-01    0.06       1.0  T
   9   -397.0995849 -0.497293E-02  0.174E-01    0.06       1.0  T
  10   -397.1027594 -0.317456E-02  0.128E-01    0.07       1.0  T
  11   -397.1086126 -0.585311E-02  0.541E-02    0.06       1.0  T
  12   -397.1094150 -0.802470E-03  0.201E-02    0.06       1.0  T
  13   -397.1090542  0.360793E-03  0.385E-02    0.06       1.0  T
  14   -397.1092793 -0.225097E-03  0.289E-02    0.06       1.0  T
  15   -397.1093493 -0.699325E-04  0.230E-02    0.06       1.0  T
  16   -397.1095135 -0.164259E-03  0.444E-03    0.06       1.4  T
  17   -397.1095034  0.101404E-04  0.757E-03    0.06       1.0  T
  18   -397.1095033  0.747383E-07  0.766E-03    0.06       1.0  T
  19   -397.1095032  0.792379E-07  0.717E-03    0.06       1.0  T
  20   -397.1095165 -0.132654E-04  0.219E-03    0.06       2.9  T
  21   -397.1095167 -0.168725E-06  0.235E-03    0.06       2.7  T
  22   -397.1095156  0.105358E-05  0.293E-03    0.06       2.2  T
  23   -397.1095179 -0.226477E-05  0.989E-04    0.06       6.5  T
  24   -397.1095181 -0.237222E-06  0.465E-04    0.06      13.8  T
  25   -397.1095181 -0.135316E-07  0.368E-04    0.06      17.5  T
     SCC iter.                  ...        0 min,  2.375 sec
     gradient                   ...        0 min,  0.566 sec
 * total energy  :  -345.3270886 Eh     change        0.1245092E+00 Eh
   gradient norm :     0.0141085 Eh/α   predicted    -0.1917889E-04 (-100.02%)
   displ. norm   :     0.2561058 α      lambda       -0.9299226E-04
   maximum displ.:     0.2411532 α      in ANC's #25, #22, #1, ...

........................................................................
.............................. CYCLE   78 ..............................
........................................................................

 iter      E             dE          RMSdq      gap      omega  full diag
   1   -397.1425623 -0.397143E+03  0.314E-01    0.05       0.0  T
   2   -396.9129334  0.229629E+00  0.850E-01    0.05       1.0  T
   3   -397.0473052 -0.134372E+00  0.589E-01    0.01       1.0  T
   4   -396.7636832  0.283622E+00  0.108E+00    0.02       1.0  T
   5   -396.9778225 -0.214139E+00  0.692E-01    0.15       1.0  T
   6   -397.1083852 -0.130563E+00  0.399E-01    0.05       1.0  T
   7   -396.8808939  0.227491E+00  0.788E-01    0.05       1.0  T
   8   -397.1279241 -0.247030E+00  0.286E-01    0.05       1.0  T
   9   -397.1456322 -0.177081E-01  0.219E-01    0.05       1.0  T
  10   -397.1498817 -0.424946E-02  0.177E-01    0.04       1.0  T
  11   -397.1507280 -0.846345E-03  0.196E-01    0.05       1.0  T
  12   -397.1532809 -0.255289E-02  0.170E-01    0.04       1.0  T
  13   -397.1560995 -0.281853E-02  0.145E-01    0.04       1.0  T
  14   -397.1600778 -0.397838E-02  0.945E-02    0.05       1.0  T
  15   -397.1628790 -0.280120E-02  0.319E-02    0.05       1.0  T
  16   -397.1627092  0.169875E-03  0.400E-02    0.05       1.0  T
  17   -397.1629398 -0.230609E-03  0.275E-02    0.05       1.0  T
  18   -397.1630460 -0.106241E-03  0.165E-02    0.05       1.0  T
  19   -397.1629073  0.138684E-03  0.292E-02    0.05       1.0  T
  20   -397.1630396 -0.132302E-03  0.180E-02    0.05       1.0  T
  21   -397.1630798 -0.402018E-04  0.113E-02    0.05       1.0  T
  22   -397.1631144 -0.346063E-04  0.412E-03    0.05       1.6  T
  23   -397.1631139  0.506267E-06  0.413E-03    0.05       1.6  T
  24   -397.1631129  0.103424E-05  0.481E-03    0.05       1.3  T
  25   -397.1631160 -0.305295E-05  0.317E-03    0.05       2.0  T
  26   -397.1631185 -0.250213E-05  0.112E-03    0.05       5.7  T
  27   -397.1631185 -0.120662E-08  0.117E-03    0.05       5.5  T
  28   -397.1631185 -0.590454E-07  0.750E-04    0.05       8.6  T
  29   -397.1631183  0.235503E-06  0.130E-03    0.05       5.0  T
  30   -397.1631187 -0.413109E-06  0.426E-04    0.05      15.1  T
     SCC iter.                  ...        0 min,  2.868 sec
     gradient                   ...        0 min,  0.598 sec
 * total energy  :  -344.8736586 Eh     change        0.4534300E+00 Eh
   gradient norm :     0.0176420 Eh/α   predicted    -0.4982087E-04 (-100.01%)
   displ. norm   :     0.9691452 α      lambda       -0.3818532E-03
   maximum displ.:     0.9120256 α      in ANC's #25, #22, #1, ...

........................................................................
.............................. CYCLE   79 ..............................
........................................................................

 iter      E             dE          RMSdq      gap      omega  full diag
   1   -397.4768582 -0.397477E+03  0.994E-01    0.07       0.0  T
   2   -396.0691288  0.140773E+01  0.205E+00    0.04       1.0  T
   3   -395.8670400  0.202089E+00  0.190E+00    0.16       1.0  T
   4   -396.7496594 -0.882619E+00  0.144E+00    0.04       1.0  T
   5   -397.1031446 -0.353485E+00  0.121E+00    0.05       1.0  T
   6   -397.1590148 -0.558701E-01  0.106E+00    0.07       1.0  T
   7   -396.8512087  0.307806E+00  0.134E+00    0.07       1.0  T
   8   -397.4477657 -0.596557E+00  0.585E-01    0.13       1.0  T
   9   -397.5124022 -0.646366E-01  0.372E-01    0.14       1.0  T
  10   -397.5088954  0.350685E-02  0.375E-01    0.19       1.0  T
  11   -397.5184171 -0.952172E-02  0.358E-01    0.16       1.0  T
  12   -397.5104054  0.801167E-02  0.347E-01    0.13       1.0  T
  13   -397.5173707 -0.696525E-02  0.298E-01    0.12       1.0  T
  14   -397.5347132 -0.173426E-01  0.221E-01    0.06       1.0  T
  15   -397.5417998 -0.708653E-02  0.215E-01    0.10       1.0  T
  16   -397.5363758  0.542398E-02  0.258E-01    0.08       1.0  T
  17   -397.5350542  0.132155E-02  0.263E-01    0.08       1.0  T
  18   -397.5341816  0.872665E-03  0.270E-01    0.08       1.0  T
  19   -397.5485983 -0.144167E-01  0.116E-01    0.09       1.0  T
  20   -397.5494033 -0.805021E-03  0.119E-01    0.08       1.0  T
  21   -397.5515817 -0.217837E-02  0.604E-02    0.08       1.0  T
  22   -397.5520345 -0.452812E-03  0.383E-02    0.09       1.0  T
  23   -397.5520984 -0.639109E-04  0.365E-02    0.09       1.0  T
  24   -397.5523330 -0.234561E-03  0.167E-02    0.09       1.0  T
  25   -397.5523933 -0.603036E-04  0.446E-03    0.09       1.4  T
  26   -397.5523961 -0.278536E-05  0.373E-03    0.09       1.7  T
  27   -397.5523965 -0.471203E-06  0.258E-03    0.09       2.5  T
  28   -397.5523903  0.621125E-05  0.569E-03    0.09       1.1  T
  29   -397.5523985 -0.812902E-05  0.106E-03    0.09       6.0  T
  30   -397.5523983  0.148571E-06  0.140E-03    0.09       4.6  T
  31   -397.5523978  0.525230E-06  0.199E-03    0.09       3.2  T
  32   -397.5523978 -0.401097E-07  0.196E-03    0.09       3.3  T
  33   -397.5523987 -0.882998E-06  0.329E-04    0.09      19.5  T
  34   -397.5523987  0.470153E-07  0.557E-04    0.09      11.5  T
     SCC iter.                  ...        0 min,  3.274 sec
     gradient                   ...        0 min,  0.575 sec
 * total energy  :  -320.0084415 Eh     change        0.2486522E+02 Eh
   gradient norm :     0.0183276 Eh/α   predicted    -0.3705269E-03 (-100.00%)
   displ. norm   :     0.2417335 α      lambda       -0.4956913E-03
   maximum displ.:     0.2117845 α      in ANC's #25, #22, #38, ...

........................................................................
.............................. CYCLE   80 ..............................
........................................................................

 iter      E             dE          RMSdq      gap      omega  full diag
   1   -397.6138113 -0.397614E+03  0.274E-01    0.08       0.0  T
   2   -397.5632653  0.505460E-01  0.454E-01    0.14       1.0  T
   3   -397.4064141  0.156851E+00  0.667E-01    0.09       1.0  T
   4   -397.5763047 -0.169891E+00  0.327E-01    0.20       1.0  T
   5   -397.5142442  0.620605E-01  0.581E-01    0.07       1.0  T
   6   -397.5363550 -0.221107E-01  0.514E-01    0.12       1.0  T
   7   -397.5916284 -0.552735E-01  0.283E-01    0.08       1.0  T
   8   -397.5972600 -0.563156E-02  0.220E-01    0.09       1.0  T
   9   -397.6126965 -0.154365E-01  0.127E-01    0.10       1.0  T
  10   -397.6168630 -0.416644E-02  0.644E-02    0.09       1.0  T
  11   -397.6152338  0.162917E-02  0.970E-02    0.10       1.0  T
  12   -397.6153324 -0.985658E-04  0.963E-02    0.09       1.0  T
  13   -397.6151231  0.209317E-03  0.972E-02    0.10       1.0  T
  14   -397.6173867 -0.226369E-02  0.467E-02    0.09       1.0  T
  15   -397.6180495 -0.662780E-03  0.246E-02    0.08       1.0  T
  16   -397.6178643  0.185227E-03  0.358E-02    0.08       1.0  T
  17   -397.6180246 -0.160304E-03  0.251E-02    0.08       1.0  T
  18   -397.6181178 -0.932139E-04  0.152E-02    0.08       1.0  T
  19   -397.6181637 -0.459153E-04  0.528E-03    0.08       1.2  T
  20   -397.6181720 -0.821808E-05  0.285E-03    0.08       2.3  T
  21   -397.6181720 -0.730786E-07  0.316E-03    0.08       2.0  T
  22   -397.6181726 -0.597645E-06  0.285E-03    0.08       2.3  T
  23   -397.6181741 -0.147835E-05  0.134E-03    0.08       4.8  T
  24   -397.6181748 -0.653572E-06  0.402E-04    0.08      16.0  T
  25   -397.6181747  0.120482E-07  0.452E-04    0.08      14.2  T
     SCC iter.                  ...        0 min,  2.395 sec
     gradient                   ...        0 min,  0.583 sec
 * total energy  :  -275.3277115 Eh     change        0.4468073E+02 Eh
   gradient norm :     0.0502098 Eh/α   predicted    -0.2623444E-03 (-100.00%)
   displ. norm   :     0.0657521 α      lambda       -0.2214593E-02
   maximum displ.:     0.0517881 α      in ANC's #25, #18, #38, ...

........................................................................
.............................. CYCLE   81 ..............................
........................................................................

 iter      E             dE          RMSdq      gap      omega  full diag
   1   -397.6221257 -0.397622E+03  0.802E-02    0.08       0.0  T
   2   -397.6122847  0.984102E-02  0.178E-01    0.10       1.0  T
   3   -397.5878533  0.244314E-01  0.341E-01    0.09       1.0  T
   4   -397.6150116 -0.271584E-01  0.158E-01    0.07       1.0  T
   5   -397.6182320 -0.322041E-02  0.111E-01    0.10       1.0  T
   6   -397.6214250 -0.319298E-02  0.611E-02    0.07       1.0  T
   7   -397.6207021  0.722974E-03  0.652E-02    0.10       1.0  T
   8   -397.6214366 -0.734528E-03  0.546E-02    0.08       1.0  T
   9   -397.6225271 -0.109048E-02  0.256E-02    0.08       1.0  T
  10   -397.6225773 -0.501996E-04  0.221E-02    0.08       1.0  T
  11   -397.6225898 -0.125538E-04  0.210E-02    0.09       1.0  T
  12   -397.6226623 -0.725119E-04  0.156E-02    0.09       1.0  T
  13   -397.6227083 -0.460285E-04  0.905E-03    0.08       1.0  T
  14   -397.6227325 -0.241026E-04  0.211E-03    0.08       3.1  T
  15   -397.6227320  0.470189E-06  0.263E-03    0.09       2.4  T
  16   -397.6227334 -0.145420E-05  0.160E-03    0.09       4.0  T
  17   -397.6227336 -0.145113E-06  0.133E-03    0.09       4.8  T
  18   -397.6227339 -0.345013E-06  0.713E-04    0.09       9.0  T
  19   -397.6227339 -0.557003E-08  0.742E-04    0.09       8.7  T
     SCC iter.                  ...        0 min,  1.852 sec
     gradient                   ...        0 min,  0.586 sec
 * total energy  :  -264.0989775 Eh     change        0.1122873E+02 Eh
   gradient norm :     0.0135301 Eh/α   predicted    -0.1112146E-02 (-100.01%)
   displ. norm   :     0.2431764 α      lambda       -0.4010730E-04
   maximum displ.:     0.2292689 α      in ANC's #25, #22, #1, ...

........................................................................
.............................. CYCLE   82 ..............................
........................................................................

 iter      E             dE          RMSdq      gap      omega  full diag
   1   -397.6097015 -0.397610E+03  0.281E-01    0.07       0.0  T
   2   -397.5396659  0.700356E-01  0.497E-01    0.18       1.0  T
   3   -397.4016909  0.137975E+00  0.794E-01    0.06       1.0  T
   4   -397.5549410 -0.153250E+00  0.444E-01    0.06       1.0  T
   5   -397.5033172  0.516238E-01  0.513E-01    0.20       1.0  T
   6   -397.5679798 -0.646625E-01  0.344E-01    0.06       1.0  T
   7   -397.5977686 -0.297889E-01  0.203E-01    0.09       1.0  T
   8   -397.5968127  0.955951E-03  0.200E-01    0.06       1.0  T
   9   -397.5940321  0.278057E-02  0.245E-01    0.11       1.0  T
  10   -397.6016122 -0.758007E-02  0.202E-01    0.10       1.0  T
  11   -397.6037882 -0.217604E-02  0.181E-01    0.10       1.0  T
  12   -397.6068716 -0.308332E-02  0.149E-01    0.09       1.0  T
  13   -397.6115687 -0.469720E-02  0.695E-02    0.08       1.0  T
  14   -397.6130743 -0.150560E-02  0.265E-02    0.08       1.0  T
  15   -397.6131182 -0.438594E-04  0.212E-02    0.08       1.0  T
  16   -397.6132150 -0.967782E-04  0.139E-02    0.08       1.0  T
  17   -397.6132676 -0.525762E-04  0.729E-03    0.08       1.0  T
  18   -397.6132781 -0.105079E-04  0.466E-03    0.08       1.4  T
  19   -397.6132751  0.294395E-05  0.550E-03    0.08       1.2  T
  20   -397.6132828 -0.769768E-05  0.268E-03    0.08       2.4  T
  21   -397.6132850 -0.222244E-05  0.115E-03    0.08       5.6  T
  22   -397.6132852 -0.202548E-06  0.795E-04    0.08       8.1  T
  23   -397.6132853 -0.454486E-08  0.880E-04    0.08       7.3  T
     SCC iter.                  ...        0 min,  2.245 sec
     gradient                   ...        0 min,  0.592 sec
 * total energy  :  -299.5956639 Eh     change       -0.3549669E+02 Eh
   gradient norm :     0.0111277 Eh/α   predicted    -0.2145897E-04 (-100.00%)
   displ. norm   :     0.0456063 α      lambda       -0.6187829E-04
   maximum displ.:     0.0425217 α      in ANC's #25, #22, #18, ...

........................................................................
.............................. CYCLE   83 ..............................
........................................................................

 iter      E             dE          RMSdq      gap      omega  full diag
   1   -397.6051231 -0.397605E+03  0.531E-02    0.08       0.0  T
   2   -397.5983915  0.673157E-02  0.142E-01    0.10       1.0  T
   3   -397.5932524  0.513908E-02  0.202E-01    0.07       1.0  T
   4   -397.5906291  0.262332E-02  0.186E-01    0.06       1.0  T
   5   -397.6029242 -0.122951E-01  0.776E-02    0.10       1.0  T
   6   -397.6035411 -0.616883E-03  0.714E-02    0.09       1.0  T
   7   -397.6049150 -0.137394E-02  0.309E-02    0.08       1.0  T
   8   -397.6047730  0.141954E-03  0.387E-02    0.09       1.0  T
   9   -397.6050545 -0.281444E-03  0.248E-02    0.08       1.0  T
  10   -397.6052013 -0.146786E-03  0.146E-02    0.08       1.0  T
  11   -397.6052157 -0.144407E-04  0.127E-02    0.08       1.0  T
  12   -397.6052510 -0.353316E-04  0.808E-03    0.08       1.0  T
  13   -397.6052659 -0.148130E-04  0.453E-03    0.08       1.4  T
  14   -397.6052698 -0.392015E-05  0.258E-03    0.08       2.5  T
  15   -397.6052715 -0.171911E-05  0.135E-03    0.08       4.8  T
  16   -397.6052720 -0.493780E-06  0.696E-04    0.08       9.2  T
  17   -397.6052720  0.309745E-07  0.740E-04    0.08       8.7  T
     SCC iter.                  ...        0 min,  1.658 sec
     gradient                   ...        0 min,  0.597 sec
 * total energy  :  -307.7826201 Eh     change       -0.8186956E+01 Eh
   gradient norm :     0.0077354 Eh/α   predicted    -0.3100164E-04 (-100.00%)
   displ. norm   :     0.0148219 α      lambda       -0.1221544E-04
   maximum displ.:     0.0142119 α      in ANC's #25, #22, #41, ...

........................................................................
.............................. CYCLE   84 ..............................
........................................................................

 iter      E             dE          RMSdq      gap      omega  full diag
   1   -397.6080354 -0.397608E+03  0.171E-02    0.08       0.0  T
   2   -397.6073328  0.702587E-03  0.466E-02    0.08       1.0  T
   3   -397.6066118  0.721040E-03  0.698E-02    0.08       1.0  T
   4   -397.6072392 -0.627361E-03  0.438E-02    0.09       1.0  T
   5   -397.6076085 -0.369295E-03  0.331E-02    0.08       1.0  T
   6   -397.6078157 -0.207285E-03  0.251E-02    0.08       1.0  T
   7   -397.6080207 -0.204940E-03  0.911E-03    0.08       1.0  T
   8   -397.6079858  0.348811E-04  0.130E-02    0.08       1.0  T
   9   -397.6080232 -0.373923E-04  0.784E-03    0.08       1.0  T
  10   -397.6080449 -0.216887E-04  0.340E-03    0.08       1.9  T
  11   -397.6080493 -0.446187E-05  0.108E-03    0.08       6.0  T
  12   -397.6080494 -0.488461E-07  0.969E-04    0.08       6.6  T
  13   -397.6080496 -0.225298E-06  0.471E-04    0.08      13.6  T
     SCC iter.                  ...        0 min,  1.302 sec
     gradient                   ...        0 min,  0.590 sec
 * total energy  :  -305.3041312 Eh     change        0.2478489E+01 Eh
   gradient norm :     0.0069130 Eh/α   predicted    -0.6140326E-05 (-100.00%)
   displ. norm   :     0.1273284 α      lambda       -0.4342045E-04
   maximum displ.:     0.1209756 α      in ANC's #25, #22, #1, ...

........................................................................
.............................. CYCLE   85 ..............................
........................................................................

 iter      E             dE          RMSdq      gap      omega  full diag
   1   -397.6237199 -0.397624E+03  0.146E-01    0.09       0.0  T
   2   -397.5716035  0.521164E-01  0.387E-01    0.05       1.0  T
   3   -397.5581556  0.134479E-01  0.450E-01    0.12       1.0  T
   4   -397.5860257 -0.278700E-01  0.341E-01    0.17       1.0  T
   5   -397.5366529  0.493728E-01  0.472E-01    0.05       1.0  T
   6   -397.6101875 -0.735346E-01  0.196E-01    0.11       1.0  T
   7   -397.6206165 -0.104291E-01  0.109E-01    0.10       1.0  T
   8   -397.6192493  0.136723E-02  0.119E-01    0.09       1.0  T
   9   -397.6223522 -0.310285E-02  0.768E-02    0.09       1.0  T
  10   -397.6232018 -0.849630E-03  0.657E-02    0.09       1.0  T
  11   -397.6239006 -0.698836E-03  0.502E-02    0.09       1.0  T
  12   -397.6243612 -0.460620E-03  0.332E-02    0.09       1.0  T
  13   -397.6245929 -0.231626E-03  0.176E-02    0.09       1.0  T
  14   -397.6246730 -0.801341E-04  0.682E-03    0.08       1.0  T
  15   -397.6246804 -0.737086E-05  0.580E-03    0.08       1.1  T
  16   -397.6246797  0.702543E-06  0.586E-03    0.08       1.1  T
  17   -397.6246875 -0.778728E-05  0.329E-03    0.08       2.0  T
  18   -397.6246896 -0.212038E-05  0.175E-03    0.08       3.7  T
  19   -397.6246903 -0.715922E-06  0.905E-04    0.08       7.1  T
  20   -397.6246903 -0.567484E-07  0.815E-04    0.08       7.9  T
     SCC iter.                  ...        0 min,  2.026 sec
     gradient                   ...        0 min,  0.591 sec
 * total energy  :  -275.8409571 Eh     change        0.2946317E+02 Eh
   gradient norm :     0.0050884 Eh/α   predicted    -0.2238103E-04 (-100.00%)
   displ. norm   :     0.0890135 α      lambda       -0.1499472E-04
   maximum displ.:     0.0841052 α      in ANC's #25, #22, #41, ...

........................................................................
.............................. CYCLE   86 ..............................
........................................................................

 iter      E             dE          RMSdq      gap      omega  full diag
   1   -397.6259363 -0.397626E+03  0.102E-01    0.09       0.0  T
   2   -397.6076150  0.183214E-01  0.235E-01    0.05       1.0  T
   3   -397.5911974  0.164176E-01  0.325E-01    0.12       1.0  T
   4   -397.6045814 -0.133840E-01  0.257E-01    0.14       1.0  T
   5   -397.5822364  0.223450E-01  0.330E-01    0.05       1.0  T
   6   -397.6199905 -0.377541E-01  0.130E-01    0.09       1.0  T
   7   -397.6241110 -0.412052E-02  0.789E-02    0.10       1.0  T
   8   -397.6240445  0.665220E-04  0.767E-02    0.09       1.0  T
   9   -397.6254471 -0.140260E-02  0.477E-02    0.09       1.0  T
  10   -397.6259078 -0.460701E-03  0.367E-02    0.09       1.0  T
  11   -397.6261521 -0.244356E-03  0.270E-02    0.09       1.0  T
  12   -397.6262741 -0.121969E-03  0.181E-02    0.09       1.0  T
  13   -397.6263359 -0.618017E-04  0.107E-02    0.09       1.0  T
  14   -397.6263668 -0.309418E-04  0.362E-03    0.08       1.8  T
  15   -397.6263693 -0.250831E-05  0.263E-03    0.08       2.4  T
  16   -397.6263688  0.495940E-06  0.290E-03    0.08       2.2  T
  17   -397.6263708 -0.192631E-05  0.163E-03    0.08       4.0  T
  18   -397.6263712 -0.414564E-06  0.107E-03    0.08       6.0  T
  19   -397.6263715 -0.275339E-06  0.505E-04    0.08      12.7  T
  20   -397.6263715 -0.212905E-07  0.453E-04    0.08      14.2  T
     SCC iter.                  ...        0 min,  2.043 sec
     gradient                   ...        0 min,  0.590 sec
 * total energy  :  -258.7531978 Eh     change        0.1708776E+02 Eh
   gradient norm :     0.0037130 Eh/α   predicted    -0.7630509E-05 (-100.00%)
   displ. norm   :     0.0842563 α      lambda       -0.1291865E-04
   maximum displ.:     0.0792482 α      in ANC's #25, #22, #41, ...

........................................................................
.............................. CYCLE   87 ..............................
........................................................................

 iter      E             dE          RMSdq      gap      omega  full diag
   1   -397.6183122 -0.397618E+03  0.950E-02    0.09       0.0  T
   2   -397.6039985  0.143138E-01  0.212E-01    0.06       1.0  T
   3   -397.5927125  0.112860E-01  0.273E-01    0.12       1.0  T
   4   -397.5982491 -0.553660E-02  0.257E-01    0.12       1.0  T
   5   -397.5688093  0.294397E-01  0.350E-01    0.05       1.0  T
   6   -397.6133673 -0.445580E-01  0.116E-01    0.09       1.0  T
   7   -397.6158444 -0.247705E-02  0.847E-02    0.10       1.0  T
   8   -397.6166196 -0.775280E-03  0.710E-02    0.09       1.0  T
   9   -397.6178153 -0.119567E-02  0.466E-02    0.09       1.0  T
  10   -397.6182734 -0.458046E-03  0.346E-02    0.09       1.0  T
  11   -397.6184860 -0.212602E-03  0.260E-02    0.09       1.0  T
  12   -397.6185849 -0.989652E-04  0.184E-02    0.09       1.0  T
  13   -397.6186385 -0.535324E-04  0.120E-02    0.09       1.0  T
  14   -397.6186810 -0.425724E-04  0.367E-03    0.08       1.8  T
  15   -397.6186835 -0.250126E-05  0.281E-03    0.08       2.3  T
  16   -397.6186832  0.354678E-06  0.294E-03    0.08       2.2  T
  17   -397.6186850 -0.178496E-05  0.173E-03    0.08       3.7  T
  18   -397.6186854 -0.461005E-06  0.116E-03    0.08       5.5  T
  19   -397.6186858 -0.358144E-06  0.456E-04    0.08      14.1  T
  20   -397.6186858 -0.335027E-07  0.339E-04    0.08      19.0  T
     SCC iter.                  ...        0 min,  2.025 sec
     gradient                   ...        0 min,  0.606 sec
 * total energy  :  -270.3705428 Eh     change       -0.1161734E+02 Eh
   gradient norm :     0.0012826 Eh/α   predicted    -0.6563363E-05 (-100.00%)
   displ. norm   :     0.0054090 α      lambda       -0.1245431E-05
   maximum displ.:     0.0046025 α      in ANC's #25, #22, #18, ...

........................................................................
.............................. CYCLE   88 ..............................
........................................................................

 iter      E             dE          RMSdq      gap      omega  full diag
   1   -397.6179264 -0.397618E+03  0.592E-03    0.09       0.0  T
   2   -397.6178711  0.553330E-04  0.128E-02    0.08       1.0  T
   3   -397.6177889  0.821722E-04  0.202E-02    0.09       1.0  T
   4   -397.6178225 -0.336147E-04  0.179E-02    0.09       1.0  T
   5   -397.6178415 -0.189532E-04  0.146E-02    0.08       1.0  T
   6   -397.6179005 -0.590457E-04  0.834E-03    0.08       1.0  T
   7   -397.6179224 -0.218723E-04  0.386E-03    0.09       1.7  T
   8   -397.6179210  0.140585E-05  0.407E-03    0.09       1.6  T
   9   -397.6179243 -0.327725E-05  0.303E-03    0.08       2.1  T
  10   -397.6179281 -0.381245E-05  0.533E-04    0.08      12.1  T
  11   -397.6179281 -0.220171E-07  0.407E-04    0.08      15.8  T
  12   -397.6179282 -0.377442E-07  0.247E-04    0.08      26.1  T
     SCC iter.                  ...        0 min,  1.214 sec
     gradient                   ...        0 min,  0.611 sec
 * total energy  :  -271.7188213 Eh     change       -0.1348279E+01 Eh
   gradient norm :     0.0003912 Eh/α   predicted    -0.6805389E-06 (-100.00%)
   displ. norm   :     0.0053717 α      lambda        0.5879485E-06
   maximum displ.:     0.0048612 α      in ANC's #25, #22, #18, ...

........................................................................
.............................. CYCLE   89 ..............................
........................................................................

 iter      E             dE          RMSdq      gap      omega  full diag
   1   -397.6186485 -0.397619E+03  0.613E-03    0.08       0.0  T
   2   -397.6186251  0.233628E-04  0.101E-02    0.09       1.0  T
   3   -397.6185721  0.530566E-04  0.137E-02    0.08       1.0  T
   4   -397.6185805 -0.846370E-05  0.147E-02    0.09       1.0  T
   5   -397.6184003  0.180277E-03  0.265E-02    0.09       1.0  T
   6   -397.6186333 -0.232996E-03  0.696E-03    0.08       1.0  T
   7   -397.6186401 -0.683875E-05  0.515E-03    0.08       1.2  T
   8   -397.6186449 -0.479348E-05  0.399E-03    0.08       1.6  T
   9   -397.6186493 -0.444407E-05  0.148E-03    0.08       4.4  T
  10   -397.6186497 -0.405619E-06  0.109E-03    0.08       5.9  T
  11   -397.6186502 -0.486322E-06  0.340E-04    0.08      18.9  T
  12   -397.6186502 -0.156415E-07  0.303E-04    0.08      21.2  T
     SCC iter.                  ...        0 min,  1.253 sec
     gradient                   ...        0 min,  0.602 sec
 * total energy  :  -270.3620483 Eh     change        0.1356773E+01 Eh
   gradient norm :     0.0008068 Eh/α   predicted     0.2326632E-06 (-100.00%)
   displ. norm   :     0.0010919 α      lambda       -0.2200551E-06
   maximum displ.:     0.0007262 α      in ANC's #18, #41, #25, ...

........................................................................
.............................. CYCLE   90 ..............................
........................................................................

 iter      E             dE          RMSdq      gap      omega  full diag
   1   -397.6187457 -0.397619E+03  0.113E-03    0.08       0.0  T
   2   -397.6187293  0.163360E-04  0.691E-03    0.09       1.0  T
   3   -397.6187379 -0.854233E-05  0.526E-03    0.09       1.2  T
   4   -397.6187448 -0.691020E-05  0.166E-03    0.08       3.9  T
   5   -397.6187434  0.134329E-05  0.229E-03    0.09       2.8  T
   6   -397.6187455 -0.205868E-05  0.105E-03    0.08       6.1  T
   7   -397.6187456 -0.803429E-07  0.976E-04    0.08       6.6  T
   8   -397.6187458 -0.220228E-06  0.646E-04    0.08       9.9  T
     SCC iter.                  ...        0 min,  0.819 sec
     gradient                   ...        0 min,  0.608 sec
 * total energy  :  -270.2507812 Eh     change        0.1112671E+00 Eh
   gradient norm :     0.0001010 Eh/α   predicted    -0.2557928E-06 (-100.00%)
   displ. norm   :     0.0066909 α      lambda       -0.2427868E-06
   maximum displ.:     0.0063227 α      in ANC's #25, #22, #1, ...

........................................................................
.............................. CYCLE   91 ..............................
........................................................................

 iter      E             dE          RMSdq      gap      omega  full diag
   1   -397.6177655 -0.397618E+03  0.751E-03    0.09       0.0  T
   2   -397.6177036  0.619871E-04  0.138E-02    0.08       1.0  T
   3   -397.6176240  0.795118E-04  0.174E-02    0.09       1.0  T
   4   -397.6177184 -0.943184E-04  0.113E-02    0.08       1.0  T
   5   -397.6176679  0.504455E-04  0.168E-02    0.08       1.0  T
   6   -397.6176681 -0.172844E-06  0.180E-02    0.08       1.0  T
   7   -397.6177488 -0.806817E-04  0.755E-03    0.09       1.0  T
   8   -397.6177545 -0.577931E-05  0.570E-03    0.09       1.1  T
   9   -397.6177620 -0.749658E-05  0.366E-03    0.08       1.8  T
  10   -397.6177677 -0.560870E-05  0.996E-04    0.08       6.5  T
  11   -397.6177679 -0.294017E-06  0.528E-04    0.08      12.2  T
  12   -397.6177680 -0.646877E-07  0.277E-04    0.08      23.2  T
     SCC iter.                  ...        0 min,  1.251 sec
     gradient                   ...        0 min,  0.611 sec
 * total energy  :  -271.9900472 Eh     change       -0.1739266E+01 Eh
   gradient norm :     0.0002101 Eh/α   predicted     0.2441601E-07 (-100.00%)
   displ. norm   :     0.0012557 α      lambda       -0.4101719E-08
   maximum displ.:     0.0011842 α      in ANC's #25, #22, #11, ...

........................................................................
.............................. CYCLE   92 ..............................
........................................................................

 iter      E             dE          RMSdq      gap      omega  full diag
   1   -397.6179598 -0.397618E+03  0.138E-03    0.08       0.0  T
   2   -397.6179568  0.302679E-05  0.295E-03    0.09       2.2  T
   3   -397.6179483  0.852879E-05  0.579E-03    0.08       1.1  T
   4   -397.6179557 -0.745109E-05  0.361E-03    0.08       1.8  T
   5   -397.6179564 -0.686583E-06  0.297E-03    0.09       2.2  T
   6   -397.6179590 -0.257682E-05  0.156E-03    0.08       4.1  T
   7   -397.6179592 -0.267352E-06  0.122E-03    0.08       5.3  T
   8   -397.6179595 -0.292332E-06  0.941E-04    0.08       6.8  T
   9   -397.6179598 -0.223878E-06  0.621E-04    0.08      10.4  T
     SCC iter.                  ...        0 min,  0.948 sec
     gradient                   ...        0 min,  0.615 sec
 * total energy  :  -271.6681105 Eh     change        0.3219367E+00 Eh
   gradient norm :     0.0000556 Eh/α   predicted    -0.2006530E-07 (-100.00%)
   displ. norm   :     0.0004097 α      lambda        0.3575121E-07
   maximum displ.:     0.0003528 α      in ANC's #25, #11, #18, ...
 * RMSD in coord.:     0.1163332 α      energy gain   0.1022023E+03 Eh

generating ANC from exact Hessian ...
Using Lindh-Hessian (1995)
 Shifting diagonal of input Hessian by    1.2756194289541233E-002
 Lowest  eigenvalues of input Hessian
    0.010000    0.012650    0.012706    0.012729    0.012729    0.012735
    0.000000    0.000000    0.000000    0.000000    0.000000    0.000000
    0.012768    0.012780    0.012798    0.012812    0.012820    0.012823
 Highest eigenvalues
    6.175648    9.979239   10.827103   33.663048  137.162402  180.587098


........................................................................
.............................. CYCLE   93 ..............................
........................................................................

 iter      E             dE          RMSdq      gap      omega  full diag
   1   -397.6180130 -0.397618E+03  0.444E-04    0.08       0.0  T
   2   -397.6180114  0.160851E-05  0.215E-03    0.09       3.0  T
   3   -397.6180124 -0.920660E-06  0.156E-03    0.08       4.1  T
   4   -397.6180128 -0.397996E-06  0.874E-04    0.08       7.4  T
   5   -397.6180127  0.841755E-07  0.935E-04    0.09       6.9  T
     SCC iter.                  ...        0 min,  0.522 sec
     gradient                   ...        0 min,  0.626 sec
 * total energy  :  -271.5781733 Eh     change        0.8993724E-01 Eh
   gradient norm :     0.0019626 Eh/α   predicted     0.0000000E+00 (-100.00%)
   displ. norm   :     0.0016114 α      lambda       -0.6673255E-06
   maximum displ.:     0.0011336 α      in ANC's #7, #35, #16, ...

........................................................................
.............................. CYCLE   94 ..............................
........................................................................

 iter      E             dE          RMSdq      gap      omega  full diag
   1   -397.6179406 -0.397618E+03  0.278E-03    0.08       0.0  T
   2   -397.6179284  0.121823E-04  0.612E-03    0.09       1.1  T
   3   -397.6179241  0.436383E-05  0.643E-03    0.08       1.0  T
   4   -397.6179217  0.231629E-05  0.773E-03    0.09       1.0  T
   5   -397.6179159  0.588660E-05  0.853E-03    0.09       1.0  T
   6   -397.6179406 -0.247276E-04  0.185E-03    0.08       3.5  T
   7   -397.6179352  0.540375E-05  0.363E-03    0.09       1.8  T
   8   -397.6179414 -0.618266E-05  0.883E-04    0.09       7.3  T
   9   -397.6179416 -0.223111E-06  0.438E-04    0.08      14.7  T
  10   -397.6179416 -0.662559E-07  0.222E-04    0.09      29.0  T
     SCC iter.                  ...        0 min,  1.050 sec
     gradient                   ...        0 min,  0.618 sec
 * total energy  :  -271.5776365 Eh     change        0.5368329E-03 Eh
   gradient norm :     0.0005330 Eh/α   predicted    -0.1056103E-05 (-100.20%)
   displ. norm   :     0.0006042 α      lambda       -0.1559679E-06
   maximum displ.:     0.0003927 α      in ANC's #7, #35, #16, ...

........................................................................
.............................. CYCLE   95 ..............................
........................................................................

 iter      E             dE          RMSdq      gap      omega  full diag
   1   -397.6179093 -0.397618E+03  0.115E-03    0.09       0.0  T
   2   -397.6179054  0.388254E-05  0.335E-03    0.08       1.9  T
   3   -397.6178946  0.108554E-04  0.668E-03    0.09       1.0  T
   4   -397.6179075 -0.128784E-04  0.241E-03    0.09       2.7  T
   5   -397.6179087 -0.121602E-05  0.154E-03    0.08       4.2  T
   6   -397.6179087  0.626852E-08  0.135E-03    0.09       4.8  T
   7   -397.6179091 -0.372779E-06  0.110E-03    0.08       5.9  T
   8   -397.6179095 -0.404287E-06  0.341E-04    0.09      18.9  T
   9   -397.6179094  0.139322E-07  0.344E-04    0.09      18.7  T
     SCC iter.                  ...        0 min,  0.949 sec
     gradient                   ...        0 min,  0.629 sec
 * total energy  :  -271.5772063 Eh     change        0.4301790E-03 Eh
   gradient norm :     0.0000812 Eh/α   predicted    -0.1072731E-06 (-100.02%)
   displ. norm   :     0.0003454 α      lambda        0.1931881E-06
   maximum displ.:     0.0002258 α      in ANC's #7, #35, #57, ...

........................................................................
.............................. CYCLE   96 ..............................
........................................................................

 iter      E             dE          RMSdq      gap      omega  full diag
   1   -397.6179019 -0.397618E+03  0.667E-04    0.09       0.0  T
   2   -397.6179009  0.100211E-05  0.169E-03    0.09       3.8  T
   3   -397.6179002  0.713369E-06  0.205E-03    0.09       3.1  T
   4   -397.6179016 -0.135434E-05  0.120E-03    0.09       5.4  T
   5   -397.6179012  0.352285E-06  0.158E-03    0.08       4.1  T
   6   -397.6179016 -0.394718E-06  0.947E-04    0.09       6.8  T
   7   -397.6179019 -0.252326E-06  0.591E-04    0.09      10.9  T
     SCC iter.                  ...        0 min,  0.727 sec
     gradient                   ...        0 min,  0.638 sec
 * total energy  :  -271.5779536 Eh     change       -0.7472582E-03 Eh
   gradient norm :     0.0003041 Eh/α   predicted     0.5284057E-07 (-100.01%)
   displ. norm   :     0.0003745 α      lambda        0.1488465E-07
   maximum displ.:     0.0002538 α      in ANC's #7, #35, #57, ...

........................................................................
.............................. CYCLE   97 ..............................
........................................................................

 iter      E             dE          RMSdq      gap      omega  full diag
   1   -397.6179059 -0.397618E+03  0.645E-04    0.09       0.0  T
   2   -397.6179031  0.281979E-05  0.281E-03    0.08       2.3  T
   3   -397.6179025  0.632231E-06  0.337E-03    0.09       1.9  T
   4   -397.6179052 -0.272310E-05  0.147E-03    0.09       4.4  T
   5   -397.6179057 -0.535741E-06  0.841E-04    0.08       7.6  T
   6   -397.6179057  0.447766E-07  0.784E-04    0.09       8.2  T
     SCC iter.                  ...        0 min,  0.636 sec
     gradient                   ...        0 min,  0.622 sec
 * total energy  :  -271.5765783 Eh     change        0.1375279E-02 Eh
   gradient norm :     0.0001168 Eh/α   predicted    -0.3378049E-07 (-100.00%)
   displ. norm   :     0.0003432 α      lambda        0.6711770E-07
   maximum displ.:     0.0002440 α      in ANC's #7, #35, #16, ...

........................................................................
.............................. CYCLE   98 ..............................
........................................................................

 iter      E             dE          RMSdq      gap      omega  full diag
   1   -397.6179122 -0.397618E+03  0.108E-03    0.08       0.0  T
   2   -397.6178835  0.287750E-04  0.756E-03    0.09       1.0  T
   3   -397.6179098 -0.263126E-04  0.257E-03    0.08       2.5  T
   4   -397.6179077  0.208111E-05  0.383E-03    0.08       1.7  T
   5   -397.6179119 -0.422032E-05  0.131E-03    0.09       4.9  T
   6   -397.6179124 -0.451378E-06  0.718E-04    0.08       8.9  T
   7   -397.6179125 -0.768953E-07  0.543E-04    0.08      11.8  T
     SCC iter.                  ...        0 min,  0.740 sec
     gradient                   ...        0 min,  0.623 sec
 * total energy  :  -271.5756025 Eh     change        0.9757409E-03 Eh
   gradient norm :     0.0003330 Eh/α   predicted     0.3287928E-07 (-100.00%)
   displ. norm   :     0.0003563 α      lambda       -0.1869682E-07
   maximum displ.:     0.0002610 α      in ANC's #7, #35, #16, ...

........................................................................
.............................. CYCLE   99 ..............................
........................................................................

 iter      E             dE          RMSdq      gap      omega  full diag
   1   -397.6178997 -0.397618E+03  0.623E-04    0.09       0.0  T
   2   -397.6178971  0.263339E-05  0.273E-03    0.08       2.4  T
   3   -397.6178991 -0.206915E-05  0.142E-03    0.09       4.5  T
   4   -397.6178977  0.142299E-05  0.259E-03    0.09       2.5  T
   5   -397.6178994 -0.166710E-05  0.107E-03    0.09       6.0  T
   6   -397.6178996 -0.227759E-06  0.651E-04    0.08       9.9  T
   7   -397.6178996 -0.143854E-08  0.638E-04    0.09      10.1  T
     SCC iter.                  ...        0 min,  0.734 sec
     gradient                   ...        0 min,  0.642 sec
 * total energy  :  -271.5760697 Eh     change       -0.4671983E-03 Eh
   gradient norm :     0.0000773 Eh/α   predicted    -0.3850963E-07 ( -99.99%)
   displ. norm   :     0.0001323 α      lambda        0.5486323E-07
   maximum displ.:     0.0000963 α      in ANC's #7, #57, #35, ...

........................................................................
.............................. CYCLE  100 ..............................
........................................................................

 iter      E             dE          RMSdq      gap      omega  full diag
   1   -397.6178974 -0.397618E+03  0.428E-04    0.09       0.0  T
   2   -397.6178926  0.476387E-05  0.323E-03    0.09       2.0  T
   3   -397.6178970 -0.440436E-05  0.118E-03    0.09       5.4  T
   4   -397.6178971 -0.948701E-07  0.104E-03    0.09       6.2  T
   5   -397.6178973 -0.185448E-06  0.582E-04    0.09      11.0  T
   6   -397.6178974 -0.118216E-06  0.276E-04    0.09      23.3  T
     SCC iter.                  ...        0 min,  0.634 sec
     gradient                   ...        0 min,  0.641 sec
 * total energy  :  -271.5760400 Eh     change        0.2968516E-04 Eh
   gradient norm :     0.0001235 Eh/α   predicted     0.6967736E-08 ( -99.98%)
   displ. norm   :     0.0001323 α      lambda        0.0000000E+00
   maximum displ.:     0.0000963 α      in ANC's #7, #57, #35, ...

........................................................................
.............................. CYCLE  101 ..............................
........................................................................

 iter      E             dE          RMSdq      gap      omega  full diag
   1   -397.6178951 -0.397618E+03  0.415E-04    0.09       0.0  T
   2   -397.6178912  0.386966E-05  0.295E-03    0.08       2.2  T
   3   -397.6178942 -0.292619E-05  0.171E-03    0.09       3.8  T
   4   -397.6178948 -0.635453E-06  0.999E-04    0.09       6.4  T
   5   -397.6178951 -0.307323E-06  0.375E-04    0.09      17.1  T
     SCC iter.                  ...        0 min,  0.525 sec
     gradient                   ...        0 min,  0.634 sec
 * total energy  :  -271.5760102 Eh     change        0.2987016E-04 Eh
   gradient norm :     0.0002205 Eh/α   predicted     0.1471187E-07 ( -99.95%)
   displ. norm   :     0.0003287 α      lambda       -0.1119792E-07
   maximum displ.:     0.0002157 α      in ANC's #7, #57, #35, ...

........................................................................
.............................. CYCLE  102 ..............................
........................................................................

 iter      E             dE          RMSdq      gap      omega  full diag
   1   -397.6178997 -0.397618E+03  0.488E-04    0.09       0.0  T
   2   -397.6178975  0.218705E-05  0.226E-03    0.08       2.8  T
   3   -397.6178989 -0.143844E-05  0.147E-03    0.09       4.4  T
   4   -397.6178986  0.340835E-06  0.189E-03    0.08       3.4  T
   5   -397.6178995 -0.922611E-06  0.741E-04    0.08       8.7  T
   6   -397.6178996 -0.833867E-07  0.573E-04    0.09      11.2  T
     SCC iter.                  ...        0 min,  0.636 sec
     gradient                   ...        0 min,  0.646 sec
 * total energy  :  -271.5758032 Eh     change        0.2069453E-03 Eh
   gradient norm :     0.0000780 Eh/α   predicted    -0.2217091E-07 (-100.01%)
   displ. norm   :     0.0003243 α      lambda        0.3618482E-07
   maximum displ.:     0.0002146 α      in ANC's #7, #57, #35, ...

........................................................................
.............................. CYCLE  103 ..............................
........................................................................

 iter      E             dE          RMSdq      gap      omega  full diag
   1   -397.6179042 -0.397618E+03  0.732E-04    0.08       0.0  T
   2   -397.6178960  0.812276E-05  0.425E-03    0.09       1.5  T
   3   -397.6179029 -0.684155E-05  0.175E-03    0.08       3.7  T
   4   -397.6179037 -0.833252E-06  0.135E-03    0.09       4.8  T
   5   -397.6179037  0.275911E-07  0.138E-03    0.08       4.7  T
   6   -397.6179038 -0.949483E-07  0.106E-03    0.08       6.1  T
   7   -397.6179043 -0.463292E-06  0.327E-04    0.09      19.7  T
   8   -397.6179042  0.659196E-08  0.335E-04    0.08      19.2  T
     SCC iter.                  ...        0 min,  0.874 sec
     gradient                   ...        0 min,  0.622 sec
 * total energy  :  -271.5756049 Eh     change        0.1983498E-03 Eh
   gradient norm :     0.0002834 Eh/α   predicted     0.1808589E-07 ( -99.99%)
   displ. norm   :     0.0003524 α      lambda        0.1178323E-06
   maximum displ.:     0.0003271 α      in ANC's #57, #7, #35, ...

........................................................................
.............................. CYCLE  104 ..............................
........................................................................

 iter      E             dE          RMSdq      gap      omega  full diag
   1   -397.6179071 -0.397618E+03  0.788E-04    0.09       0.0  T
   2   -397.6179000  0.715040E-05  0.449E-03    0.09       1.4  T
   3   -397.6179028 -0.286673E-05  0.385E-03    0.08       1.7  T
   4   -397.6179055 -0.270105E-05  0.210E-03    0.08       3.1  T
   5   -397.6179072 -0.161100E-05  0.529E-04    0.09      12.2  T
   6   -397.6179071  0.402318E-07  0.691E-04    0.08       9.3  T
   7   -397.6179072 -0.111168E-06  0.315E-04    0.09      20.4  T
     SCC iter.                  ...        0 min,  0.750 sec
     gradient                   ...        0 min,  0.649 sec
 * total energy  :  -271.5751524 Eh     change        0.4524350E-03 Eh
   gradient norm :     0.0003800 Eh/α   predicted     0.2902807E-07 ( -99.99%)
   displ. norm   :     0.0002049 α      lambda       -0.1815890E-07
   maximum displ.:     0.0001338 α      in ANC's #7, #57, #26, ...

........................................................................
.............................. CYCLE  105 ..............................
........................................................................

 iter      E             dE          RMSdq      gap      omega  full diag
   1   -397.6178950 -0.397618E+03  0.392E-04    0.09       0.0  T
   2   -397.6178922  0.280355E-05  0.256E-03    0.09       2.5  T
   3   -397.6178949 -0.268547E-05  0.662E-04    0.08       9.7  T
   4   -397.6178948  0.102878E-06  0.852E-04    0.09       7.5  T
   5   -397.6178949 -0.163551E-06  0.585E-04    0.09      11.0  T
     SCC iter.                  ...        0 min,  0.532 sec
     gradient                   ...        0 min,  0.635 sec
 * total energy  :  -271.5745045 Eh     change        0.6479502E-03 Eh
   gradient norm :     0.0002428 Eh/α   predicted    -0.2040946E-07 (-100.00%)
   displ. norm   :     0.0004995 α      lambda       -0.3689685E-07
   maximum displ.:     0.0004222 α      in ANC's #57, #7, #35, ...

........................................................................
.............................. CYCLE  106 ..............................
........................................................................

 iter      E             dE          RMSdq      gap      omega  full diag
   1   -397.6178874 -0.397618E+03  0.112E-03    0.08       0.0  T
   2   -397.6178487  0.387303E-04  0.109E-02    0.09       1.0  T
   3   -397.6178821 -0.334104E-04  0.440E-03    0.09       1.5  T
   4   -397.6178854 -0.326839E-05  0.229E-03    0.08       2.8  T
   5   -397.6178872 -0.180470E-05  0.110E-03    0.09       5.8  T
   6   -397.6178870  0.177522E-06  0.130E-03    0.08       5.0  T
   7   -397.6178876 -0.613625E-06  0.564E-04    0.09      11.4  T
   8   -397.6178877 -0.888486E-07  0.387E-04    0.09      16.6  T
     SCC iter.                  ...        0 min,  0.876 sec
     gradient                   ...        0 min,  0.649 sec
 * total energy  :  -271.5734949 Eh     change        0.1009640E-02 Eh
   gradient norm :     0.0000948 Eh/α   predicted    -0.2957190E-07 (-100.00%)
   displ. norm   :     0.0004995 α      lambda        0.0000000E+00
   maximum displ.:     0.0004222 α      in ANC's #57, #7, #35, ...

........................................................................
.............................. CYCLE  107 ..............................
........................................................................

 iter      E             dE          RMSdq      gap      omega  full diag
   1   -397.6178803 -0.397618E+03  0.102E-03    0.09       0.0  T
   2   -397.6178639  0.163786E-04  0.716E-03    0.09       1.0  T
   3   -397.6178730 -0.913808E-05  0.512E-03    0.09       1.3  T
   4   -397.6178796 -0.657898E-05  0.144E-03    0.08       4.5  T
   5   -397.6178796  0.425144E-07  0.138E-03    0.09       4.7  T
   6   -397.6178799 -0.367022E-06  0.115E-03    0.08       5.6  T
   7   -397.6178803 -0.364805E-06  0.692E-04    0.09       9.3  T
   8   -397.6178805 -0.188695E-06  0.259E-04    0.09      24.8  T
     SCC iter.                  ...        0 min,  0.851 sec
     gradient                   ...        0 min,  0.662 sec
 * total energy  :  -271.5724848 Eh     change        0.1010065E-02 Eh
   gradient norm :     0.0002363 Eh/α   predicted    -0.4056661E-08 (-100.00%)
   displ. norm   :     0.0008380 α      lambda       -0.2413468E-07
   maximum displ.:     0.0008075 α      in ANC's #57, #26, #7, ...

........................................................................
.............................. CYCLE  108 ..............................
........................................................................

 iter      E             dE          RMSdq      gap      omega  full diag
   1   -397.6178827 -0.397618E+03  0.167E-03    0.08       0.0  T
   2   -397.6178499  0.327592E-04  0.989E-03    0.09       1.0  T
   3   -397.6178613 -0.113703E-04  0.874E-03    0.09       1.0  T
   4   -397.6178776 -0.162898E-04  0.381E-03    0.08       1.7  T
   5   -397.6178817 -0.408988E-05  0.183E-03    0.09       3.5  T
   6   -397.6178812  0.474579E-06  0.229E-03    0.09       2.8  T
   7   -397.6178833 -0.206424E-05  0.448E-04    0.09      14.3  T
   8   -397.6178832  0.356869E-07  0.513E-04    0.08      12.5  T
   9   -397.6178832  0.100468E-07  0.545E-04    0.09      11.8  T
     SCC iter.                  ...        0 min,  0.956 sec
     gradient                   ...        0 min,  0.643 sec
 * total energy  :  -271.5710113 Eh     change        0.1473485E-02 Eh
   gradient norm :     0.0001400 Eh/α   predicted    -0.2834587E-07 (-100.00%)
   displ. norm   :     0.0094866 α      lambda       -0.3407376E-06
   maximum displ.:     0.0092146 α      in ANC's #57, #26, #2, ...

........................................................................
.............................. CYCLE  109 ..............................
........................................................................

 iter      E             dE          RMSdq      gap      omega  full diag
   1   -397.6178316 -0.397618E+03  0.180E-02    0.08       0.0  T
   2   -397.6152446  0.258694E-02  0.894E-02    0.10       1.0  T
   3   -397.6153613 -0.116674E-03  0.939E-02    0.08       1.0  T
   4   -397.6170806 -0.171932E-02  0.455E-02    0.08       1.0  T
   5   -397.6177155 -0.634857E-03  0.194E-02    0.09       1.0  T
   6   -397.6177162 -0.732107E-06  0.221E-02    0.09       1.0  T
   7   -397.6178862 -0.169965E-03  0.580E-03    0.08       1.1  T
   8   -397.6178912 -0.506829E-05  0.491E-03    0.08       1.3  T
   9   -397.6178855  0.569372E-05  0.596E-03    0.08       1.1  T
  10   -397.6178942 -0.860602E-05  0.380E-03    0.08       1.7  T
  11   -397.6178989 -0.474216E-05  0.160E-03    0.08       4.0  T
  12   -397.6178996 -0.683744E-06  0.797E-04    0.08       8.1  T
  13   -397.6178997 -0.119355E-06  0.426E-04    0.08      15.1  T
     SCC iter.                  ...        0 min,  1.465 sec
     gradient                   ...        0 min,  0.668 sec
 * total energy  :  -271.5531633 Eh     change        0.1784797E-01 Eh
   gradient norm :     0.0004480 Eh/α   predicted    -0.2192393E-06 (-100.00%)
   displ. norm   :     0.0205611 α      lambda       -0.6318799E-06
   maximum displ.:     0.0199985 α      in ANC's #57, #26, #2, ...

........................................................................
.............................. CYCLE  110 ..............................
........................................................................

 iter      E             dE          RMSdq      gap      omega  full diag
   1   -397.6176015 -0.397618E+03  0.394E-02    0.08       0.0  T
   2   -397.6065768  0.110247E-01  0.185E-01    0.11       1.0  T
   3   -397.6062791  0.297708E-03  0.202E-01    0.08       1.0  T
   4   -397.6137635 -0.748432E-02  0.103E-01    0.07       1.0  T
   5   -397.6170626 -0.329910E-02  0.417E-02    0.10       1.0  T
   6   -397.6170841 -0.215093E-04  0.471E-02    0.08       1.0  T
   7   -397.6178316 -0.747548E-03  0.149E-02    0.08       1.0  T
   8   -397.6178894 -0.577842E-04  0.100E-02    0.08       1.0  T
   9   -397.6178476  0.418182E-04  0.139E-02    0.09       1.0  T
  10   -397.6178969 -0.492941E-04  0.837E-03    0.08       1.0  T
  11   -397.6179158 -0.188734E-04  0.456E-03    0.08       1.4  T
  12   -397.6179209 -0.511295E-05  0.229E-03    0.08       2.8  T
  13   -397.6179221 -0.123455E-05  0.102E-03    0.08       6.3  T
  14   -397.6179224 -0.257382E-06  0.511E-04    0.08      12.6  T
  15   -397.6179224 -0.176408E-07  0.412E-04    0.08      15.6  T
     SCC iter.                  ...        0 min,  1.725 sec
     gradient                   ...        0 min,  0.639 sec
 * total energy  :  -271.5133356 Eh     change        0.3982771E-01 Eh
   gradient norm :     0.0009227 Eh/α   predicted    -0.3489553E-06 (-100.00%)
   displ. norm   :     0.0544390 α      lambda       -0.1514461E-05
   maximum displ.:     0.0529636 α      in ANC's #57, #26, #2, ...

........................................................................
.............................. CYCLE  111 ..............................
........................................................................

 iter      E             dE          RMSdq      gap      omega  full diag
   1   -397.6156542 -0.397616E+03  0.111E-01    0.08       0.0  T
   2   -397.5461175  0.695367E-01  0.467E-01    0.13       1.0  T
   3   -397.5541674 -0.804993E-02  0.476E-01    0.09       1.0  T
   4   -397.5842835 -0.301161E-01  0.298E-01    0.05       1.0  T
   5   -397.6120663 -0.277828E-01  0.110E-01    0.12       1.0  T
   6   -397.6128741 -0.807785E-03  0.117E-01    0.08       1.0  T
   7   -397.6170407 -0.416662E-02  0.510E-02    0.08       1.0  T
   8   -397.6177312 -0.690459E-03  0.336E-02    0.09       1.0  T
   9   -397.6172695  0.461682E-03  0.471E-02    0.09       1.0  T
  10   -397.6177250 -0.455559E-03  0.339E-02    0.08       1.0  T
  11   -397.6178524 -0.127422E-03  0.269E-02    0.09       1.0  T
  12   -397.6180183 -0.165878E-03  0.135E-02    0.09       1.0  T
  13   -397.6180736 -0.552508E-04  0.393E-03    0.08       1.6  T
  14   -397.6180709  0.267077E-05  0.468E-03    0.08       1.4  T
  15   -397.6180740 -0.309869E-05  0.351E-03    0.08       1.8  T
  16   -397.6180726  0.144800E-05  0.393E-03    0.08       1.6  T
  17   -397.6180750 -0.246333E-05  0.273E-03    0.08       2.4  T
  18   -397.6180772 -0.222100E-05  0.686E-04    0.08       9.4  T
  19   -397.6180771  0.174376E-06  0.110E-03    0.08       5.9  T
  20   -397.6180771 -0.344851E-07  0.106E-03    0.08       6.1  T
  21   -397.6180772 -0.101905E-06  0.827E-04    0.08       7.8  T
  22   -397.6180773 -0.146549E-06  0.384E-04    0.08      16.8  T
     SCC iter.                  ...        0 min,  2.397 sec
     gradient                   ...        0 min,  0.652 sec
 * total energy  :  -271.4024052 Eh     change        0.1109304E+00 Eh
   gradient norm :     0.0014560 Eh/α   predicted    -0.8508823E-06 (-100.00%)
   displ. norm   :     0.0534353 α      lambda       -0.1324809E-05
   maximum displ.:     0.0519775 α      in ANC's #57, #26, #2, ...

........................................................................
.............................. CYCLE  112 ..............................
........................................................................

 iter      E             dE          RMSdq      gap      omega  full diag
   1   -397.6159841 -0.397616E+03  0.116E-01    0.08       0.0  T
   2   -397.5459158  0.700682E-01  0.465E-01    0.13       1.0  T
   3   -397.5495813 -0.366542E-02  0.492E-01    0.09       1.0  T
   4   -397.5784302 -0.288489E-01  0.323E-01    0.05       1.0  T
   5   -397.6117243 -0.332941E-01  0.117E-01    0.12       1.0  T
   6   -397.6134678 -0.174353E-02  0.115E-01    0.08       1.0  T
   7   -397.6172459 -0.377806E-02  0.538E-02    0.08       1.0  T
   8   -397.6180579 -0.812033E-03  0.334E-02    0.09       1.0  T
   9   -397.6176244  0.433522E-03  0.472E-02    0.09       1.0  T
  10   -397.6179631 -0.338724E-03  0.382E-02    0.08       1.0  T
  11   -397.6180698 -0.106698E-03  0.330E-02    0.09       1.0  T
  12   -397.6182841 -0.214268E-03  0.198E-02    0.09       1.0  T
  13   -397.6184069 -0.122821E-03  0.418E-03    0.08       1.5  T
  14   -397.6184070 -0.489263E-07  0.415E-03    0.08       1.6  T
  15   -397.6184075 -0.488328E-06  0.391E-03    0.08       1.6  T
  16   -397.6184072  0.227891E-06  0.386E-03    0.08       1.7  T
  17   -397.6184097 -0.248554E-05  0.241E-03    0.08       2.7  T
  18   -397.6184113 -0.160752E-05  0.878E-04    0.08       7.3  T
  19   -397.6184111  0.234465E-06  0.136E-03    0.08       4.7  T
  20   -397.6184113 -0.223333E-06  0.104E-03    0.08       6.2  T
  21   -397.6184114 -0.517360E-07  0.897E-04    0.08       7.2  T
  22   -397.6184116 -0.181978E-06  0.321E-04    0.08      20.0  T
     SCC iter.                  ...        0 min,  2.424 sec
     gradient                   ...        0 min,  0.644 sec
 * total energy  :  -271.2844168 Eh     change        0.1179884E+00 Eh
   gradient norm :     0.0012528 Eh/α   predicted    -0.7351211E-06 (-100.00%)
   displ. norm   :     0.0152655 α      lambda       -0.5949998E-06
   maximum displ.:     0.0148006 α      in ANC's #57, #26, #2, ...

........................................................................
.............................. CYCLE  113 ..............................
........................................................................

 iter      E             dE          RMSdq      gap      omega  full diag
   1   -397.6183308 -0.397618E+03  0.338E-02    0.08       0.0  T
   2   -397.6119960  0.633481E-02  0.138E-01    0.10       1.0  T
   3   -397.6092854  0.271060E-02  0.178E-01    0.08       1.0  T
   4   -397.6146066 -0.532121E-02  0.986E-02    0.07       1.0  T
   5   -397.6178594 -0.325275E-02  0.374E-02    0.09       1.0  T
   6   -397.6181009 -0.241526E-03  0.340E-02    0.08       1.0  T
   7   -397.6184432 -0.342303E-03  0.139E-02    0.08       1.0  T
   8   -397.6185027 -0.595389E-04  0.757E-03    0.08       1.0  T
   9   -397.6184899  0.127852E-04  0.941E-03    0.08       1.0  T
  10   -397.6185022 -0.122641E-04  0.762E-03    0.08       1.0  T
  11   -397.6185184 -0.161905E-04  0.423E-03    0.08       1.5  T
  12   -397.6185214 -0.295639E-05  0.292E-03    0.08       2.2  T
  13   -397.6185237 -0.231105E-05  0.101E-03    0.08       6.4  T
  14   -397.6185239 -0.255610E-06  0.428E-04    0.08      15.0  T
  15   -397.6185239 -0.162997E-07  0.352E-04    0.08      18.3  T
     SCC iter.                  ...        0 min,  1.656 sec
     gradient                   ...        0 min,  0.662 sec
 * total energy  :  -271.2480699 Eh     change        0.3634691E-01 Eh
   gradient norm :     0.0004757 Eh/α   predicted    -0.3738523E-06 (-100.00%)
   displ. norm   :     0.0065501 α      lambda       -0.1636461E-06
   maximum displ.:     0.0063748 α      in ANC's #57, #26, #2, ...

........................................................................
.............................. CYCLE  114 ..............................
........................................................................

 iter      E             dE          RMSdq      gap      omega  full diag
   1   -397.6183974 -0.397618E+03  0.145E-02    0.08       0.0  T
   2   -397.6170777  0.131968E-02  0.616E-02    0.08       1.0  T
   3   -397.6165711  0.506619E-03  0.789E-02    0.09       1.0  T
   4   -397.6177663 -0.119517E-02  0.404E-02    0.09       1.0  T
   5   -397.6183187 -0.552389E-03  0.160E-02    0.08       1.0  T
   6   -397.6183441 -0.254591E-04  0.155E-02    0.08       1.0  T
   7   -397.6184234 -0.792329E-04  0.468E-03    0.08       1.4  T
   8   -397.6184273 -0.391389E-05  0.359E-03    0.08       1.8  T
   9   -397.6184278 -0.482900E-06  0.341E-03    0.08       1.9  T
  10   -397.6184287 -0.934495E-06  0.304E-03    0.08       2.1  T
  11   -397.6184320 -0.327734E-05  0.101E-03    0.08       6.4  T
  12   -397.6184322 -0.204942E-06  0.528E-04    0.08      12.2  T
  13   -397.6184322 -0.517229E-07  0.333E-04    0.08      19.3  T
     SCC iter.                  ...        0 min,  1.430 sec
     gradient                   ...        0 min,  0.654 sec
 * total energy  :  -271.2625901 Eh     change       -0.1452017E-01 Eh
   gradient norm :     0.0000521 Eh/α   predicted    -0.8914535E-07 (-100.00%)
   displ. norm   :     0.0036285 α      lambda        0.1510998E-06
   maximum displ.:     0.0034808 α      in ANC's #57, #26, #2, ...

........................................................................
.............................. CYCLE  115 ..............................
........................................................................

 iter      E             dE          RMSdq      gap      omega  full diag
   1   -397.6184287 -0.397618E+03  0.803E-03    0.08       0.0  T
   2   -397.6180840  0.344684E-03  0.319E-02    0.09       1.0  T
   3   -397.6178623  0.221712E-03  0.442E-02    0.08       1.0  T
   4   -397.6182330 -0.370734E-03  0.227E-02    0.08       1.0  T
   5   -397.6183994 -0.166415E-03  0.930E-03    0.09       1.0  T
   6   -397.6184147 -0.152488E-04  0.820E-03    0.08       1.0  T
   7   -397.6184354 -0.207035E-04  0.312E-03    0.08       2.1  T
   8   -397.6184382 -0.287177E-05  0.176E-03    0.08       3.7  T
   9   -397.6184376  0.599577E-06  0.211E-03    0.08       3.0  T
  10   -397.6184383 -0.616166E-06  0.171E-03    0.08       3.8  T
  11   -397.6184393 -0.101237E-05  0.660E-04    0.08       9.7  T
  12   -397.6184394 -0.839427E-07  0.402E-04    0.08      16.0  T
  13   -397.6184394 -0.355483E-07  0.216E-04    0.08      29.8  T
     SCC iter.                  ...        0 min,  1.443 sec
     gradient                   ...        0 min,  0.654 sec
 * total energy  :  -271.2537591 Eh     change        0.8831015E-02 Eh
   gradient norm :     0.0004370 Eh/α   predicted     0.7003357E-07 (-100.00%)
   displ. norm   :     0.0004853 α      lambda       -0.1372419E-07
   maximum displ.:     0.0003111 α      in ANC's #7, #24, #35, ...

........................................................................
.............................. CYCLE  116 ..............................
........................................................................

 iter      E             dE          RMSdq      gap      omega  full diag
   1   -397.6184747 -0.397618E+03  0.769E-04    0.08       0.0  T
   2   -397.6184719  0.283088E-05  0.287E-03    0.08       2.2  T
   3   -397.6184689  0.296424E-05  0.436E-03    0.08       1.5  T
   4   -397.6184732 -0.426115E-05  0.195E-03    0.08       3.3  T
   5   -397.6184745 -0.132358E-05  0.939E-04    0.08       6.8  T
   6   -397.6184745 -0.644160E-07  0.745E-04    0.08       8.6  T
   7   -397.6184745  0.319483E-07  0.802E-04    0.08       8.0  T
     SCC iter.                  ...        0 min,  0.774 sec
     gradient                   ...        0 min,  0.662 sec
 * total energy  :  -271.2541471 Eh     change       -0.3880428E-03 Eh
   gradient norm :     0.0000478 Eh/α   predicted    -0.6404472E-07 ( -99.98%)
   displ. norm   :     0.0031724 α      lambda        0.3647199E-07
   maximum displ.:     0.0030867 α      in ANC's #57, #26, #2, ...

........................................................................
.............................. CYCLE  117 ..............................
........................................................................

 iter      E             dE          RMSdq      gap      omega  full diag
   1   -397.6184991 -0.397618E+03  0.711E-03    0.08       0.0  T
   2   -397.6181897  0.309365E-03  0.302E-02    0.09       1.0  T
   3   -397.6180800  0.109684E-03  0.382E-02    0.08       1.0  T
   4   -397.6183294 -0.249353E-03  0.209E-02    0.08       1.0  T
   5   -397.6184795 -0.150189E-03  0.785E-03    0.09       1.0  T
   6   -397.6184907 -0.111028E-04  0.700E-03    0.08       1.0  T
   7   -397.6185050 -0.143022E-04  0.248E-03    0.08       2.6  T
   8   -397.6185068 -0.184434E-05  0.140E-03    0.08       4.6  T
   9   -397.6185066  0.206353E-06  0.157E-03    0.08       4.1  T
  10   -397.6185068 -0.245862E-06  0.124E-03    0.08       5.2  T
  11   -397.6185073 -0.418641E-06  0.703E-04    0.08       9.1  T
  12   -397.6185074 -0.152415E-06  0.385E-04    0.08      16.7  T
     SCC iter.                  ...        0 min,  1.343 sec
     gradient                   ...        0 min,  0.672 sec
 * total energy  :  -271.2469316 Eh     change        0.7215473E-02 Eh
   gradient norm :     0.0001197 Eh/α   predicted     0.1077576E-07 (-100.00%)
   displ. norm   :     0.0047195 α      lambda        0.4495215E-07
   maximum displ.:     0.0045864 α      in ANC's #57, #26, #2, ...

........................................................................
.............................. CYCLE  118 ..............................
........................................................................

 iter      E             dE          RMSdq      gap      omega  full diag
   1   -397.6185332 -0.397619E+03  0.107E-02    0.08       0.0  T
   2   -397.6178300  0.703199E-03  0.457E-02    0.09       1.0  T
   3   -397.6175719  0.258117E-03  0.579E-02    0.08       1.0  T
   4   -397.6181617 -0.589849E-03  0.307E-02    0.08       1.0  T
   5   -397.6184890 -0.327327E-03  0.117E-02    0.09       1.0  T
   6   -397.6185099 -0.208906E-04  0.108E-02    0.08       1.0  T
   7   -397.6185459 -0.360032E-04  0.381E-03    0.08       1.7  T
   8   -397.6185499 -0.395784E-05  0.238E-03    0.08       2.7  T
   9   -397.6185495  0.438781E-06  0.258E-03    0.08       2.5  T
  10   -397.6185498 -0.362178E-06  0.237E-03    0.08       2.7  T
  11   -397.6185517 -0.192614E-05  0.937E-04    0.08       6.9  T
  12   -397.6185519 -0.154048E-06  0.606E-04    0.08      10.6  T
  13   -397.6185520 -0.839313E-07  0.299E-04    0.08      21.5  T
     SCC iter.                  ...        0 min,  1.417 sec
     gradient                   ...        0 min,  0.670 sec
 * total energy  :  -271.2357658 Eh     change        0.1116585E-01 Eh
   gradient norm :     0.0001075 Eh/α   predicted     0.1696444E-07 (-100.00%)
   displ. norm   :     0.0017841 α      lambda        0.5143945E-07
   maximum displ.:     0.0017435 α      in ANC's #57, #26, #2, ...

........................................................................
.............................. CYCLE  119 ..............................
........................................................................

 iter      E             dE          RMSdq      gap      omega  full diag
   1   -397.6185732 -0.397619E+03  0.407E-03    0.08       0.0  T
   2   -397.6184611  0.112092E-03  0.184E-02    0.09       1.0  T
   3   -397.6184298  0.312432E-04  0.224E-02    0.08       1.0  T
   4   -397.6185247 -0.948937E-04  0.109E-02    0.08       1.0  T
   5   -397.6185665 -0.417569E-04  0.451E-03    0.08       1.4  T
   6   -397.6185699 -0.338106E-05  0.407E-03    0.08       1.6  T
   7   -397.6185751 -0.518263E-05  0.140E-03    0.08       4.6  T
   8   -397.6185756 -0.501495E-06  0.912E-04    0.08       7.1  T
   9   -397.6185755  0.561891E-07  0.975E-04    0.08       6.6  T
     SCC iter.                  ...        0 min,  1.009 sec
     gradient                   ...        0 min,  0.644 sec
 * total energy  :  -271.2321025 Eh     change        0.3663264E-02 Eh
   gradient norm :     0.0001965 Eh/α   predicted     0.1968578E-07 (-100.00%)
   displ. norm   :     0.0025415 α      lambda        0.1675540E-07
   maximum displ.:     0.0024761 α      in ANC's #57, #26, #2, ...

........................................................................
.............................. CYCLE  120 ..............................
........................................................................

 iter      E             dE          RMSdq      gap      omega  full diag
   1   -397.6185992 -0.397619E+03  0.594E-03    0.08       0.0  T
   2   -397.6183512  0.248029E-03  0.270E-02    0.09       1.0  T
   3   -397.6183284  0.227887E-04  0.309E-02    0.08       1.0  T
   4   -397.6184742 -0.145810E-03  0.180E-02    0.08       1.0  T
   5   -397.6185875 -0.113276E-03  0.631E-03    0.08       1.0  T
   6   -397.6185895 -0.205592E-05  0.633E-03    0.08       1.0  T
   7   -397.6186036 -0.141040E-04  0.201E-03    0.08       3.2  T
   8   -397.6186048 -0.113878E-05  0.123E-03    0.08       5.2  T
   9   -397.6186039  0.859659E-06  0.180E-03    0.08       3.6  T
  10   -397.6186050 -0.109973E-05  0.990E-04    0.08       6.5  T
  11   -397.6186053 -0.273152E-06  0.490E-04    0.08      13.1  T
  12   -397.6186053 -0.261829E-07  0.340E-04    0.08      18.9  T
     SCC iter.                  ...        0 min,  1.346 sec
     gradient                   ...        0 min,  0.660 sec
 * total energy  :  -271.2264473 Eh     change        0.5655248E-02 Eh
   gradient norm :     0.0000903 Eh/α   predicted     0.8298223E-08 (-100.00%)
   displ. norm   :     0.0148240 α      lambda       -0.3867050E-07
   maximum displ.:     0.0144533 α      in ANC's #57, #26, #2, ...
 * RMSD in coord.:     0.0096593 α      energy gain   0.4416633E+00 Eh

generating ANC from exact Hessian ...
Using Lindh-Hessian (1995)
 Shifting diagonal of input Hessian by    1.2752725252121646E-002
 Lowest  eigenvalues of input Hessian
    0.010000    0.012646    0.012702    0.012726    0.012726    0.012732
    0.000000    0.000000    0.000000    0.000000    0.000000    0.000000
    0.012765    0.012777    0.012794    0.012808    0.012817    0.012819
 Highest eigenvalues
    6.177085    9.982007   10.826221   33.694627  136.237578  181.733344


........................................................................
.............................. CYCLE  121 ..............................
........................................................................

 iter      E             dE          RMSdq      gap      omega  full diag
   1   -397.6182558 -0.397618E+03  0.330E-02    0.09       0.0  T
   2   -397.6113626  0.689321E-02  0.141E-01    0.07       1.0  T
   3   -397.6085609  0.280173E-02  0.181E-01    0.09       1.0  T
   4   -397.6153757 -0.681477E-02  0.866E-02    0.10       1.0  T
   5   -397.6177972 -0.242158E-02  0.383E-02    0.08       1.0  T
   6   -397.6179792 -0.181991E-03  0.351E-02    0.08       1.0  T
   7   -397.6183936 -0.414407E-03  0.102E-02    0.08       1.0  T
   8   -397.6184155 -0.218956E-04  0.720E-03    0.08       1.0  T
   9   -397.6184066  0.897092E-05  0.842E-03    0.08       1.0  T
  10   -397.6184181 -0.115958E-04  0.671E-03    0.08       1.0  T
  11   -397.6184330 -0.148334E-04  0.262E-03    0.08       2.5  T
  12   -397.6184343 -0.135516E-05  0.157E-03    0.08       4.1  T
  13   -397.6184350 -0.648825E-06  0.840E-04    0.08       7.7  T
  14   -397.6184351 -0.154817E-06  0.530E-04    0.08      12.1  T
     SCC iter.                  ...        0 min,  1.559 sec
     gradient                   ...        0 min,  0.672 sec
 * total energy  :  -271.2596217 Eh     change       -0.3317441E-01 Eh
   gradient norm :     0.0003669 Eh/α   predicted     0.0000000E+00 (-100.00%)
   displ. norm   :     0.0002922 α      lambda       -0.1567085E-07
   maximum displ.:     0.0002108 α      in ANC's #35, #7, #33, ...

........................................................................
.............................. CYCLE  122 ..............................
........................................................................

 iter      E             dE          RMSdq      gap      omega  full diag
   1   -397.6184526 -0.397618E+03  0.715E-04    0.08       0.0  T
   2   -397.6184423  0.102878E-04  0.579E-03    0.08       1.1  T
   3   -397.6184503 -0.800114E-05  0.268E-03    0.08       2.4  T
   4   -397.6184515 -0.121375E-05  0.161E-03    0.08       4.0  T
   5   -397.6184523 -0.797928E-06  0.101E-03    0.08       6.4  T
   6   -397.6184525 -0.210776E-06  0.615E-04    0.08      10.5  T
   7   -397.6184525  0.122725E-09  0.681E-04    0.08       9.4  T
     SCC iter.                  ...        0 min,  0.772 sec
     gradient                   ...        0 min,  0.666 sec
 * total energy  :  -271.2590891 Eh     change        0.5325513E-03 Eh
   gradient norm :     0.0001249 Eh/α   predicted    -0.3577898E-07 (-100.01%)
   displ. norm   :     0.0002922 α      lambda        0.0000000E+00
   maximum displ.:     0.0002108 α      in ANC's #35, #7, #33, ...

........................................................................
.............................. CYCLE  123 ..............................
........................................................................

 iter      E             dE          RMSdq      gap      omega  full diag
   1   -397.6184700 -0.397618E+03  0.771E-04    0.08       0.0  T
   2   -397.6184646  0.536080E-05  0.375E-03    0.08       1.7  T
   3   -397.6184658 -0.118659E-05  0.361E-03    0.08       1.8  T
   4   -397.6184690 -0.320177E-05  0.176E-03    0.08       3.7  T
   5   -397.6184698 -0.802110E-06  0.935E-04    0.08       6.9  T
   6   -397.6184698  0.168464E-07  0.809E-04    0.08       7.9  T
     SCC iter.                  ...        0 min,  0.673 sec
     gradient                   ...        0 min,  0.675 sec
 * total energy  :  -271.2585565 Eh     change        0.5326465E-03 Eh
   gradient norm :     0.0001365 Eh/α   predicted    -0.4022100E-09 (-100.00%)
   displ. norm   :     0.0001747 α      lambda        0.9757956E-07
   maximum displ.:     0.0001020 α      in ANC's #26, #14, #33, ...

........................................................................
.............................. CYCLE  124 ..............................
........................................................................

 iter      E             dE          RMSdq      gap      omega  full diag
   1   -397.6184704 -0.397618E+03  0.527E-04    0.08       0.0  T
   2   -397.6184591  0.113227E-04  0.498E-03    0.08       1.3  T
   3   -397.6184696 -0.104629E-04  0.178E-03    0.08       3.6  T
   4   -397.6184704 -0.876735E-06  0.550E-04    0.08      11.7  T
   5   -397.6184703  0.984457E-07  0.678E-04    0.08       9.5  T
     SCC iter.                  ...        0 min,  0.567 sec
     gradient                   ...        0 min,  0.658 sec
 * total energy  :  -271.2566759 Eh     change        0.1880560E-02 Eh
   gradient norm :     0.0001843 Eh/α   predicted     0.7753966E-08 (-100.00%)
   displ. norm   :     0.0001501 α      lambda       -0.5635989E-09
   maximum displ.:     0.0000767 α      in ANC's #26, #35, #7, ...

........................................................................
.............................. CYCLE  125 ..............................
........................................................................

 iter      E             dE          RMSdq      gap      omega  full diag
   1   -397.6184574 -0.397618E+03  0.337E-04    0.08       0.0  T
   2   -397.6184559  0.146978E-05  0.211E-03    0.08       3.0  T
   3   -397.6184565 -0.561865E-06  0.175E-03    0.08       3.7  T
   4   -397.6184572 -0.757042E-06  0.626E-04    0.08      10.3  T
   5   -397.6184574 -0.151245E-06  0.284E-04    0.08      22.6  T
     SCC iter.                  ...        0 min,  0.568 sec
     gradient                   ...        0 min,  0.673 sec
 * total energy  :  -271.2559601 Eh     change        0.7158674E-03 Eh
   gradient norm :     0.0000654 Eh/α   predicted    -0.9181837E-08 (-100.00%)
   displ. norm   :     0.0001501 α      lambda        0.0000000E+00
   maximum displ.:     0.0000767 α      in ANC's #26, #35, #7, ...

........................................................................
.............................. CYCLE  126 ..............................
........................................................................

 iter      E             dE          RMSdq      gap      omega  full diag
   1   -397.6184442 -0.397618E+03  0.522E-04    0.08       0.0  T
   2   -397.6184371  0.708607E-05  0.383E-03    0.08       1.7  T
   3   -397.6184438 -0.663359E-05  0.120E-03    0.08       5.4  T
   4   -397.6184439 -0.938661E-07  0.112E-03    0.08       5.7  T
   5   -397.6184441 -0.259354E-06  0.716E-04    0.08       9.0  T
   6   -397.6184442 -0.789137E-07  0.513E-04    0.08      12.5  T
     SCC iter.                  ...        0 min,  0.666 sec
     gradient                   ...        0 min,  0.661 sec
 * total energy  :  -271.2552440 Eh     change        0.7160915E-03 Eh
   gradient norm :     0.0000707 Eh/α   predicted    -0.1147195E-09 (-100.00%)
   displ. norm   :     0.0001501 α      lambda        0.0000000E+00
   maximum displ.:     0.0000767 α      in ANC's #26, #35, #7, ...

........................................................................
.............................. CYCLE  127 ..............................
........................................................................

 iter      E             dE          RMSdq      gap      omega  full diag
   1   -397.6184312 -0.397618E+03  0.357E-04    0.08       0.0  T
   2   -397.6184303  0.900410E-06  0.139E-03    0.08       4.6  T
   3   -397.6184308 -0.464212E-06  0.954E-04    0.08       6.7  T
   4   -397.6184311 -0.340146E-06  0.532E-04    0.08      12.1  T
     SCC iter.                  ...        0 min,  0.444 sec
     gradient                   ...        0 min,  0.672 sec
 * total energy  :  -271.2545280 Eh     change        0.7159900E-03 Eh
   gradient norm :     0.0002023 Eh/α   predicted     0.1100088E-07 (-100.00%)
   displ. norm   :     0.0001669 α      lambda        0.5014314E-07
   maximum displ.:     0.0001125 α      in ANC's #26, #35, #7, ...

........................................................................
.............................. CYCLE  128 ..............................
........................................................................

 iter      E             dE          RMSdq      gap      omega  full diag
   1   -397.6184304 -0.397618E+03  0.703E-04    0.08       0.0  T
   2   -397.6183789  0.514520E-04  0.125E-02    0.08       1.0  T
   3   -397.6184296 -0.506894E-04  0.154E-03    0.08       4.2  T
   4   -397.6184305 -0.893391E-06  0.324E-04    0.08      19.8  T
   5   -397.6184304  0.999307E-07  0.543E-04    0.08      11.8  T
     SCC iter.                  ...        0 min,  0.568 sec
     gradient                   ...        0 min,  0.655 sec
 * total energy  :  -271.2528680 Eh     change        0.1659949E-02 Eh
   gradient norm :     0.0001001 Eh/α   predicted    -0.7125521E-08 (-100.00%)
   displ. norm   :     0.0001669 α      lambda        0.0000000E+00
   maximum displ.:     0.0001125 α      in ANC's #26, #35, #7, ...

........................................................................
.............................. CYCLE  129 ..............................
........................................................................

 iter      E             dE          RMSdq      gap      omega  full diag
   1   -397.6184298 -0.397618E+03  0.367E-04    0.08       0.0  T
   2   -397.6184273  0.249297E-05  0.250E-03    0.08       2.6  T
   3   -397.6184290 -0.164446E-05  0.173E-03    0.08       3.7  T
   4   -397.6184297 -0.756516E-06  0.573E-04    0.08      11.2  T
   5   -397.6184298 -0.761078E-07  0.397E-04    0.08      16.2  T
     SCC iter.                  ...        0 min,  0.567 sec
     gradient                   ...        0 min,  0.655 sec
 * total energy  :  -271.2512085 Eh     change        0.1659567E-02 Eh
   gradient norm :     0.0001538 Eh/α   predicted     0.2843009E-08 (-100.00%)
   displ. norm   :     0.0001083 α      lambda        0.4164889E-08
   maximum displ.:     0.0000765 α      in ANC's #26, #35, #33, ...

........................................................................
.............................. CYCLE  130 ..............................
........................................................................

 iter      E             dE          RMSdq      gap      omega  full diag
   1   -397.6184259 -0.397618E+03  0.220E-04    0.08       0.0  T
   2   -397.6184249  0.991470E-06  0.154E-03    0.08       4.2  T
   3   -397.6184256 -0.713650E-06  0.906E-04    0.08       7.1  T
   4   -397.6184258 -0.208330E-06  0.522E-04    0.08      12.3  T
     SCC iter.                  ...        0 min,  0.452 sec
     gradient                   ...        0 min,  0.664 sec
 * total energy  :  -271.2510606 Eh     change        0.1478220E-03 Eh
   gradient norm :     0.0000754 Eh/α   predicted    -0.4701074E-08 (-100.00%)
   displ. norm   :     0.0001083 α      lambda        0.0000000E+00
   maximum displ.:     0.0000765 α      in ANC's #26, #35, #33, ...

........................................................................
.............................. CYCLE  131 ..............................
........................................................................

 iter      E             dE          RMSdq      gap      omega  full diag
   1   -397.6184219 -0.397618E+03  0.235E-04    0.08       0.0  T
   2   -397.6184205  0.136635E-05  0.188E-03    0.08       3.4  T
   3   -397.6184217 -0.114220E-05  0.876E-04    0.08       7.3  T
   4   -397.6184218 -0.119030E-06  0.528E-04    0.08      12.2  T
   5   -397.6184219 -0.105856E-06  0.214E-04    0.08      30.0  T
     SCC iter.                  ...        0 min,  0.561 sec
     gradient                   ...        0 min,  0.676 sec
 * total energy  :  -271.2509129 Eh     change        0.1477177E-03 Eh
   gradient norm :     0.0001253 Eh/α   predicted     0.2768768E-08 (-100.00%)
   displ. norm   :     0.0001329 α      lambda        0.2263713E-07
   maximum displ.:     0.0000924 α      in ANC's #14, #7, #33, ...

........................................................................
.............................. CYCLE  132 ..............................
........................................................................

 iter      E             dE          RMSdq      gap      omega  full diag
   1   -397.6184244 -0.397618E+03  0.255E-04    0.08       0.0  T
   2   -397.6184232  0.126973E-05  0.188E-03    0.08       3.4  T
   3   -397.6184238 -0.602870E-06  0.151E-03    0.08       4.3  T
   4   -397.6184244 -0.652145E-06  0.301E-04    0.08      21.4  T
   5   -397.6184244  0.254369E-08  0.277E-04    0.08      23.2  T
     SCC iter.                  ...        0 min,  0.570 sec
     gradient                   ...        0 min,  0.641 sec
 * total energy  :  -271.2503378 Eh     change        0.5751375E-03 Eh
   gradient norm :     0.0000412 Eh/α   predicted    -0.4232413E-08 (-100.00%)
   displ. norm   :     0.0001329 α      lambda        0.0000000E+00
   maximum displ.:     0.0000924 α      in ANC's #14, #7, #33, ...

........................................................................
.............................. CYCLE  133 ..............................
........................................................................

 iter      E             dE          RMSdq      gap      omega  full diag
   1   -397.6184269 -0.397618E+03  0.236E-04    0.08       0.0  T
   2   -397.6184261  0.880646E-06  0.149E-03    0.08       4.3  T
   3   -397.6184266 -0.587666E-06  0.967E-04    0.08       6.6  T
   4   -397.6184269 -0.236068E-06  0.477E-04    0.08      13.5  T
     SCC iter.                  ...        0 min,  0.440 sec
     gradient                   ...        0 min,  0.670 sec
 * total energy  :  -271.2497627 Eh     change        0.5751056E-03 Eh
   gradient norm :     0.0001189 Eh/α   predicted     0.3272535E-08 (-100.00%)
   displ. norm   :     0.0001130 α      lambda       -0.2881739E-08
   maximum displ.:     0.0000844 α      in ANC's #14, #7, #33, ...

........................................................................
.............................. CYCLE  134 ..............................
........................................................................

 iter      E             dE          RMSdq      gap      omega  full diag
   1   -397.6184208 -0.397618E+03  0.273E-04    0.08       0.0  T
   2   -397.6184175  0.329531E-05  0.282E-03    0.08       2.3  T
   3   -397.6184206 -0.311108E-05  0.815E-04    0.08       7.9  T
   4   -397.6184207 -0.137855E-06  0.456E-04    0.08      14.1  T
   5   -397.6184208 -0.645019E-07  0.172E-04    0.08      37.3  T
     SCC iter.                  ...        0 min,  0.553 sec
     gradient                   ...        0 min,  0.652 sec
 * total energy  :  -271.2489645 Eh     change        0.7981339E-03 Eh
   gradient norm :     0.0000270 Eh/α   predicted    -0.4365115E-08 (-100.00%)
   displ. norm   :     0.0001130 α      lambda        0.0000000E+00
   maximum displ.:     0.0000844 α      in ANC's #14, #7, #33, ...

........................................................................
.............................. CYCLE  135 ..............................
........................................................................

 iter      E             dE          RMSdq      gap      omega  full diag
   1   -397.6184147 -0.397618E+03  0.190E-04    0.08       0.0  T
   2   -397.6184141  0.560070E-06  0.130E-03    0.08       4.9  T
   3   -397.6184143 -0.196583E-06  0.112E-03    0.08       5.8  T
   4   -397.6184147 -0.362290E-06  0.178E-04    0.08      36.0  T
   5   -397.6184147  0.684736E-09  0.177E-04    0.08      36.4  T
     SCC iter.                  ...        0 min,  0.563 sec
     gradient                   ...        0 min,  0.665 sec
 * total energy  :  -271.2481664 Eh     change        0.7981639E-03 Eh
   gradient norm :     0.0000927 Eh/α   predicted     0.2595103E-08 (-100.00%)
   displ. norm   :     0.0001130 α      lambda        0.0000000E+00
   maximum displ.:     0.0000844 α      in ANC's #14, #7, #33, ...

........................................................................
.............................. CYCLE  136 ..............................
........................................................................

 iter      E             dE          RMSdq      gap      omega  full diag
   1   -397.6184085 -0.397618E+03  0.176E-04    0.08       0.0  T
   2   -397.6184080  0.494086E-06  0.116E-03    0.08       5.5  T
   3   -397.6184083 -0.264627E-06  0.880E-04    0.08       7.3  T
   4   -397.6184085 -0.188901E-06  0.341E-04    0.08      18.9  T
     SCC iter.                  ...        0 min,  0.449 sec
     gradient                   ...        0 min,  0.671 sec
 * total energy  :  -271.2473682 Eh     change        0.7981645E-03 Eh
   gradient norm :     0.0001963 Eh/α   predicted     0.1005999E-07 (-100.00%)
   displ. norm   :     0.0001782 α      lambda        0.3570229E-07
   maximum displ.:     0.0001100 α      in ANC's #14, #7, #35, ...

........................................................................
.............................. CYCLE  137 ..............................
........................................................................

 iter      E             dE          RMSdq      gap      omega  full diag
   1   -397.6184126 -0.397618E+03  0.200E-04    0.08       0.0  T
   2   -397.6184112  0.142105E-05  0.187E-03    0.08       3.4  T
   3   -397.6184125 -0.132559E-05  0.588E-04    0.08      10.9  T
   4   -397.6184126 -0.613178E-07  0.347E-04    0.08      18.5  T
   5   -397.6184126 -0.264043E-07  0.245E-04    0.08      26.2  T
     SCC iter.                  ...        0 min,  0.560 sec
     gradient                   ...        0 min,  0.654 sec
 * total energy  :  -271.2457202 Eh     change        0.1647986E-02 Eh
   gradient norm :     0.0000703 Eh/α   predicted    -0.1006011E-07 (-100.00%)
   displ. norm   :     0.0001782 α      lambda        0.0000000E+00
   maximum displ.:     0.0001100 α      in ANC's #14, #7, #35, ...

........................................................................
.............................. CYCLE  138 ..............................
........................................................................

 iter      E             dE          RMSdq      gap      omega  full diag
   1   -397.6184167 -0.397618E+03  0.199E-04    0.08       0.0  T
   2   -397.6184164  0.314822E-06  0.921E-04    0.08       7.0  T
   3   -397.6184165 -0.419536E-07  0.933E-04    0.08       6.9  T
     SCC iter.                  ...        0 min,  0.345 sec
     gradient                   ...        0 min,  0.663 sec
 * total energy  :  -271.2440721 Eh     change        0.1648099E-02 Eh
   gradient norm :     0.0002144 Eh/α   predicted     0.1091795E-07 (-100.00%)
   displ. norm   :     0.0001941 α      lambda        0.6750364E-07
   maximum displ.:     0.0001262 α      in ANC's #35, #33, #7, ...

........................................................................
.............................. CYCLE  139 ..............................
........................................................................

 iter      E             dE          RMSdq      gap      omega  full diag
   1   -397.6184083 -0.397618E+03  0.413E-04    0.08       0.0  T
   2   -397.6183991  0.925590E-05  0.535E-03    0.08       1.2  T
   3   -397.6184076 -0.852458E-05  0.144E-03    0.08       4.5  T
   4   -397.6184082 -0.645257E-06  0.619E-04    0.08      10.4  T
   5   -397.6184083 -0.599910E-07  0.462E-04    0.08      13.9  T
     SCC iter.                  ...        0 min,  0.552 sec
     gradient                   ...        0 min,  0.653 sec
 * total energy  :  -271.2408735 Eh     change        0.3198666E-02 Eh
   gradient norm :     0.0000487 Eh/α   predicted    -0.1102486E-07 (-100.00%)
   displ. norm   :     0.0001941 α      lambda        0.0000000E+00
   maximum displ.:     0.0001262 α      in ANC's #35, #33, #7, ...

........................................................................
.............................. CYCLE  140 ..............................
........................................................................

 iter      E             dE          RMSdq      gap      omega  full diag
   1   -397.6184000 -0.397618E+03  0.353E-04    0.08       0.0  T
   2   -397.6183993  0.696603E-06  0.147E-03    0.08       4.4  T
   3   -397.6183994 -0.105835E-06  0.138E-03    0.08       4.6  T
   4   -397.6183999 -0.510706E-06  0.577E-04    0.08      11.1  T
   5   -397.6183998  0.110011E-06  0.741E-04    0.08       8.7  T
     SCC iter.                  ...        0 min,  0.550 sec
     gradient                   ...        0 min,  0.668 sec
 * total energy  :  -271.2376753 Eh     change        0.3198208E-02 Eh
   gradient norm :     0.0001916 Eh/α   predicted     0.1068038E-07 (-100.00%)
   displ. norm   :     0.0001804 α      lambda       -0.8340137E-08
   maximum displ.:     0.0001220 α      in ANC's #35, #33, #7, ...

........................................................................
.............................. CYCLE  141 ..............................
........................................................................

 iter      E             dE          RMSdq      gap      omega  full diag
   1   -397.6183997 -0.397618E+03  0.343E-04    0.08       0.0  T
   2   -397.6183944  0.523909E-05  0.347E-03    0.08       1.9  T
   3   -397.6183989 -0.448536E-05  0.164E-03    0.08       3.9  T
   4   -397.6183996 -0.708404E-06  0.506E-04    0.08      12.7  T
   5   -397.6183997 -0.849259E-07  0.143E-04    0.08      44.9  T
     SCC iter.                  ...        0 min,  0.561 sec
     gradient                   ...        0 min,  0.652 sec
 * total energy  :  -271.2389112 Eh     change       -0.1235961E-02 Eh
   gradient norm :     0.0000427 Eh/α   predicted    -0.1086685E-07 (-100.00%)
   displ. norm   :     0.0001804 α      lambda        0.0000000E+00
   maximum displ.:     0.0001220 α      in ANC's #35, #33, #7, ...

........................................................................
.............................. CYCLE  142 ..............................
........................................................................

 iter      E             dE          RMSdq      gap      omega  full diag
   1   -397.6183994 -0.397618E+03  0.413E-04    0.08       0.0  T
   2   -397.6183970  0.239905E-05  0.240E-03    0.08       2.7  T
   3   -397.6183991 -0.208546E-05  0.870E-04    0.08       7.4  T
   4   -397.6183994 -0.254739E-06  0.523E-04    0.08      12.3  T
   5   -397.6183992  0.218356E-06  0.990E-04    0.08       6.5  T
     SCC iter.                  ...        0 min,  0.566 sec
     gradient                   ...        0 min,  0.670 sec
 * total energy  :  -271.2401468 Eh     change       -0.1235555E-02 Eh
   gradient norm :     0.0001751 Eh/α   predicted     0.8346885E-08 (-100.00%)
   displ. norm   :     0.0001594 α      lambda       -0.3726154E-08
   maximum displ.:     0.0000980 α      in ANC's #35, #33, #7, ...

........................................................................
.............................. CYCLE  143 ..............................
........................................................................

 iter      E             dE          RMSdq      gap      omega  full diag
   1   -397.6183975 -0.397618E+03  0.476E-04    0.08       0.0  T
   2   -397.6183827  0.148460E-04  0.689E-03    0.08       1.0  T
   3   -397.6183965 -0.138631E-04  0.163E-03    0.08       3.9  T
   4   -397.6183975 -0.984045E-06  0.435E-04    0.08      14.8  T
   5   -397.6183976 -0.554721E-07  0.227E-04    0.08      28.4  T
     SCC iter.                  ...        0 min,  0.554 sec
     gradient                   ...        0 min,  0.649 sec
 * total energy  :  -271.2391345 Eh     change        0.1012256E-02 Eh
   gradient norm :     0.0000230 Eh/α   predicted    -0.8967516E-08 (-100.00%)
   displ. norm   :     0.0001594 α      lambda        0.0000000E+00
   maximum displ.:     0.0000980 α      in ANC's #35, #33, #7, ...

........................................................................
.............................. CYCLE  144 ..............................
........................................................................

 iter      E             dE          RMSdq      gap      omega  full diag
   1   -397.6183957 -0.397618E+03  0.193E-04    0.08       0.0  T
   2   -397.6183954  0.252507E-06  0.885E-04    0.08       7.3  T
   3   -397.6183955 -0.103414E-06  0.716E-04    0.08       9.0  T
     SCC iter.                  ...        0 min,  0.342 sec
     gradient                   ...        0 min,  0.665 sec
 * total energy  :  -271.2381220 Eh     change        0.1012549E-02 Eh
   gradient norm :     0.0001712 Eh/α   predicted     0.8169654E-08 (-100.00%)
   displ. norm   :     0.0001403 α      lambda        0.5362498E-07
   maximum displ.:     0.0000818 α      in ANC's #7, #35, #14, ...

........................................................................
.............................. CYCLE  145 ..............................
........................................................................

 iter      E             dE          RMSdq      gap      omega  full diag
   1   -397.6183974 -0.397618E+03  0.369E-04    0.08       0.0  T
   2   -397.6183860  0.114103E-04  0.598E-03    0.08       1.1  T
   3   -397.6183971 -0.110879E-04  0.101E-03    0.08       6.3  T
   4   -397.6183974 -0.352025E-06  0.233E-04    0.08      27.6  T
   5   -397.6183974  0.111123E-07  0.263E-04    0.08      24.4  T
     SCC iter.                  ...        0 min,  0.559 sec
     gradient                   ...        0 min,  0.667 sec
 * total energy  :  -271.2360010 Eh     change        0.2120954E-02 Eh
   gradient norm :     0.0000518 Eh/α   predicted    -0.5226993E-08 (-100.00%)
   displ. norm   :     0.0001403 α      lambda        0.0000000E+00
   maximum displ.:     0.0000818 α      in ANC's #7, #35, #14, ...

........................................................................
.............................. CYCLE  146 ..............................
........................................................................

 iter      E             dE          RMSdq      gap      omega  full diag
   1   -397.6183992 -0.397618E+03  0.182E-04    0.08       0.0  T
   2   -397.6183983  0.866758E-06  0.165E-03    0.08       3.9  T
   3   -397.6183990 -0.711023E-06  0.718E-04    0.08       8.9  T
   4   -397.6183992 -0.135406E-06  0.256E-04    0.08      25.1  T
     SCC iter.                  ...        0 min,  0.446 sec
     gradient                   ...        0 min,  0.652 sec
 * total energy  :  -271.2338806 Eh     change        0.2120395E-02 Eh
   gradient norm :     0.0001304 Eh/α   predicted     0.4313609E-08 (-100.00%)
   displ. norm   :     0.0001165 α      lambda       -0.2191172E-09
   maximum displ.:     0.0000723 α      in ANC's #7, #35, #14, ...

........................................................................
.............................. CYCLE  147 ..............................
........................................................................

 iter      E             dE          RMSdq      gap      omega  full diag
   1   -397.6183965 -0.397618E+03  0.259E-04    0.08       0.0  T
   2   -397.6183906  0.585780E-05  0.417E-03    0.08       1.5  T
   3   -397.6183963 -0.568835E-05  0.744E-04    0.08       8.6  T
   4   -397.6183965 -0.172967E-06  0.226E-04    0.08      28.4  T
   5   -397.6183965 -0.164474E-07  0.107E-04    0.08      60.1  T
     SCC iter.                  ...        0 min,  0.561 sec
     gradient                   ...        0 min,  0.675 sec
 * total energy  :  -271.2349529 Eh     change       -0.1072320E-02 Eh
   gradient norm :     0.0000405 Eh/α   predicted    -0.4732487E-08 (-100.00%)
   displ. norm   :     0.0001165 α      lambda        0.0000000E+00
   maximum displ.:     0.0000723 α      in ANC's #7, #35, #14, ...

........................................................................
.............................. CYCLE  148 ..............................
........................................................................

 iter      E             dE          RMSdq      gap      omega  full diag
   1   -397.6183938 -0.397618E+03  0.107E-04    0.08       0.0  T
   2   -397.6183936  0.182118E-06  0.621E-04    0.08      10.4  T
   3   -397.6183938 -0.169408E-06  0.216E-04    0.08      29.8  T
     SCC iter.                  ...        0 min,  0.333 sec
     gradient                   ...        0 min,  0.661 sec
 * total energy  :  -271.2360254 Eh     change       -0.1072481E-02 Eh
   gradient norm :     0.0001283 Eh/α   predicted     0.4404351E-08 (-100.00%)
   displ. norm   :     0.0001131 α      lambda        0.2704406E-07
   maximum displ.:     0.0000655 α      in ANC's #35, #2, #33, ...

........................................................................
.............................. CYCLE  149 ..............................
........................................................................

 iter      E             dE          RMSdq      gap      omega  full diag
   1   -397.6183941 -0.397618E+03  0.412E-04    0.08       0.0  T
   2   -397.6183776  0.164721E-04  0.732E-03    0.08       1.0  T
   3   -397.6183940 -0.164210E-04  0.524E-04    0.08      12.3  T
   4   -397.6183941 -0.457699E-07  0.350E-04    0.08      18.4  T
   5   -397.6183941 -0.228484E-07  0.267E-04    0.08      24.1  T
     SCC iter.                  ...        0 min,  0.550 sec
     gradient                   ...        0 min,  0.668 sec
 * total energy  :  -271.2376686 Eh     change       -0.1643171E-02 Eh
   gradient norm :     0.0000383 Eh/α   predicted    -0.2664572E-08 (-100.00%)
   displ. norm   :     0.0001131 α      lambda        0.0000000E+00
   maximum displ.:     0.0000655 α      in ANC's #35, #2, #33, ...

........................................................................
.............................. CYCLE  150 ..............................
........................................................................

 iter      E             dE          RMSdq      gap      omega  full diag
   1   -397.6183944 -0.397618E+03  0.275E-04    0.08       0.0  T
   2   -397.6183925  0.189750E-05  0.214E-03    0.08       3.0  T
   3   -397.6183942 -0.172101E-05  0.781E-04    0.08       8.2  T
   4   -397.6183943 -0.539247E-07  0.583E-04    0.08      11.0  T
   5   -397.6183944 -0.117853E-06  0.292E-04    0.08      22.0  T
     SCC iter.                  ...        0 min,  0.555 sec
     gradient                   ...        0 min,  0.649 sec
 * total energy  :  -271.2393123 Eh     change       -0.1643673E-02 Eh
   gradient norm :     0.0000760 Eh/α   predicted     0.1021110E-08 (-100.00%)
   displ. norm   :     0.0001131 α      lambda        0.0000000E+00
   maximum displ.:     0.0000655 α      in ANC's #35, #2, #33, ...
 * RMSD in coord.:     0.0000545 α      energy gain  -0.1286499E-01 Eh

generating ANC from exact Hessian ...
Using Lindh-Hessian (1995)
 Shifting diagonal of input Hessian by    1.2753167826862860E-002
 Lowest  eigenvalues of input Hessian
    0.010000    0.012647    0.012703    0.012726    0.012726    0.012732
    0.000000    0.000000    0.000000    0.000000    0.000000    0.000000
    0.012764    0.012777    0.012794    0.012808    0.012815    0.012820
 Highest eigenvalues
    6.177146    9.982241   10.826324   33.707310  136.205447  181.822589


........................................................................
.............................. CYCLE  151 ..............................
........................................................................

 iter      E             dE          RMSdq      gap      omega  full diag
   1   -397.6183947 -0.397618E+03  0.337E-04    0.08       0.0  T
   2   -397.6183915  0.318714E-05  0.279E-03    0.08       2.3  T
   3   -397.6183939 -0.243745E-05  0.162E-03    0.08       4.0  T
   4   -397.6183946 -0.698963E-06  0.420E-04    0.08      15.3  T
   5   -397.6183946 -0.136498E-07  0.410E-04    0.08      15.7  T
     SCC iter.                  ...        0 min,  0.569 sec
     gradient                   ...        0 min,  0.669 sec
 * total energy  :  -271.2409564 Eh     change       -0.1644103E-02 Eh
   gradient norm :     0.0002136 Eh/α   predicted     0.0000000E+00 (-100.00%)
   displ. norm   :     0.0003205 α      lambda        0.0000000E+00
   maximum displ.:     0.0002746 α      in ANC's #35, #33, #26, ...

........................................................................
.............................. CYCLE  152 ..............................
........................................................................

 iter      E             dE          RMSdq      gap      omega  full diag
   1   -397.6183806 -0.397618E+03  0.526E-04    0.08       0.0  T
   2   -397.6183776  0.300766E-05  0.283E-03    0.08       2.3  T
   3   -397.6183799 -0.227303E-05  0.161E-03    0.08       4.0  T
   4   -397.6183791  0.769241E-06  0.207E-03    0.08       3.1  T
   5   -397.6183803 -0.118668E-05  0.967E-04    0.08       6.6  T
   6   -397.6183806 -0.293724E-06  0.424E-04    0.08      15.2  T
   7   -397.6183806  0.934182E-08  0.450E-04    0.08      14.3  T
     SCC iter.                  ...        0 min,  0.766 sec
     gradient                   ...        0 min,  0.674 sec
 * total energy  :  -271.2399145 Eh     change        0.1041880E-02 Eh
   gradient norm :     0.0001131 Eh/α   predicted     0.7621541E-09 (-100.00%)
   displ. norm   :     0.0003205 α      lambda        0.0000000E+00
   maximum displ.:     0.0002746 α      in ANC's #35, #33, #26, ...

........................................................................
.............................. CYCLE  153 ..............................
........................................................................

 iter      E             dE          RMSdq      gap      omega  full diag
   1   -397.6183665 -0.397618E+03  0.701E-04    0.08       0.0  T
   2   -397.6183622  0.433614E-05  0.322E-03    0.08       2.0  T
   3   -397.6183646 -0.245389E-05  0.246E-03    0.08       2.6  T
   4   -397.6183653 -0.649610E-06  0.201E-03    0.08       3.2  T
   5   -397.6183664 -0.109233E-05  0.851E-04    0.08       7.6  T
   6   -397.6183665 -0.113146E-06  0.549E-04    0.08      11.7  T
   7   -397.6183665 -0.281593E-07  0.495E-04    0.08      13.0  T
     SCC iter.                  ...        0 min,  0.790 sec
     gradient                   ...        0 min,  0.648 sec
 * total energy  :  -271.2388726 Eh     change        0.1041877E-02 Eh
   gradient norm :     0.0004356 Eh/α   predicted     0.5435484E-07 ( -99.99%)
   displ. norm   :     0.0004139 α      lambda       -0.9575629E-07
   maximum displ.:     0.0003450 α      in ANC's #35, #33, #26, ...

........................................................................
.............................. CYCLE  154 ..............................
........................................................................

 iter      E             dE          RMSdq      gap      omega  full diag
   1   -397.6183828 -0.397618E+03  0.707E-04    0.08       0.0  T
   2   -397.6183750  0.783795E-05  0.405E-03    0.08       1.6  T
   3   -397.6183820 -0.700216E-05  0.167E-03    0.08       3.8  T
   4   -397.6183799  0.201173E-05  0.312E-03    0.08       2.1  T
   5   -397.6183824 -0.250287E-05  0.115E-03    0.08       5.6  T
   6   -397.6183828 -0.333743E-06  0.569E-04    0.08      11.3  T
   7   -397.6183827  0.500922E-07  0.654E-04    0.08       9.8  T
     SCC iter.                  ...        0 min,  0.788 sec
     gradient                   ...        0 min,  0.674 sec
 * total energy  :  -271.2399763 Eh     change       -0.1103671E-02 Eh
   gradient norm :     0.0000346 Eh/α   predicted    -0.5933729E-07 ( -99.99%)
   displ. norm   :     0.0004139 α      lambda        0.0000000E+00
   maximum displ.:     0.0003450 α      in ANC's #35, #33, #26, ...

........................................................................
.............................. CYCLE  155 ..............................
........................................................................

 iter      E             dE          RMSdq      gap      omega  full diag
   1   -397.6183991 -0.397618E+03  0.824E-04    0.08       0.0  T
   2   -397.6183950  0.408038E-05  0.323E-03    0.08       2.0  T
   3   -397.6183964 -0.142041E-05  0.273E-03    0.08       2.4  T
   4   -397.6183972 -0.766273E-06  0.245E-03    0.08       2.6  T
   5   -397.6183986 -0.143463E-05  0.133E-03    0.08       4.8  T
   6   -397.6183987 -0.467857E-07  0.107E-03    0.08       6.0  T
   7   -397.6183991 -0.388893E-06  0.556E-04    0.08      11.6  T
   8   -397.6183991  0.128455E-07  0.591E-04    0.08      10.9  T
     SCC iter.                  ...        0 min,  0.877 sec
     gradient                   ...        0 min,  0.672 sec
 * total energy  :  -271.2410800 Eh     change       -0.1103743E-02 Eh
   gradient norm :     0.0004210 Eh/α   predicted     0.5020718E-07 (-100.00%)
   displ. norm   :     0.0003925 α      lambda       -0.8781845E-07
   maximum displ.:     0.0003150 α      in ANC's #35, #33, #26, ...

........................................................................
.............................. CYCLE  156 ..............................
........................................................................

 iter      E             dE          RMSdq      gap      omega  full diag
   1   -397.6183840 -0.397618E+03  0.654E-04    0.08       0.0  T
   2   -397.6183829  0.106453E-05  0.173E-03    0.08       3.7  T
   3   -397.6183828  0.107812E-06  0.176E-03    0.08       3.7  T
   4   -397.6183835 -0.718627E-06  0.124E-03    0.08       5.2  T
   5   -397.6183832  0.365313E-06  0.171E-03    0.08       3.8  T
   6   -397.6183835 -0.359524E-06  0.111E-03    0.08       5.8  T
   7   -397.6183839 -0.427422E-06  0.477E-04    0.08      13.5  T
   8   -397.6183840 -0.609240E-07  0.237E-04    0.08      27.2  T
     SCC iter.                  ...        0 min,  0.899 sec
     gradient                   ...        0 min,  0.651 sec
 * total energy  :  -271.2398526 Eh     change        0.1227432E-02 Eh
   gradient norm :     0.0000242 Eh/α   predicted    -0.5473243E-07 (-100.00%)
   displ. norm   :     0.0003925 α      lambda        0.0000000E+00
   maximum displ.:     0.0003150 α      in ANC's #35, #33, #26, ...

........................................................................
.............................. CYCLE  157 ..............................
........................................................................

 iter      E             dE          RMSdq      gap      omega  full diag
   1   -397.6183688 -0.397618E+03  0.642E-04    0.08       0.0  T
   2   -397.6183676  0.122908E-05  0.184E-03    0.08       3.5  T
   3   -397.6183659  0.168968E-05  0.298E-03    0.08       2.2  T
   4   -397.6183680 -0.213818E-05  0.161E-03    0.08       4.0  T
   5   -397.6183685 -0.499684E-06  0.959E-04    0.08       6.7  T
   6   -397.6183686 -0.101014E-06  0.736E-04    0.08       8.7  T
     SCC iter.                  ...        0 min,  0.682 sec
     gradient                   ...        0 min,  0.677 sec
 * total energy  :  -271.2386248 Eh     change        0.1227757E-02 Eh
   gradient norm :     0.0003917 Eh/α   predicted     0.4970586E-07 (-100.00%)
   displ. norm   :     0.0003765 α      lambda       -0.6434941E-07
   maximum displ.:     0.0002922 α      in ANC's #35, #33, #26, ...

........................................................................
.............................. CYCLE  158 ..............................
........................................................................

 iter      E             dE          RMSdq      gap      omega  full diag
   1   -397.6183815 -0.397618E+03  0.790E-04    0.08       0.0  T
   2   -397.6183640  0.174846E-04  0.596E-03    0.09       1.1  T
   3   -397.6183807 -0.166920E-04  0.152E-03    0.08       4.2  T
   4   -397.6183812 -0.503832E-06  0.121E-03    0.08       5.3  T
   5   -397.6183812 -0.248277E-07  0.121E-03    0.08       5.3  T
   6   -397.6183813 -0.912963E-07  0.987E-04    0.08       6.5  T
   7   -397.6183816 -0.345667E-06  0.278E-04    0.08      23.1  T
     SCC iter.                  ...        0 min,  0.776 sec
     gradient                   ...        0 min,  0.671 sec
 * total energy  :  -271.2396398 Eh     change       -0.1015006E-02 Eh
   gradient norm :     0.0000290 Eh/α   predicted    -0.4837534E-07 (-100.00%)
   displ. norm   :     0.0003765 α      lambda        0.0000000E+00
   maximum displ.:     0.0002922 α      in ANC's #35, #33, #26, ...

........................................................................
.............................. CYCLE  159 ..............................
........................................................................

 iter      E             dE          RMSdq      gap      omega  full diag
   1   -397.6183944 -0.397618E+03  0.605E-04    0.08       0.0  T
   2   -397.6183927  0.170780E-05  0.208E-03    0.08       3.1  T
   3   -397.6183920  0.729682E-06  0.273E-03    0.08       2.4  T
   4   -397.6183935 -0.148875E-05  0.176E-03    0.08       3.6  T
   5   -397.6183941 -0.626524E-06  0.962E-04    0.08       6.7  T
   6   -397.6183943 -0.138082E-06  0.758E-04    0.08       8.5  T
     SCC iter.                  ...        0 min,  0.674 sec
     gradient                   ...        0 min,  0.655 sec
 * total energy  :  -271.2406544 Eh     change       -0.1014567E-02 Eh
   gradient norm :     0.0003848 Eh/α   predicted     0.4366902E-07 (-100.00%)
   displ. norm   :     0.0003628 α      lambda       -0.7084459E-07
   maximum displ.:     0.0002673 α      in ANC's #35, #33, #26, ...

........................................................................
.............................. CYCLE  160 ..............................
........................................................................

 iter      E             dE          RMSdq      gap      omega  full diag
   1   -397.6183825 -0.397618E+03  0.722E-04    0.08       0.0  T
   2   -397.6183723  0.101526E-04  0.470E-03    0.08       1.4  T
   3   -397.6183814 -0.903152E-05  0.164E-03    0.08       3.9  T
   4   -397.6183824 -0.991978E-06  0.876E-04    0.08       7.3  T
   5   -397.6183822  0.126781E-06  0.112E-03    0.08       5.7  T
   6   -397.6183823 -0.876151E-07  0.927E-04    0.08       6.9  T
     SCC iter.                  ...        0 min,  0.679 sec
     gradient                   ...        0 min,  0.660 sec
 * total energy  :  -271.2394609 Eh     change        0.1193543E-02 Eh
   gradient norm :     0.0000385 Eh/α   predicted    -0.4607310E-07 (-100.00%)
   displ. norm   :     0.0003628 α      lambda        0.0000000E+00
   maximum displ.:     0.0002673 α      in ANC's #35, #33, #26, ...

........................................................................
.............................. CYCLE  161 ..............................
........................................................................

 iter      E             dE          RMSdq      gap      omega  full diag
   1   -397.6183707 -0.397618E+03  0.620E-04    0.08       0.0  T
   2   -397.6183691  0.165293E-05  0.197E-03    0.08       3.3  T
   3   -397.6183700 -0.912859E-06  0.134E-03    0.08       4.8  T
   4   -397.6183707 -0.654796E-06  0.705E-04    0.08       9.1  T
   5   -397.6183701  0.584422E-06  0.155E-03    0.08       4.2  T
   6   -397.6183707 -0.636974E-06  0.572E-04    0.08      11.2  T
     SCC iter.                  ...        0 min,  0.684 sec
     gradient                   ...        0 min,  0.657 sec
 * total energy  :  -271.2382676 Eh     change        0.1193226E-02 Eh
   gradient norm :     0.0003756 Eh/α   predicted     0.3849820E-07 (-100.00%)
   displ. norm   :     0.0003407 α      lambda       -0.6162339E-07
   maximum displ.:     0.0002316 α      in ANC's #35, #33, #26, ...

........................................................................
.............................. CYCLE  162 ..............................
........................................................................

 iter      E             dE          RMSdq      gap      omega  full diag
   1   -397.6183789 -0.397618E+03  0.584E-04    0.08       0.0  T
   2   -397.6183747  0.417272E-05  0.336E-03    0.08       1.9  T
   3   -397.6183769 -0.225383E-05  0.248E-03    0.08       2.6  T
   4   -397.6183783 -0.138391E-05  0.123E-03    0.08       5.2  T
   5   -397.6183788 -0.473451E-06  0.623E-04    0.08      10.3  T
   6   -397.6183788  0.213674E-09  0.590E-04    0.08      10.9  T
     SCC iter.                  ...        0 min,  0.665 sec
     gradient                   ...        0 min,  0.675 sec
 * total energy  :  -271.2391484 Eh     change       -0.8807852E-03 Eh
   gradient norm :     0.0000410 Eh/α   predicted    -0.4217463E-07 (-100.00%)
   displ. norm   :     0.0003407 α      lambda        0.0000000E+00
   maximum displ.:     0.0002316 α      in ANC's #35, #33, #26, ...

........................................................................
.............................. CYCLE  163 ..............................
........................................................................

 iter      E             dE          RMSdq      gap      omega  full diag
   1   -397.6183870 -0.397618E+03  0.640E-04    0.08       0.0  T
   2   -397.6183840  0.299532E-05  0.285E-03    0.08       2.3  T
   3   -397.6183847 -0.645312E-06  0.277E-03    0.08       2.3  T
   4   -397.6183864 -0.179138E-05  0.140E-03    0.08       4.6  T
   5   -397.6183869 -0.502973E-06  0.606E-04    0.08      10.6  T
   6   -397.6183869  0.488843E-07  0.641E-04    0.08      10.0  T
     SCC iter.                  ...        0 min,  0.674 sec
     gradient                   ...        0 min,  0.643 sec
 * total energy  :  -271.2400292 Eh     change       -0.8807450E-03 Eh
   gradient norm :     0.0003591 Eh/α   predicted     0.3602657E-07 (-100.00%)
   displ. norm   :     0.0003151 α      lambda        0.2440824E-06
   maximum displ.:     0.0001903 α      in ANC's #7, #35, #26, ...

........................................................................
.............................. CYCLE  164 ..............................
........................................................................

 iter      E             dE          RMSdq      gap      omega  full diag
   1   -397.6183808 -0.397618E+03  0.452E-04    0.08       0.0  T
   2   -397.6183738  0.705154E-05  0.384E-03    0.08       1.7  T
   3   -397.6183806 -0.684660E-05  0.906E-04    0.08       7.1  T
   4   -397.6183807 -0.736445E-07  0.816E-04    0.08       7.9  T
   5   -397.6183809 -0.188543E-06  0.264E-04    0.08      24.4  T
     SCC iter.                  ...        0 min,  0.570 sec
     gradient                   ...        0 min,  0.675 sec
 * total energy  :  -271.2415262 Eh     change       -0.1497022E-02 Eh
   gradient norm :     0.0001262 Eh/α   predicted    -0.3151420E-07 (-100.00%)
   displ. norm   :     0.0003151 α      lambda        0.0000000E+00
   maximum displ.:     0.0001903 α      in ANC's #7, #35, #26, ...

........................................................................
.............................. CYCLE  165 ..............................
........................................................................

 iter      E             dE          RMSdq      gap      omega  full diag
   1   -397.6183747 -0.397618E+03  0.438E-04    0.08       0.0  T
   2   -397.6183696  0.508780E-05  0.365E-03    0.08       1.8  T
   3   -397.6183734 -0.379578E-05  0.209E-03    0.08       3.1  T
   4   -397.6183746 -0.121592E-05  0.548E-04    0.08      11.7  T
   5   -397.6183746  0.210293E-07  0.595E-04    0.08      10.8  T
   6   -397.6183746 -0.685048E-08  0.555E-04    0.08      11.6  T
     SCC iter.                  ...        0 min,  0.662 sec
     gradient                   ...        0 min,  0.670 sec
 * total energy  :  -271.2430231 Eh     change       -0.1496913E-02 Eh
   gradient norm :     0.0003962 Eh/α   predicted     0.4083436E-07 (-100.00%)
   displ. norm   :     0.0003487 α      lambda        0.2311414E-06
   maximum displ.:     0.0003121 α      in ANC's #7, #26, #14, ...

........................................................................
.............................. CYCLE  166 ..............................
........................................................................

 iter      E             dE          RMSdq      gap      omega  full diag
   1   -397.6183796 -0.397618E+03  0.353E-04    0.08       0.0  T
   2   -397.6183767  0.291371E-05  0.263E-03    0.08       2.4  T
   3   -397.6183791 -0.239049E-05  0.139E-03    0.08       4.6  T
   4   -397.6183795 -0.426125E-06  0.633E-04    0.08      10.2  T
   5   -397.6183795  0.449654E-08  0.586E-04    0.08      11.0  T
     SCC iter.                  ...        0 min,  0.576 sec
     gradient                   ...        0 min,  0.676 sec
 * total energy  :  -271.2456160 Eh     change       -0.2592853E-02 Eh
   gradient norm :     0.0000830 Eh/α   predicted    -0.3998897E-07 (-100.00%)
   displ. norm   :     0.0003487 α      lambda        0.0000000E+00
   maximum displ.:     0.0003121 α      in ANC's #7, #26, #14, ...

........................................................................
.............................. CYCLE  167 ..............................
........................................................................

 iter      E             dE          RMSdq      gap      omega  full diag
   1   -397.6183845 -0.397618E+03  0.508E-04    0.08       0.0  T
   2   -397.6183793  0.523294E-05  0.371E-03    0.08       1.7  T
   3   -397.6183835 -0.422686E-05  0.190E-03    0.08       3.4  T
   4   -397.6183842 -0.728173E-06  0.973E-04    0.08       6.6  T
   5   -397.6183844 -0.192736E-06  0.654E-04    0.08       9.8  T
     SCC iter.                  ...        0 min,  0.543 sec
     gradient                   ...        0 min,  0.674 sec
 * total energy  :  -271.2482095 Eh     change       -0.2593538E-02 Eh
   gradient norm :     0.0003658 Eh/α   predicted     0.4053280E-07 (-100.00%)
   displ. norm   :     0.0003468 α      lambda       -0.5271738E-07
   maximum displ.:     0.0003228 α      in ANC's #7, #26, #14, ...

........................................................................
.............................. CYCLE  168 ..............................
........................................................................

 iter      E             dE          RMSdq      gap      omega  full diag
   1   -397.6183809 -0.397618E+03  0.493E-04    0.08       0.0  T
   2   -397.6183706  0.103285E-04  0.492E-03    0.08       1.3  T
   3   -397.6183800 -0.938075E-05  0.184E-03    0.08       3.5  T
   4   -397.6183808 -0.857964E-06  0.680E-04    0.08       9.5  T
   5   -397.6183809 -0.118089E-06  0.407E-04    0.08      15.8  T
     SCC iter.                  ...        0 min,  0.577 sec
     gradient                   ...        0 min,  0.682 sec
 * total energy  :  -271.2458031 Eh     change        0.2406371E-02 Eh
   gradient norm :     0.0000338 Eh/α   predicted    -0.4180301E-07 (-100.00%)
   displ. norm   :     0.0003468 α      lambda        0.0000000E+00
   maximum displ.:     0.0003228 α      in ANC's #7, #26, #14, ...

........................................................................
.............................. CYCLE  169 ..............................
........................................................................

 iter      E             dE          RMSdq      gap      omega  full diag
   1   -397.6183774 -0.397618E+03  0.435E-04    0.08       0.0  T
   2   -397.6183725  0.490150E-05  0.352E-03    0.08       1.8  T
   3   -397.6183763 -0.382722E-05  0.194E-03    0.08       3.3  T
   4   -397.6183769 -0.602415E-06  0.106E-03    0.08       6.1  T
   5   -397.6183773 -0.430565E-06  0.526E-04    0.08      12.2  T
   6   -397.6183774 -0.217515E-07  0.373E-04    0.08      17.2  T
     SCC iter.                  ...        0 min,  0.653 sec
     gradient                   ...        0 min,  0.682 sec
 * total energy  :  -271.2433975 Eh     change        0.2405662E-02 Eh
   gradient norm :     0.0003642 Eh/α   predicted     0.4049469E-07 (-100.00%)
   displ. norm   :     0.0003408 α      lambda       -0.5139266E-07
   maximum displ.:     0.0003074 α      in ANC's #7, #26, #14, ...

........................................................................
.............................. CYCLE  170 ..............................
........................................................................

 iter      E             dE          RMSdq      gap      omega  full diag
   1   -397.6183805 -0.397618E+03  0.479E-04    0.08       0.0  T
   2   -397.6183757  0.485296E-05  0.337E-03    0.08       1.9  T
   3   -397.6183802 -0.452489E-05  0.112E-03    0.08       5.8  T
   4   -397.6183803 -0.147309E-06  0.946E-04    0.08       6.8  T
   5   -397.6183806 -0.246071E-06  0.225E-04    0.08      28.5  T
     SCC iter.                  ...        0 min,  0.574 sec
     gradient                   ...        0 min,  0.668 sec
 * total energy  :  -271.2451728 Eh     change       -0.1775355E-02 Eh
   gradient norm :     0.0000202 Eh/α   predicted    -0.4045940E-07 (-100.00%)
   displ. norm   :     0.0003408 α      lambda        0.0000000E+00
   maximum displ.:     0.0003074 α      in ANC's #7, #26, #14, ...

........................................................................
.............................. CYCLE  171 ..............................
........................................................................

 iter      E             dE          RMSdq      gap      omega  full diag
   1   -397.6183837 -0.397618E+03  0.595E-04    0.08       0.0  T
   2   -397.6183734  0.103238E-04  0.506E-03    0.08       1.3  T
   3   -397.6183811 -0.771992E-05  0.295E-03    0.08       2.2  T
   4   -397.6183833 -0.223750E-05  0.102E-03    0.08       6.3  T
   5   -397.6183837 -0.353927E-06  0.593E-04    0.08      10.8  T
   6   -397.6183837 -0.243272E-07  0.478E-04    0.08      13.5  T
     SCC iter.                  ...        0 min,  0.673 sec
     gradient                   ...        0 min,  0.673 sec
 * total energy  :  -271.2469488 Eh     change       -0.1775948E-02 Eh
   gradient norm :     0.0003642 Eh/α   predicted     0.4088900E-07 (-100.00%)
   displ. norm   :     0.0003398 α      lambda       -0.5382660E-07
   maximum displ.:     0.0003013 α      in ANC's #7, #26, #14, ...

........................................................................
.............................. CYCLE  172 ..............................
........................................................................

 iter      E             dE          RMSdq      gap      omega  full diag
   1   -397.6183803 -0.397618E+03  0.320E-04    0.08       0.0  T
   2   -397.6183787  0.159230E-05  0.201E-03    0.08       3.2  T
   3   -397.6183801 -0.145941E-05  0.699E-04    0.08       9.2  T
   4   -397.6183801  0.503090E-07  0.832E-04    0.08       7.7  T
   5   -397.6183803 -0.202902E-06  0.193E-04    0.08      33.4  T
     SCC iter.                  ...        0 min,  0.562 sec
     gradient                   ...        0 min,  0.672 sec
 * total energy  :  -271.2453837 Eh     change        0.1565086E-02 Eh
   gradient norm :     0.0000230 Eh/α   predicted    -0.4049501E-07 (-100.00%)
   displ. norm   :     0.0003433 α      lambda        0.8064535E-07
   maximum displ.:     0.0003058 α      in ANC's #7, #26, #14, ...

........................................................................
.............................. CYCLE  173 ..............................
........................................................................

 iter      E             dE          RMSdq      gap      omega  full diag
   1   -397.6183764 -0.397618E+03  0.434E-04    0.08       0.0  T
   2   -397.6183741  0.222672E-05  0.253E-03    0.08       2.5  T
   3   -397.6183750 -0.816916E-06  0.221E-03    0.08       2.9  T
   4   -397.6183761 -0.119076E-05  0.783E-04    0.08       8.2  T
   5   -397.6183762 -0.859659E-07  0.680E-04    0.08       9.5  T
   6   -397.6183764 -0.117264E-06  0.387E-04    0.08      16.6  T
     SCC iter.                  ...        0 min,  0.692 sec
     gradient                   ...        0 min,  0.672 sec
 * total energy  :  -271.2430404 Eh     change        0.2343288E-02 Eh
   gradient norm :     0.0003641 Eh/α   predicted     0.3985055E-07 (-100.00%)
   displ. norm   :     0.0003387 α      lambda       -0.2444436E-07
   maximum displ.:     0.0002942 α      in ANC's #7, #26, #14, ...

........................................................................
.............................. CYCLE  174 ..............................
........................................................................

 iter      E             dE          RMSdq      gap      omega  full diag
   1   -397.6183791 -0.397618E+03  0.343E-04    0.08       0.0  T
   2   -397.6183765  0.252778E-05  0.266E-03    0.08       2.4  T
   3   -397.6183783 -0.172137E-05  0.161E-03    0.08       4.0  T
   4   -397.6183789 -0.690873E-06  0.702E-04    0.08       9.2  T
   5   -397.6183790 -0.745552E-07  0.416E-04    0.08      15.5  T
     SCC iter.                  ...        0 min,  0.554 sec
     gradient                   ...        0 min,  0.678 sec
 * total energy  :  -271.2444978 Eh     change       -0.1457381E-02 Eh
   gradient norm :     0.0000205 Eh/α   predicted    -0.3992205E-07 (-100.00%)
   displ. norm   :     0.0003326 α      lambda        0.7898805E-07
   maximum displ.:     0.0002877 α      in ANC's #7, #26, #14, ...

........................................................................
.............................. CYCLE  175 ..............................
........................................................................

 iter      E             dE          RMSdq      gap      omega  full diag
   1   -397.6183822 -0.397618E+03  0.493E-04    0.08       0.0  T
   2   -397.6183770  0.527244E-05  0.404E-03    0.08       1.6  T
   3   -397.6183802 -0.325446E-05  0.260E-03    0.08       2.5  T
   4   -397.6183822 -0.194278E-05  0.587E-04    0.08      11.0  T
   5   -397.6183822 -0.310696E-07  0.529E-04    0.08      12.2  T
   6   -397.6183822  0.126340E-07  0.506E-04    0.08      12.7  T
     SCC iter.                  ...        0 min,  0.688 sec
     gradient                   ...        0 min,  0.673 sec
 * total energy  :  -271.2455808 Eh     change       -0.1083018E-02 Eh
   gradient norm :     0.0003602 Eh/α   predicted     0.3922370E-07 (-100.00%)
   displ. norm   :     0.0003295 α      lambda       -0.5014645E-07
   maximum displ.:     0.0002720 α      in ANC's #7, #26, #14, ...

........................................................................
.............................. CYCLE  176 ..............................
........................................................................

 iter      E             dE          RMSdq      gap      omega  full diag
   1   -397.6183781 -0.397618E+03  0.278E-04    0.08       0.0  T
   2   -397.6183765  0.164590E-05  0.205E-03    0.08       3.1  T
   3   -397.6183777 -0.124671E-05  0.112E-03    0.08       5.8  T
   4   -397.6183780 -0.293365E-06  0.658E-04    0.08       9.8  T
   5   -397.6183781 -0.975311E-07  0.270E-04    0.08      23.8  T
     SCC iter.                  ...        0 min,  0.565 sec
     gradient                   ...        0 min,  0.664 sec
 * total energy  :  -271.2449915 Eh     change        0.5892530E-03 Eh
   gradient norm :     0.0000275 Eh/α   predicted    -0.3899902E-07 (-100.01%)
   displ. norm   :     0.0003328 α      lambda        0.7841378E-07
   maximum displ.:     0.0002764 α      in ANC's #7, #26, #14, ...

........................................................................
.............................. CYCLE  177 ..............................
........................................................................

 iter      E             dE          RMSdq      gap      omega  full diag
   1   -397.6183734 -0.397618E+03  0.445E-04    0.08       0.0  T
   2   -397.6183695  0.382638E-05  0.334E-03    0.08       1.9  T
   3   -397.6183717 -0.215747E-05  0.238E-03    0.08       2.7  T
   4   -397.6183733 -0.158973E-05  0.550E-04    0.08      11.7  T
   5   -397.6183733 -0.160393E-07  0.545E-04    0.08      11.8  T
   6   -397.6183733 -0.223532E-07  0.454E-04    0.08      14.2  T
     SCC iter.                  ...        0 min,  0.710 sec
     gradient                   ...        0 min,  0.674 sec
 * total energy  :  -271.2441557 Eh     change        0.8358103E-03 Eh
   gradient norm :     0.0003654 Eh/α   predicted     0.3895903E-07 (-100.00%)
   displ. norm   :     0.0003285 α      lambda       -0.2668280E-07
   maximum displ.:     0.0002582 α      in ANC's #7, #26, #14, ...

........................................................................
.............................. CYCLE  178 ..............................
........................................................................

 iter      E             dE          RMSdq      gap      omega  full diag
   1   -397.6183768 -0.397618E+03  0.311E-04    0.08       0.0  T
   2   -397.6183738  0.301586E-05  0.267E-03    0.08       2.4  T
   3   -397.6183764 -0.257388E-05  0.121E-03    0.08       5.3  T
   4   -397.6183767 -0.356809E-06  0.639E-04    0.08      10.1  T
   5   -397.6183768 -0.911974E-07  0.261E-04    0.08      24.7  T
     SCC iter.                  ...        0 min,  0.570 sec
     gradient                   ...        0 min,  0.700 sec
 * total energy  :  -271.2440281 Eh     change        0.1276555E-03 Eh
   gradient norm :     0.0000216 Eh/α   predicted    -0.3891130E-07 (-100.03%)
   displ. norm   :     0.0003239 α      lambda        0.7821790E-07
   maximum displ.:     0.0002528 α      in ANC's #7, #26, #14, ...

........................................................................
.............................. CYCLE  179 ..............................
........................................................................

 iter      E             dE          RMSdq      gap      omega  full diag
   1   -397.6183804 -0.397618E+03  0.409E-04    0.08       0.0  T
   2   -397.6183745  0.587647E-05  0.403E-03    0.08       1.6  T
   3   -397.6183794 -0.490126E-05  0.181E-03    0.08       3.6  T
   4   -397.6183803 -0.917572E-06  0.485E-04    0.08      13.3  T
   5   -397.6183803 -0.174524E-07  0.482E-04    0.08      13.3  T
     SCC iter.                  ...        0 min,  0.580 sec
     gradient                   ...        0 min,  0.680 sec
 * total energy  :  -271.2440049 Eh     change        0.2315298E-04 Eh
   gradient norm :     0.0003657 Eh/α   predicted     0.3889396E-07 ( -99.83%)
   displ. norm   :     0.0002847 α      lambda        0.2329333E-06
   maximum displ.:     0.0001979 α      in ANC's #7, #26, #35, ...

........................................................................
.............................. CYCLE  180 ..............................
........................................................................

 iter      E             dE          RMSdq      gap      omega  full diag
   1   -397.6183771 -0.397618E+03  0.441E-04    0.08       0.0  T
   2   -397.6183700  0.709704E-05  0.423E-03    0.08       1.5  T
   3   -397.6183765 -0.651882E-05  0.145E-03    0.08       4.4  T
   4   -397.6183771 -0.566434E-06  0.462E-04    0.08      13.9  T
   5   -397.6183771 -0.627819E-08  0.451E-04    0.08      14.3  T
     SCC iter.                  ...        0 min,  0.568 sec
     gradient                   ...        0 min,  0.684 sec
 * total energy  :  -271.2436694 Eh     change        0.3355186E-03 Eh
   gradient norm :     0.0000787 Eh/α   predicted    -0.2739957E-07 (-100.01%)
   displ. norm   :     0.0002325 α      lambda        0.4765205E-07
   maximum displ.:     0.0001518 α      in ANC's #7, #35, #26, ...

........................................................................
.............................. CYCLE  181 ..............................
........................................................................

 iter      E             dE          RMSdq      gap      omega  full diag
   1   -397.6183719 -0.397618E+03  0.404E-04    0.08       0.0  T
   2   -397.6183652  0.676024E-05  0.437E-03    0.08       1.5  T
   3   -397.6183710 -0.586970E-05  0.171E-03    0.08       3.8  T
   4   -397.6183719 -0.863136E-06  0.416E-04    0.08      15.5  T
   5   -397.6183719 -0.803738E-08  0.415E-04    0.08      15.5  T
     SCC iter.                  ...        0 min,  0.576 sec
     gradient                   ...        0 min,  0.669 sec
 * total energy  :  -271.2438251 Eh     change       -0.1557304E-03 Eh
   gradient norm :     0.0002560 Eh/α   predicted     0.2000976E-07 (-100.01%)
   displ. norm   :     0.0002317 α      lambda        0.1179453E-06
   maximum displ.:     0.0001801 α      in ANC's #35, #7, #26, ...

........................................................................
.............................. CYCLE  182 ..............................
........................................................................

 iter      E             dE          RMSdq      gap      omega  full diag
   1   -397.6183834 -0.397618E+03  0.619E-04    0.08       0.0  T
   2   -397.6183689  0.145165E-04  0.563E-03    0.08       1.1  T
   3   -397.6183833 -0.144331E-04  0.703E-04    0.08       9.1  T
   4   -397.6183834 -0.136514E-06  0.509E-04    0.08      12.6  T
   5   -397.6183833  0.113346E-06  0.811E-04    0.08       7.9  T
     SCC iter.                  ...        0 min,  0.564 sec
     gradient                   ...        0 min,  0.696 sec
 * total energy  :  -271.2438268 Eh     change       -0.1690478E-05 Eh
   gradient norm :     0.0000550 Eh/α   predicted    -0.1828081E-07 ( -98.92%)
   displ. norm   :     0.0002190 α      lambda        0.4030726E-07
   maximum displ.:     0.0001470 α      in ANC's #35, #26, #7, ...

   *** GEOMETRY OPTIMIZATION CONVERGED AFTER 182 ITERATIONS ***

------------------------------------------------------------------------
 total energy gain   :       123.4951987 Eh    77494.4072 kcal/mol
 total RMSD          :         0.6786186 a0        0.3591 Å
 total power (kW/mol):      1781.5197787 (step)  890.7813 (real)
------------------------------------------------------------------------

 ANCopt (total)                0 d,  0 h,  6 min,  3.992 sec
 optimizer setup                ...        0 min,  0.001 sec (  0.000%)
 model hessian                  ...        0 min,  1.181 sec (  0.324%)
 ANC generation                 ...        0 min,  0.495 sec (  0.136%)
 coordinate transformation      ...        0 min,  0.005 sec (  0.001%)
 single point calculation       ...        6 min,  2.223 sec ( 99.514%)
 optimization log               ...        0 min,  0.072 sec (  0.020%)
 hessian update                 ...        0 min,  0.002 sec (  0.000%)
 rational function              ...        0 min,  0.009 sec (  0.002%)

================
 final structure:
================
242
 xtb: 6.7.1 (edcfbbe)
N            0.53196915169995       -2.84121741707053       -1.26540377551540
N           -0.20442048071220       -0.74585643486609        1.97921678038263
C           -0.55097317149219       -0.82302755005582       -3.56952009785367
C            0.17943208465337       -2.41720400377040       -2.16595355736765
C            0.47290374574755       -2.84195272112833       -1.45736247048280
H            0.38867584032200       -3.87616235447372       -3.90526105379236
C            0.76941519253568       -4.31108687862997       -2.76253471424774
H            1.23683868187999       -4.80617143985292       -1.21344225638661
C            0.46413948776906       -2.20889502701816        1.17902069775837
C            0.84494481074948       -3.33777064996370        0.13124854666758
C            0.46609865160212       -2.18256303446658        1.28900708670895
C            0.44774460346351       -2.98630045065722        3.78358991587086
H            0.70295089462836       -3.55910202267238        3.65273620532253
C           -0.19213245087356       -1.64469210814848        3.94016529375873
H           -0.42188494002756       -1.63212321808195        5.13081721954071
C           -0.49229133153842       -0.51468245153299        2.94917817172051
C            1.65945619814461       -4.61203025058665        1.45777465594722
C            2.59697584304332       -4.93637481053016        1.67484387191045
C            3.09136311066767       -5.89387635716133        2.03120895621107
C            2.67534087373015       -7.08972024154669        2.09873534381919
H            2.82364769388021       -8.08108140203668        2.29884792935419
C            0.91053344520290       -7.09657933499242        1.58746640182863
C            0.67419634136264       -5.71114261083741        1.29942688729009
N           -1.00408613738225        2.15974410297040        1.48615985848063
N           -0.46715449496652        0.64112042794374       -1.40585209698678
C           -0.89658581835631        0.36004633849706        3.31087193815619
C           -0.91519087830708        1.36231659641769        1.83759205908865
C           -1.55870495035034        3.30265552533218        2.85368643958305
H           -1.76180643877845        3.29195700905097        3.69377608691951
C           -1.41627069426419        3.87792700815322        1.85934851616069
H           -1.52314994179851        4.79447153936262        1.48365177346813
C           -0.78125341436663        2.20706385815490        0.32735013624978
C           -0.86302069218275        3.23999332766617       -0.76389937758639
C           -0.76709762758445        2.50783580424705       -1.78584910506674
C           -0.96301518187950        2.63132699471856       -3.27642194509799
H           -1.12714960483691        3.54929493479469       -3.59694615442878
C           -0.89453201930754        1.22864029223444       -3.77320292752691
H           -1.10528639145304        1.19930613618436       -5.01735324389154
C           -0.66921113813728        0.43872875054173       -3.04859125661902
C           -0.93434309392485        4.65745023606838       -1.19554326299385
C            0.31181170012431        5.34697144879662       -1.55682613063361
C            0.17552770367543        6.68961915539531       -1.96407776354577
C           -1.02604380823159        7.36786276623153       -2.00364716929924
H           -1.06130579703592        8.41661405282038       -2.32507408205413
C           -2.17445671402899        6.71595688610941       -1.64014976290305
C           -2.20574469008143        5.34500251620238       -1.22694369366171
Fe          -0.28922208885144        0.20441486911971       -0.15566036725437
Cl          -2.43492923855483       -0.69832185361323        0.06397263751320
C           -1.61641334113555        0.87690163051149        4.98650618041328
C           -0.87933582008897        1.29311324167589        5.65539333874956
C           -2.83659412247488        0.44929087665598        4.87019377096360
C           -1.17014782834181        1.58646483099656        7.00229635183182
N            0.47943999924495        1.70132097780557        5.54254658926840
C           -3.61901329161012        0.58224744988727        6.08418688902881
N           -3.76562979369817       -0.11556782764272        4.06546192098504
H           -0.77880057846898        1.94247461974375        7.86639819590189
C           -2.81786280197224        1.25904034359974        7.56844087817240
C            1.63646168345620        2.15925209322828        6.40282850253759
H            0.82439062672390        1.60429156892283        4.48841055165124
H           -4.51318720848224        0.42193339326829        6.42223251198960
C           -5.02206653914195       -0.50165811561727        3.94484456940666
H           -3.08482108880389       -0.33403137998956        2.96412327839814
H           -3.10763727828977        1.34201570127754        8.15047485916215
O            1.37774908373216        2.22682775171907        7.56202512245402
C            2.82653233949131        2.43957217496893        5.75270753616082
O           -5.73669157553145       -0.28768613824849        4.77127566362639
C           -5.38082920368662       -1.28024342893512        2.65075058612197
C            4.08731304258839        2.11197272480855        6.41088731968177
H            2.90207591655003        2.44787107211589        4.58194077719411
C            3.70761019969240        3.47023408825822        6.38266818960418
C           -6.80032967224754       -0.95205471219253        2.06597299040591
H           -4.64656059893872       -1.58748698419205        1.96532113504896
C           -6.60056539996252       -2.26073176867047        2.91597896680427
H            3.99992061178148        1.53273991138503        7.40221759002982
H            4.98943568444488        1.77878981842471        5.80534916067779
H            3.25263089344162        3.92638403091150        7.35003422293744
C            4.45526475872211        4.46315518469075        5.56885296406972
H           -7.35901133310689       -0.19143788498754        2.57304527198134
H           -6.86909541867196       -1.07241114083605        0.99561885250542
H           -6.99349158659083       -2.24007380037751        3.90145019219036
C           -6.57271921112819       -3.58150761498699        2.19497239950461
O            4.56649150659407        5.71277888993005        6.16681208940001
O            4.96336411159995        4.21656870077523        4.46590155743176
O           -7.16599330330525       -4.48399937376385        2.96357787066262
O           -6.09172793095421       -3.78261017204111        1.09447479691042
C            5.28635179639341        6.72802319620984        5.50246977552881
C           -7.26634798997000       -5.87335067993127        2.41527283320320
C            4.30924990192104        7.61758679204780        4.70918279690259
C            6.06644984915755        7.50258207625207        6.57338711954703
H            5.99755577526401        6.25061589292058        4.78184366999375
C           -7.24916316359214       -6.80144909648898        3.61967825728422
C           -8.52374704940962       -5.97456179799362        1.56451225321924
H           -6.37050735071574       -6.01935719722604        1.78418551376313
H            3.78789485421372        7.01957432593235        3.93636053731428
H            3.55144284606921        8.05456044018010        5.39164764160414
H            4.84526339104309        8.44138364301952        4.20550244788385
H            6.75208347452519        6.82179873998946        7.11659658248859
H            6.66565912353251        8.31185473241536        6.11847610163400
H            5.36829417642835        7.95277632646929        7.30907029786060
H           -6.32343483339611       -6.66916526478781        4.21485920672769
H           -8.11850369720320       -6.61449657623006        4.28431152647359
H           -7.29540661551971       -7.85836969775248        3.27933773272846
H           -8.48261240581839       -5.27253980868023        0.70795194995903
H           -8.62077935607215       -7.00462209353760        1.15456856594774
H           -9.43258471450630       -5.75428864772303        2.16310655823983
C           -0.63291915854075       -1.42717433603029       -4.47247218170614
C            0.29977540452839       -1.25864669693451       -5.67931965125142
C           -1.91144229283250       -2.18773368511534       -4.93377187596630
C            0.04481530460197       -1.84460028609841       -7.04035627146508
N            1.43973334839751       -0.49192751825565       -5.39548019186248
C           -2.07900574854792       -2.74209559713733       -6.29866889721209
N           -2.87370642935631       -2.27881298447439       -3.94540290845248
H            0.82089595180183       -1.63835499294861       -7.73917796085881
C           -1.09208628572119       -2.50123280661038       -7.14058349312936
C            2.34017762279423        0.02661234078377       -6.22830275255366
H            1.44489288201324       -0.15903317317866       -4.39231147209186
H           -3.00552291571691       -3.27479531606062       -6.42155333460953
C           -4.05622139963633       -2.88734176455851       -3.98232662654324
H           -2.63299854703880       -1.73515044050653       -3.05258635220672
H           -1.27340925786397       -2.97262481723461       -8.24571205198315
O            2.45926520968727       -0.20983604272481       -7.42111529957584
C            3.26557890138824        1.06787194341922       -5.54724402367219
O           -4.47079030896802       -3.61261578395153       -4.87967604099041
C           -4.95918918618505       -2.58784725121548       -2.74933190896746
C            3.56512776019593        2.32937674787374       -6.36182047608685
H            3.21141994275831        1.17657285298826       -4.47488186638957
C            4.66262771374890        1.25610766999536       -6.18491896631009
C           -5.85006488599599       -3.70620375954660       -2.23833771602236
H           -4.59339960964946       -1.87209045732621       -2.02710424402265
C           -6.47371802557469       -2.57079968929118       -3.07260244183032
H            3.12680077265737        2.38503562081688       -7.35448577191442
H            3.68468783376643        3.24929908024750       -5.78907071043252
H            4.88340405497103        0.64008084998773       -7.04754239197015
C            5.78012824725600        1.57827926364261       -5.24766532227367
H           -5.78359386488565       -4.66320106651190       -2.75125968891057
H           -6.02814653799901       -3.69679308079670       -1.15838940564781
H           -6.73260053401054       -2.81638237314261       -4.09688296832412
C           -7.30293217153514       -1.53887227061462       -2.39213552674742
O            6.93939107057615        1.11118038164231       -5.74143463277028
O            5.66355337403470        2.18964059575816       -4.19045708906837
O           -8.30102650064129       -1.14079133830021       -3.21869100400179
O           -7.13446747523085       -1.10153910406158       -1.26259850258584
C            8.16912748682051        1.35920159217551       -4.96462074212967
C           -9.23231272168936       -0.12164959427294       -2.70847135312312
C            9.06884159894577        0.15266882281264       -5.19848565405891
C            8.77520599170733        2.68600588656878       -5.41256874567786
H            7.86496528899108        1.42801841532744       -3.90065029549883
C           -8.66491259159667        1.26419449248275       -3.00022552482646
C          -10.57254722439810       -0.39979445434154       -3.37793198938788
H           -9.29948922907931       -0.26883152964837       -1.61115692875482
H            8.56640828220090       -0.78232553354189       -4.87966255461249
H            9.33467673810932        0.05675673135642       -6.27171811988276
H           10.00848343197966        0.26190489730445       -4.61737929904226
H            8.07729867807577        3.52608321198883       -5.22410938642666
H            9.71092549993396        2.88710353006823       -4.84866726452753
H            9.02105185625529        2.66419895493172       -6.49467449544936
H           -7.69591199371331        1.41021579996289       -2.48345643486653
H           -8.51521039003601        1.40958570198959       -4.09059101578985
H           -9.36434314834371        2.04774645189366       -2.63783396489193
H          -10.92719417690417       -1.42480438980986       -3.14898910091597
H          -11.33571841692633        0.32054997624295       -3.01515577902672
H          -10.49598066417729       -0.29764751812197       -4.48058167232704
H            4.40328149261109       -6.10085215554093        2.44111607043858
H            0.53670685263865       -7.83090744208450        1.59310382747903
H            1.15044664416389        7.21866315190692       -2.28753559973593
H           -3.18762635249991        7.25398953156798       -1.65461451822093
O            3.23951377228855       -3.39270602610601        1.94981484555035
O           -0.78779732208076       -5.58495226054804        0.83604307644143
O            1.39867522043355        4.64618967724008       -1.51796602991969
O           -3.26920565117201        4.68176051183609       -0.87604256648763
C            5.40949326618045       -4.76404838294818        0.47154906801724
C            5.25080502725856       -3.37923115283024        4.01701081248249
C            4.91180617607896       -2.94316828137401        4.76256926918066
C            6.90642325199595       -3.92553192970992        1.16470768969470
H            6.03652088540160       -4.28394535112867       -0.81244918781462
C            6.41513498000927       -3.17133745865094        4.17553888327731
H            4.61944260240023       -3.13795592333056        3.96730761225354
C            7.85974205185240       -3.63612118027206        2.61723749770375
H            8.08315109806987       -4.07355994182161        0.88190693173979
H            6.74132331798270       -3.04541036523202        4.72364112183368
H            8.51636770445277       -3.50304837969818        3.25158785947860
C           -1.64218860974717       -6.51220430769659        1.00607625486141
C           -2.03399657538881       -6.97709306565087        2.31925570418925
C           -2.26458603436852       -6.95390535568362       -0.12034670293568
C           -3.07091538261380       -7.92811817421145        2.43571014351412
H           -1.51873898291467       -6.57530235706877        3.19340959931559
C           -3.42415775656065       -8.00067933007742       -0.00688298032122
H           -2.02602721457239       -6.62853345761722       -1.10157149039629
C           -3.70344527986381       -8.38951500776104        1.29764630899861
H           -3.35485959499324       -8.27167424459311        3.43326144164095
H           -3.86080213995776       -8.30030536216588       -0.85779932023971
H           -4.54223230835074       -9.15842134630360        1.39573926943696
C            2.63690380950153        5.07579644278614       -1.48355975543233
C            2.89179753415246        6.25063884920262       -0.50724655549023
C            3.75812103459200        4.55424843130192       -2.16215891947920
C            4.40973652399305        6.70416791870638       -0.43595724031490
H            2.22770077477453        6.67087166372980        0.01388042960376
C            4.94337875166066        5.00079201002451       -2.00913763480542
H            3.40909423180819        3.65837201449011       -2.84623545004026
C            5.29727552900022        5.95547195468131       -1.26486518197896
H            4.54687766856986        7.45653604525133        0.19350910176257
H            5.81587664505088        4.41404606544757       -2.67249038128098
H            6.39672811293508        6.38821636555366       -1.11823980283124
C           -4.51272917981060        5.03608764505712       -1.10756454093691
C           -4.84152303787374        5.25712900360552       -2.60766856395461
C           -5.56447765672571        5.17648604637366       -0.18166479240809
C           -6.33868691332872        5.62620470691268       -2.86954498673771
H           -4.21050094115017        5.16933399853210       -3.29576200325476
C           -6.77203997620117        5.47959703596746       -0.53843052345651
H           -5.16270885565308        4.96212104353541        0.89498921727232
C           -7.17172674199609        5.69664866043590       -1.71883054534952
H           -6.53616083862377        5.76169314133800       -3.85097182214673
H           -7.59398443352473        5.56096977702615        0.37293419621829
H           -8.27427644136163        5.97900999672199       -2.05194192926282
N            1.51444708863404        0.34828831041654        0.16979746615442
C            2.51725033426544        1.07400197446914        0.68038600752304
C            2.29082182913874        2.23007737155260        1.48168529945259
C            3.32627082577074        2.95970282943330        2.01475592928745
C            4.64826399695605        2.58175489819404        1.78626020621982
C            4.92800980191391        1.46019747892966        1.00885559086865
C            3.90407993196197        0.70910066762743        0.44267185454757
C            4.21044883795503       -0.52958300956614       -0.36793845900814
C            4.23224766711562       -1.72785375347887        0.54372201670282
C            4.58438962960317       -3.08324301822445       -0.28334125302643
C            5.81476200922681       -2.78933271608905       -1.00748928746409
C            6.22714660410127       -4.49974370961295       -1.75024314413425
C            5.10688385032359       -5.26345795475094       -1.80161302340162
C            3.80643936844301       -4.80671231545105       -1.67773393997986
C            3.52328671855154       -3.73418953836131       -0.92260927022216
H            1.25579779522154        2.51487096927330        1.66243138498559
H            3.11353680865516        3.83787735222212        2.62519260796573
H            5.46446834790877        3.16136636035607        2.21848146952353
H            5.96481357975094        1.17147924917060        0.84674908103285
H            5.20742572647653       -0.40058412426878       -0.85732323580104
H            3.46904062530190       -0.64860511631486       -1.18629063354186
H            3.23945839045067       -1.89461471996623        1.01115928906024
H            4.97887239832698       -1.64304714566058        1.32280947577427
H            6.73584822079618       -2.85344309797480       -0.03369365187629
H            7.16456868891015       -4.81318054902711       -1.40700295722762
H            5.39338854784942       -6.10949804621383       -2.47213053251620
H            3.01399320234872       -5.41090602411293       -2.17629669008298
H            2.49619051076338       -3.41522822308032       -0.79497562302763

 Bond Distances (Angstroems)
 ---------------------------
N1-C4=1.0560         N1-C5=0.2008         N1-C10=1.5150        N2-C9=1.7966         N2-C11=1.7292        N2-C16=1.0379        
N2-C26=1.8642        N2-Fe47=2.3384       C3-C39=1.3702        C3-C106=1.0895       C4-N1=1.0560         C4-C5=0.8767         
C5-N1=0.2008         C5-C4=0.8767         C5-C10=1.7053        H6-C7=1.2806         C7-H6=1.2806         C9-N2=1.7966         
C9-C10=1.5866        C9-C11=0.1131        C10-N1=1.5150        C10-C5=1.7053        C10-C9=1.5866        C10-C11=1.6788       
C11-N2=1.7292        C11-C9=0.1131        C11-C10=1.6788       C12-H13=0.6406       C12-C14=1.4946       H13-C12=0.6406       
C14-C12=1.4946       C14-H15=1.2127       C14-C16=1.5327       H15-C14=1.2127       C16-N2=1.0379        C16-C14=1.5327       
C16-C26=1.0293       C17-C18=1.0155       C17-C23=1.4845       C18-C17=1.0155       C18-C19=1.1350       C18-O167=1.6945      
C19-C18=1.1350       C19-C20=1.2679       C19-H163=1.3900      C20-C19=1.2679       C20-H21=1.0222       C20-C22=1.8374       
H21-C20=1.0222       C22-C20=1.8374       C22-C23=1.4347       C22-H164=0.8240      C23-C17=1.4845       C23-C22=1.4347       
C23-O168=1.5389      N24-C27=0.8760       N24-C28=1.8665       N24-C30=1.8059       N24-C32=1.1810       N25-C39=1.6674       
N25-Fe47=1.3362      C26-N2=1.8642        C26-C16=1.0293       C26-C27=1.7820       C26-C49=1.8955       C27-N24=0.8760       
C27-C26=1.7820       C27-C32=1.7356       C27-Fe47=2.3886      C28-N24=1.8665       C28-H29=0.8644       C28-C30=1.1576       
H29-C28=0.8644       C30-N24=1.8059       C30-C28=1.1576       C30-H31=0.9963       H31-C30=0.9963       C32-N24=1.1810       
C32-C27=1.7356       C32-C33=1.5048       C32-Fe47=2.1180      C33-C32=1.5048       C33-C34=1.2608       C33-C40=1.4834       
C34-C33=1.2608       C34-C35=1.5085       C35-C34=1.5085       C35-H36=0.9861       C35-C37=1.4896       H36-C35=0.9861       
C37-C35=1.4896       C37-H38=1.2622       C37-C39=1.0954       H38-C37=1.2622       C39-C3=1.3702        C39-N25=1.6674       
C39-C37=1.0954       C40-C33=1.4834       C40-C41=1.4693       C40-C46=1.4457       C41-C40=1.4693       C41-C42=1.4097       
C41-O169=1.2938      C42-C41=1.4097       C42-C43=1.3803       C42-H165=1.1554      C43-C42=1.3803       C43-H44=1.0975       
C43-C45=1.3697       H44-C43=1.0975       C45-C43=1.3697       C45-C46=1.4322       C45-H166=1.1473      C46-C40=1.4457       
C46-C45=1.4322       C46-O170=1.3015      Fe47-N2=2.3384       Fe47-N25=1.3362      Fe47-C27=2.3886      Fe47-C32=2.1180      
Fe47-Cl48=2.3382     Fe47-N215=1.8384     Cl48-Fe47=2.3382     C49-C26=1.8955       C49-C50=1.0789       C49-C51=1.2982       
C50-C49=1.0789       C50-C52=1.4088       C50-N53=1.4232       C51-C49=1.2982       C51-C54=1.4504       C51-N55=1.3527       
C52-C50=1.4088       C52-H56=1.0132       C52-C57=1.7728       N53-C50=1.4232       N53-C58=1.5128       N53-H59=1.1134       
C54-C51=1.4504       C54-C57=1.8174       C54-H60=0.9693       N55-C51=1.3527       N55-C61=1.3199       N55-H62=1.3131       
H56-C52=1.0132       C57-C52=1.7728       C57-C54=1.8174       C57-H63=0.6555       C58-N53=1.5128       C58-O64=1.1896       
C58-C65=1.3847       H59-N53=1.1134       H60-C54=0.9693       C61-N55=1.3199       C61-O66=1.1133       C61-C67=1.5523       
H62-N55=1.3131       H63-C57=0.6555       O64-C58=1.1896       C65-C58=1.3847       C65-C68=1.4595       C65-H69=1.1732       
C65-C70=1.4951       O66-C61=1.1133       C67-C61=1.5523       C67-C71=1.5699       C67-H72=1.0504       C67-C73=1.5873       
C68-C65=1.4595       C68-C70=1.4106       C68-H74=1.1515       C68-H75=1.1364       H69-C65=1.1732       C70-C65=1.4951       
C70-C68=1.4106       C70-H76=1.1623       C70-C77=1.4857       C71-C67=1.5699       C71-C73=1.5732       C71-H78=1.0713       
C71-H79=1.0793       H72-C67=1.0504       C73-C67=1.5873       C73-C71=1.5732       C73-H80=1.0611       C73-C81=1.5050       
H74-C68=1.1515       H75-C68=1.1364       H76-C70=1.1623       C77-C70=1.4857       C77-O82=1.3898       C77-O83=1.2391       
H78-C71=1.0713       H79-C71=1.0793       H80-C73=1.0611       C81-C73=1.5050       C81-O84=1.3256       C81-O85=1.2177       
O82-C77=1.3898       O82-C86=1.4108       O83-C77=1.2391       O84-C81=1.3256       O84-C87=1.4970       O85-C81=1.2177       
C86-O82=1.4108       C86-C88=1.5412       C86-C89=1.5347       C86-H90=1.1194       C87-O84=1.4970       C87-C91=1.5206       
C87-C92=1.5215       C87-H93=1.1055       C88-C86=1.5412       C88-H94=1.1076       C88-H95=1.1095       C88-H96=1.1044       
C89-C86=1.5347       C89-H97=1.1084       C89-H98=1.1050       C89-H99=1.1097       H90-C86=1.1194       C91-C87=1.5206       
C91-H100=1.1085      C91-H101=1.1102      C91-H102=1.1113      C92-C87=1.5215       C92-H103=1.1083      C92-H104=1.1129      
C92-H105=1.1103      H93-C87=1.1055       H94-C88=1.1076       H95-C88=1.1095       H96-C88=1.1044       H97-C89=1.1084       
H98-C89=1.1050       H99-C89=1.1097       H100-C91=1.1085      H101-C91=1.1102      H102-C91=1.1113      H103-C92=1.1083      
H104-C92=1.1129      H105-C92=1.1103      C106-C3=1.0895       C106-C107=1.5345     C106-C108=1.5575     C107-C106=1.5345     
C107-C109=1.5036     C107-N110=1.4028     C108-C106=1.5575     C108-C111=1.4827     C108-N112=1.3824     C109-C107=1.5036     
C109-H113=1.0645     C109-C114=1.3167     N110-C107=1.4028     N110-C115=1.3316     N110-H116=1.0570     C111-C108=1.4827     
C111-C114=1.3194     C111-H117=1.0758     N112-C108=1.3824     N112-C118=1.3304     N112-H119=1.0727     H113-C109=1.0645     
C114-C109=1.3167     C114-C111=1.3194     C114-H120=1.2151     C115-N110=1.3316     C115-O121=1.2218     C115-C122=1.5506     
H116-N110=1.0570     H117-C111=1.0758     C118-N112=1.3304     C118-O123=1.2260     C118-C124=1.5573     H119-N112=1.0727     
H120-C114=1.2151     O121-C115=1.2218     C122-C115=1.5506     C122-C125=1.5312     C122-H126=1.0792     C122-C127=1.5472     
O123-C118=1.2260     C124-C118=1.5573     C124-C128=1.5184     C124-H129=1.0806     C124-C130=1.5487     C125-C122=1.5312     
C125-C127=1.5452     C125-H131=1.0866     C125-H132=1.0902     H126-C122=1.0792     C127-C122=1.5472     C127-C125=1.5452     
C127-H133=1.0828     C127-C134=1.4937     C128-C124=1.5184     C128-C130=1.5408     C128-H135=1.0878     C128-H136=1.0946     
H129-C124=1.0806     C130-C124=1.5487     C130-C128=1.5408     C130-H137=1.0847     C130-C138=1.4885     H131-C125=1.0866     
H132-C125=1.0902     H133-C127=1.0828     C134-C127=1.4937     C134-O139=1.3438     C134-O140=1.2268     H135-C128=1.0878     
H136-C128=1.0946     H137-C130=1.0847     C138-C130=1.4885     C138-O141=1.3557     C138-O142=1.2229     O139-C134=1.3438     
O139-C143=1.4755     O140-C134=1.2268     O141-C138=1.3557     O141-C144=1.4718     O142-C138=1.2229     C143-O139=1.4755     
C143-C145=1.5231     C143-C146=1.5259     C143-H147=1.1087     C144-O141=1.4718     C144-C148=1.5257     C144-C149=1.5237     
C144-H150=1.1092     C145-C143=1.5231     C145-H151=1.1083     C145-H152=1.1098     C145-H153=1.1102     C146-C143=1.5259     
C146-H154=1.1083     C146-H155=1.1109     C146-H156=1.1099     H147-C143=1.1087     C148-C144=1.5257     C148-H157=1.1079     
C148-H158=1.1102     C148-H159=1.1111     C149-C144=1.5237     C149-H160=1.1085     C149-H161=1.1104     C149-H162=1.1100     
H150-C144=1.1092     H151-C145=1.1083     H152-C145=1.1098     H153-C145=1.1102     H154-C146=1.1083     H155-C146=1.1109     
H156-C146=1.1099     H157-C148=1.1079     H158-C148=1.1102     H159-C148=1.1111     H160-C149=1.1085     H161-C149=1.1104     
H162-C149=1.1100     H163-C19=1.3900      H164-C22=0.8240      H165-C42=1.1554      H166-C45=1.1473      O167-C18=1.6945      
O168-C23=1.5389      O168-C182=1.2723     O169-C41=1.2938      O169-C193=1.3111     O170-C46=1.3015      O170-C204=1.3136     
C171-C174=1.8505     C172-C173=0.9279     C172-C176=1.1933     C172-H177=0.6777     C173-C172=0.9279     C173-C176=1.6299     
C173-H177=0.8694     C174-C171=1.8505     C174-C178=1.7614     C174-H179=1.2193     H175-C226=0.9810     C176-C172=1.1933     
C176-C173=1.6299     C176-H180=0.6501     H177-C172=0.6777     H177-C173=0.8694     C178-C174=1.7614     C178-H181=0.9226     
H179-C174=1.2193     H180-C176=0.6501     H181-C178=0.9226     C182-O168=1.2723     C182-C183=1.4471     C182-C184=1.3606     
C183-C182=1.4471     C183-C185=1.4118     C183-H186=1.0914     C184-C182=1.3606     C184-C187=1.5663     C184-H188=1.0609     
C185-C183=1.4118     C185-C189=1.3814     C185-H190=1.0926     H186-C183=1.0914     C187-C184=1.5663     C187-C189=1.3896     
C187-H191=1.0022     H188-C184=1.0609     C189-C185=1.3814     C189-C187=1.3896     C189-H192=1.1421     H190-C185=1.0926     
H191-C187=1.0022     H192-C189=1.1421     C193-O169=1.3111     C193-C194=1.5487     C193-C195=1.4105     C194-C193=1.5487     
C194-C196=1.5858     C194-H197=0.9430     C195-C193=1.4105     C195-C198=1.2758     C195-H199=1.1800     C196-C194=1.5858     
C196-C200=1.4267     C196-H201=0.9905     H197-C194=0.9430     C198-C195=1.2758     C198-C200=1.2612     C198-H202=1.2432     
H199-C195=1.1800     C200-C196=1.4267     C200-C198=1.2612     C200-H203=1.1906     H201-C196=0.9905     H202-C198=1.2432     
H203-C200=1.1906     C204-O170=1.3136     C204-C205=1.5515     C204-C206=1.4083     C205-C204=1.5515     C205-C207=1.5641     
C205-H208=0.9377     C206-C204=1.4083     C206-C209=1.2951     C206-H210=1.1690     C207-C205=1.5641     C207-C211=1.4223     
C207-H212=1.0102     H208-C205=0.9377     C209-C206=1.2951     C209-C211=1.2650     C209-H213=1.2300     H210-C206=1.1690     
C211-C207=1.4223     C211-C209=1.2650     C211-H214=1.1859     H212-C207=1.0102     H213-C209=1.2300     H214-C211=1.1859     
N215-Fe47=1.8384     N215-C216=1.3390     C216-N215=1.3390     C216-C217=1.4247     C216-C221=1.4536     C217-C216=1.4247     
C217-C218=1.3743     C217-H230=1.0886     C218-C217=1.3743     C218-C219=1.3938     C218-H231=1.0904     C219-C218=1.3938     
C219-C220=1.3930     C219-H232=1.0904     C220-C219=1.3930     C220-C221=1.3904     C220-H233=1.0884     C221-C216=1.4536     
C221-C220=1.3904     C221-C222=1.5117     C222-C221=1.5117     C222-C223=1.5058     C222-H234=1.1181     C222-H235=1.1107     
C223-C222=1.5058     C223-C224=1.6264     C223-H236=1.1099     C223-H237=1.0824     C224-C223=1.6264     C224-C225=1.4576     
C224-C229=1.3994     C225-C224=1.4576     C225-C226=1.9098     C225-H238=1.3419     C226-H175=0.9810     C226-C225=1.9098     
C226-C227=1.3568     C226-H239=1.0463     C227-C226=1.3568     C227-C228=1.3839     C227-H240=1.1169     C228-C227=1.3839     
C228-C229=1.3419     C228-H241=1.1143     C229-C224=1.3994     C229-C228=1.3419     C229-H242=1.0830     H230-C217=1.0886     
H231-C218=1.0904     H232-C219=1.0904     H233-C220=1.0884     H234-C222=1.1181     H235-C222=1.1107     H236-C223=1.1099     
H237-C223=1.0824     H238-C225=1.3419     H239-C226=1.0463     H240-C227=1.1169     H241-C228=1.1143     H242-C229=1.0830     
 C  H  Rav=1.0802 sigma=0.1227  Rmin=0.6406  Rmax=1.3900    97
 C  C  Rav=1.4457 sigma=0.2234  Rmin=0.1131  Rmax=1.9098   110
 N  H  Rav=1.1390 sigma=0.1026  Rmin=1.0570  Rmax=1.3131     4
 N  C  Rav=1.3805 sigma=0.3771  Rmin=0.2008  Rmax=1.8665    21
 O  C  Rav=1.3327 sigma=0.1310  Rmin=1.1133  Rmax=1.6945    23
 Fe C  Rav=2.2533 sigma=0.1353  Rmin=2.1180  Rmax=2.3886     2
 Fe N  Rav=1.8377 sigma=0.4091  Rmin=1.3362  Rmax=2.3384     3
 Fe Cl Rav=2.3382 sigma=0.0000  Rmin=2.3382  Rmax=2.3382     1

 selected bond angles (degree)
 --------------------
C5-N1-C4= 24.24                C10-N1-C4=170.68               C10-N1-C5=160.17               C11-N2-C9=  2.95               
C16-N2-C9=134.50               C16-N2-C11=131.73              C26-N2-C9=159.95               C26-N2-C11=157.22              
C26-N2-C16= 25.48              Fe47-N2-C9= 86.43              Fe47-N2-C11= 89.27             Fe47-N2-C16=138.82             
Fe47-N2-C26=113.43             C106-C3-C39=145.01             C5-C4-N1=  5.40                C4-C5-N1=150.36                
C10-C5-N1= 17.54               C10-C5-C4=165.20               C10-C9-N2=164.34               C11-C9-N2= 51.96               
C11-C9-C10=143.48              C5-C10-N1=  2.29               C9-C10-N1=109.03               C9-C10-C5=110.85               
C11-C10-N1=111.32              C11-C10-C5=113.15              C11-C10-C9=  2.30              

 selected dihedral angles (degree)
 ---------------------------------
C5-C4-N1-C10=232.05           C4-C5-N1-C10=157.89           C10-C5-N1-C4=202.11           C10-C5-C4-N1= 26.38           
C10-C9-N2-C11=171.55          C10-C9-N2-C16=150.40          C10-C9-N2-C26=147.92          C10-C9-N2-Fe47=335.51         
C11-C9-N2-C16=338.85          C11-C9-N2-C26=336.37          C11-C9-N2-Fe47=163.96         C5-C10-N1-C4=107.40           
C9-C10-N1-C4=324.30           C9-C10-N1-C5=216.90           C11-C10-N1-C4=324.16          C11-C10-N1-C5=216.76          
N1-C10-C5-C4=313.21           C9-C10-C5-N1= 37.40           C9-C10-C5-C4=350.60           C11-C10-C5-N1= 37.32          
C11-C10-C5-C4=350.53          N1-C10-C9-N2= 14.47           N1-C10-C9-C11=183.26          C5-C10-C9-N2= 13.00           
C5-C10-C9-C11=181.78          C11-C10-C9-N2=191.22          
           -------------------------------------------------
          |                Final Singlepoint                |
           -------------------------------------------------

          ...................................................
          :                      SETUP                      :
          :.................................................:
          :  # basis functions                 677          :
          :  # atomic orbitals                 675          :
          :  # shells                          385          :
          :  # electrons                       713          :
          :  max. iterations                   250          :
          :  Hamiltonian                  GFN2-xTB          :
          :  restarted?                      false          :
          :  GBSA solvation                   true          :
          :  PC potential                    false          :
          :  electronic temp.          300.0000000     K    :
          :  accuracy                    1.0000000          :
          :  -> integral cutoff          0.2500000E+02      :
          :  -> integral neglect         0.1000000E-07      :
          :  -> SCF convergence          0.1000000E-05 Eh   :
          :  -> wf. convergence          0.1000000E-03 e    :
          :  Broyden damping             0.4000000          :
          :  net charge                          0          :
          :  unpaired electrons                  1          :
          ...................................................

 iter      E             dE          RMSdq      gap      omega  full diag
   1   -397.6183835 -0.397618E+03  0.382E-04    0.08       0.0  T
   2   -397.6183745  0.899895E-05  0.516E-03    0.08       1.2  T
   3   -397.6183827 -0.826803E-05  0.149E-03    0.08       4.3  T
   4   -397.6183834 -0.678505E-06  0.486E-04    0.08      13.2  T
   5   -397.6183835 -0.998375E-07  0.122E-04    0.08      52.5  T

   *** convergence criteria satisfied after 5 iterations ***

         #    Occupation            Energy/Eh            Energy/eV
      -------------------------------------------------------------
         1        2.0000           -1.0473099             -28.4988
       ...           ...                  ...                  ...
       351        2.0000           -0.3281749              -8.9301
       352        2.0000           -0.3256357              -8.8610
       353        1.9995           -0.3234410              -8.8013
       354        1.9958           -0.3213870              -8.7454
       355        1.9909           -0.3206587              -8.7256
       356        1.6017           -0.3166967              -8.6178
       357        1.1913           -0.3154902              -8.5849 (HOMO)
       358        0.2007           -0.3124114              -8.5011 (LUMO)
       359        0.0192           -0.3100219              -8.4361
       360        0.0008           -0.3070130              -8.3542
       361        0.0001           -0.3051999              -8.3049
       362        0.0000           -0.3011261              -8.1941
       ...           ...                  ...                  ...
       675                        275.1923197            7488.3642
      -------------------------------------------------------------
                  HL-Gap            0.0030788 Eh            0.0838 eV
             Fermi-level           -0.3149796 Eh           -8.5710 eV

 SCC (total)                   0 d,  0 h,  0 min,  1.436 sec
 SCC setup                      ...        0 min,  0.010 sec (  0.672%)
 Dispersion                     ...        0 min,  0.006 sec (  0.401%)
 classical contributions        ...        0 min,  0.002 sec (  0.127%)
 integral evaluation            ...        0 min,  0.076 sec (  5.301%)
 iterations                     ...        0 min,  0.579 sec ( 40.343%)
 molecular gradient             ...        0 min,  0.687 sec ( 47.863%)
 printout                       ...        0 min,  0.076 sec (  5.292%)

         :::::::::::::::::::::::::::::::::::::::::::::::::::::
         ::                     SUMMARY                     ::
         :::::::::::::::::::::::::::::::::::::::::::::::::::::
         :: total energy            -271.243827017823 Eh    ::
         :: total w/o Gsasa/hb      -271.125430513047 Eh    ::
         :: gradient norm            625.325760481050 Eh/a0 ::
         :: HOMO-LUMO gap              0.083777332428 eV    ::
         ::.................................................::
         :: SCC energy              -397.594854562408 Eh    ::
         :: -> isotropic ES            0.732712777221 Eh    ::
         :: -> anisotropic ES          0.029237693645 Eh    ::
         :: -> anisotropic XC          0.173203275042 Eh    ::
         :: -> dispersion             -0.348517008140 Eh    ::
         :: -> Gsolv                  -0.196725529000 Eh    ::
         ::    -> Gelec               -0.078329024224 Eh    ::
         ::    -> Gsasa               -0.115330082202 Eh    ::
         ::    -> Ghb                 -0.008019860152 Eh    ::
         ::    -> Gshift               0.004953437577 Eh    ::
         :: repulsion energy         126.351027544584 Eh    ::
         :: add. restraining           0.000000000000 Eh    ::
         :: total charge              -0.000000000000 e     ::
         :::::::::::::::::::::::::::::::::::::::::::::::::::::

           -------------------------------------------------
          |                Property Printout                |
           -------------------------------------------------

    * Orbital Energies and Occupations

         #    Occupation            Energy/Eh            Energy/eV
      -------------------------------------------------------------
         1        2.0000           -1.0473099             -28.4988
       ...           ...                  ...                  ...
       345        2.0000           -0.3540237              -9.6335
       346        2.0000           -0.3478554              -9.4656
       347        2.0000           -0.3412461              -9.2858
       348        2.0000           -0.3371270              -9.1737
       349        2.0000           -0.3347226              -9.1083
       350        2.0000           -0.3334504              -9.0736
       351        2.0000           -0.3281749              -8.9301
       352        2.0000           -0.3256357              -8.8610
       353        1.9995           -0.3234410              -8.8013
       354        1.9958           -0.3213870              -8.7454
       355        1.9909           -0.3206587              -8.7256
       356        1.6017           -0.3166967              -8.6178
       357        1.1913           -0.3154902              -8.5849 (HOMO)
       358        0.2007           -0.3124114              -8.5011 (LUMO)
       359        0.0192           -0.3100219              -8.4361
       360        0.0008           -0.3070130              -8.3542
       361        0.0001           -0.3051999              -8.3049
       362        0.0000           -0.3011261              -8.1941
       363                         -0.2938535              -7.9962
       364                         -0.2900014              -7.8913
       365                         -0.2824062              -7.6847
       366                         -0.2813265              -7.6553
       367                         -0.2747638              -7.4767
       368                         -0.2728247              -7.4239
       ...                                ...                  ...
       675                        275.1923197            7488.3642
      -------------------------------------------------------------
                  HL-Gap            0.0030788 Eh            0.0838 eV
             Fermi-level           -0.3149796 Eh           -8.5710 eV

     #   Z          covCN         q      C6AA      α(0)
     1   7 N        2.892     0.738    11.628     5.064
     2   7 N        3.620    -0.361    29.273     8.036
     3   6 C        2.439    -0.022    28.983     8.783
     4   6 C        2.333    -0.331    39.099    10.164
     5   6 C        3.331     0.465    17.642     6.663
     6   1 H        0.801     0.141     1.481     1.912
     7   6 C        1.854    -0.329    41.478    10.403
     8   1 H        0.023    -0.015     8.297     5.266
     9   6 C        2.687     0.151    24.712     8.135
    10   6 C        4.198    -0.352    27.859     7.496
    11   6 C        2.735     0.185    24.022     8.024
    12   6 C        1.908    -0.134    34.883     9.538
    13   1 H        0.930     0.104     1.748     2.068
    14   6 C        3.068    -0.073    29.746     8.943
    15   1 H        0.878     0.081     1.975     2.200
    16   6 C        2.986     0.238    23.037     7.873
    17   6 C        2.996    -0.020    28.504     8.758
    18   6 C        3.072     0.157    24.538     8.122
    19   6 C        3.011     0.040    27.086     8.537
    20   6 C        2.848    -0.080    29.995     8.976
    21   1 H        0.929     0.090     1.883     2.146
    22   6 C        2.704    -0.124    31.120     9.131
    23   6 C        3.068     0.077    26.217     8.396
    24   7 N        3.200     0.270    16.919     6.109
    25   7 N        2.177    -0.308    28.474     7.919
    26   6 C        3.281    -0.153    30.261     8.849
    27   6 C        3.349     0.018    24.906     7.869
    28   6 C        2.586    -0.070    29.762     8.920
    29   1 H        0.930     0.134     1.507     1.920
    30   6 C        2.650    -0.058    29.411     8.872
    31   1 H        0.930     0.138     1.472     1.897
    32   6 C        3.840    -0.105    22.467     6.743
    33   6 C        2.942     0.017    27.623     8.620
    34   6 C        2.838    -0.012    28.302     8.718
    35   6 C        3.000    -0.079    29.951     8.977
    36   1 H        0.930     0.072     2.064     2.246
    37   6 C        3.123    -0.011    28.104     8.681
    38   1 H        0.827     0.045     2.409     2.435
    39   6 C        2.980     0.100    25.771     8.327
    40   6 C        3.061    -0.044    29.027     8.835
    41   6 C        2.859     0.146    24.813     8.165
    42   6 C        2.904    -0.075    29.864     8.961
    43   6 C        2.898    -0.031    28.767     8.794
    44   1 H        0.924     0.053     2.282     2.362
    45   6 C        2.906    -0.077    29.911     8.968
    46   6 C        2.863     0.141    24.934     8.185
    47  26 Fe       4.079     0.794     5.015     7.224
    48  17 Cl       0.746    -0.660   121.480    16.859
    49   6 C        2.894    -0.002    28.083     8.689
    50   6 C        2.946     0.136    25.028     8.205
    51   6 C        2.949     0.101    25.764     8.325
    52   6 C        3.013    -0.092    30.288     9.028
    53   7 N        2.749    -0.233    26.087     7.586
    54   6 C        2.912    -0.104    30.616     9.073
    55   7 N        2.570    -0.143    24.116     7.293
    56   1 H        0.929     0.092     1.855     2.130
    57   6 C        2.617    -0.144    31.702     9.209
    58   6 C        2.755     0.294    22.006     7.682
    59   1 H        0.843     0.139     1.479     1.907
    60   1 H        0.930     0.087     1.903     2.157
    61   6 C        2.741     0.313    21.676     7.623
    62   1 H        0.586     0.133     1.878     2.252
    63   1 H        0.930     0.110     1.698     2.037
    64   8 O        0.860    -0.414    21.964     6.283
    65   6 C        3.844    -0.020    20.901     6.503
    66   8 O        0.885    -0.409    21.839     6.266
    67   6 C        3.841    -0.061    21.636     6.617
    68   6 C        3.797    -0.035    21.201     6.556
    69   1 H        0.903     0.065     2.146     2.292
    70   6 C        3.851    -0.019    20.879     6.499
    71   6 C        3.792    -0.058    21.629     6.623
    72   1 H        0.928     0.070     2.086     2.259
    73   6 C        3.845    -0.054    21.505     6.597
    74   1 H        0.911     0.076     2.023     2.225
    75   1 H        0.916     0.076     2.025     2.226
    76   1 H        0.907     0.079     1.990     2.207
    77   6 C        2.702     0.346    21.126     7.523
    78   1 H        0.926     0.072     2.066     2.248
    79   1 H        0.926     0.086     1.913     2.163
    80   1 H        0.927     0.078     2.004     2.214
    81   6 C        2.703     0.362    20.856     7.475
    82   8 O        1.703    -0.283    18.705     5.839
    83   8 O        0.856    -0.440    22.489     6.358
    84   8 O        1.694    -0.297    18.936     5.875
    85   8 O        0.856    -0.465    23.018     6.432
    86   6 C        3.731     0.125    18.636     6.162
    87   6 C        3.724     0.119    18.744     6.182
    88   6 C        3.742    -0.116    22.806     6.813
    89   6 C        3.743    -0.122    22.918     6.830
    90   1 H        0.920     0.044     2.400     2.423
    91   6 C        3.742    -0.118    22.829     6.816
    92   6 C        3.742    -0.114    22.767     6.807
    93   1 H        0.922     0.053     2.289     2.366
    94   1 H        0.922     0.044     2.396     2.421
    95   1 H        0.922     0.056     2.246     2.344
    96   1 H        0.923     0.058     2.220     2.330
    97   1 H        0.922     0.054     2.274     2.359
    98   1 H        0.922     0.061     2.193     2.316
    99   1 H        0.922     0.061     2.184     2.311
   100   1 H        0.922     0.054     2.266     2.354
   101   1 H        0.922     0.065     2.147     2.291
   102   1 H        0.921     0.061     2.184     2.311
   103   1 H        0.922     0.051     2.313     2.379
   104   1 H        0.921     0.061     2.186     2.312
   105   1 H        0.922     0.059     2.213     2.327
   106   6 C        2.965     0.007    27.867     8.659
   107   6 C        2.940     0.047    26.938     8.512
   108   6 C        2.921     0.049    26.901     8.505
   109   6 C        2.897    -0.049    29.206     8.861
   110   7 N        2.685    -0.121    23.640     7.221
   111   6 C        2.898    -0.048    29.194     8.859
   112   7 N        2.682    -0.109    23.387     7.182
   113   1 H        0.927     0.103     1.761     2.075
   114   6 C        2.885     0.008    27.841     8.650
   115   6 C        2.745     0.276    22.327     7.737
   116   1 H        0.856     0.219     1.015     1.578
   117   1 H        0.926     0.098     1.807     2.102
   118   6 C        2.747     0.273    22.386     7.747
   119   1 H        0.854     0.220     1.012     1.577
   120   1 H        0.876     0.023     2.695     2.570
   121   8 O        0.857    -0.455    22.821     6.405
   122   6 C        3.853    -0.050    21.442     6.586
   123   8 O        0.857    -0.460    22.910     6.417
   124   6 C        3.851    -0.045    21.347     6.572
   125   6 C        3.798    -0.056    21.581     6.615
   126   1 H        0.926     0.066     2.134     2.284
   127   6 C        3.852    -0.045    21.349     6.572
   128   6 C        3.799    -0.052    21.512     6.604
   129   1 H        0.926     0.067     2.119     2.276
   130   6 C        3.852    -0.045    21.345     6.571
   131   1 H        0.925     0.080     1.976     2.198
   132   1 H        0.924     0.070     2.084     2.257
   133   1 H        0.925     0.086     1.919     2.166
   134   6 C        2.702     0.357    20.938     7.489
   135   1 H        0.925     0.077     2.013     2.219
   136   1 H        0.924     0.085     1.930     2.173
   137   1 H        0.925     0.082     1.953     2.186
   138   6 C        2.701     0.357    20.941     7.490
   139   8 O        1.697    -0.292    18.858     5.863
   140   8 O        0.856    -0.463    22.975     6.426
   141   8 O        1.698    -0.301    19.014     5.887
   142   8 O        0.856    -0.461    22.935     6.421
   143   6 C        3.726     0.118    18.745     6.182
   144   6 C        3.727     0.120    18.710     6.176
   145   6 C        3.742    -0.122    22.908     6.828
   146   6 C        3.742    -0.115    22.779     6.809
   147   1 H        0.922     0.054     2.270     2.356
   148   6 C        3.742    -0.114    22.751     6.805
   149   6 C        3.742    -0.120    22.880     6.824
   150   1 H        0.922     0.049     2.338     2.391
   151   1 H        0.922     0.061     2.192     2.316
   152   1 H        0.922     0.062     2.173     2.305
   153   1 H        0.922     0.060     2.201     2.320
   154   1 H        0.922     0.049     2.337     2.391
   155   1 H        0.921     0.058     2.225     2.333
   156   1 H        0.922     0.057     2.229     2.335
   157   1 H        0.922     0.048     2.342     2.393
   158   1 H        0.922     0.058     2.228     2.334
   159   1 H        0.921     0.056     2.241     2.341
   160   1 H        0.922     0.056     2.246     2.344
   161   1 H        0.922     0.060     2.200     2.320
   162   1 H        0.922     0.063     2.161     2.299
   163   1 H        0.565    -0.049     5.253     3.799
   164   1 H        0.930     0.091     1.868     2.137
   165   1 H        0.910     0.026     2.640     2.542
   166   1 H        0.913     0.024     2.675     2.558
   167   8 O        0.776    -0.772    30.817     7.440
   168   8 O        1.687    -0.319    19.338     5.937
   169   8 O        1.712    -0.191    17.189     5.598
   170   8 O        1.712    -0.205    17.416     5.635
   171   6 C        1.536    -0.219    39.802    10.358
   172   6 C        2.918     0.094    25.905     8.346
   173   6 C        2.869    -0.154    31.983     9.270
   174   6 C        2.597    -0.086    30.151     8.979
   175   1 H        1.435     0.325     0.635     1.244
   176   6 C        3.043    -0.119    30.983     9.130
   177   1 H        1.863     0.402     0.470     1.070
   178   6 C        1.986    -0.150    35.310     9.596
   179   1 H        0.875     0.083     1.954     2.189
   180   1 H        0.958     0.133     1.509     1.920
   181   1 H        0.930     0.112     1.682     2.028
   182   6 C        2.830     0.164    24.449     8.103
   183   6 C        2.906    -0.067    29.676     8.932
   184   6 C        2.902    -0.079    29.976     8.977
   185   6 C        2.897    -0.033    28.829     8.804
   186   1 H        0.924     0.027     2.631     2.536
   187   6 C        2.889    -0.058    29.434     8.895
   188   1 H        0.927     0.047     2.354     2.399
   189   6 C        2.894    -0.029    28.719     8.786
   190   1 H        0.924     0.037     2.488     2.467
   191   1 H        0.930     0.065     2.146     2.291
   192   1 H        0.914     0.018     2.761     2.599
   193   6 C        2.867     0.126    25.224     8.233
   194   6 C        2.875    -0.104    30.616     9.071
   195   6 C        2.940    -0.033    28.834     8.807
   196   6 C        2.899    -0.062    29.549     8.913
   197   1 H        0.930     0.062     2.172     2.305
   198   6 C        2.859     0.014    27.699     8.626
   199   1 H        0.899     0.035     2.525     2.486
   200   6 C        2.933    -0.015    28.395     8.739
   201   1 H        0.930     0.066     2.134     2.284
   202   1 H        0.850     0.021     2.737     2.592
   203   1 H        0.893     0.018     2.767     2.603
   204   6 C        2.870     0.126    25.231     8.234
   205   6 C        2.878    -0.095    30.392     9.038
   206   6 C        2.933    -0.041    29.014     8.834
   207   6 C        2.903    -0.057    29.422     8.894
   208   1 H        0.930     0.069     2.096     2.264
   209   6 C        2.872     0.010    27.795     8.642
   210   1 H        0.904     0.032     2.556     2.501
   211   6 C        2.924    -0.016    28.418     8.742
   212   1 H        0.929     0.069     2.098     2.265
   213   1 H        0.863     0.013     2.868     2.652
   214   1 H        0.896     0.026     2.655     2.550
   215   7 N        1.722    -0.466    33.188     8.522
   216   6 C        2.887     0.098    25.821     8.331
   217   6 C        2.914    -0.067    29.663     8.931
   218   6 C        2.908    -0.036    28.902     8.815
   219   6 C        2.913    -0.046    29.141     8.852
   220   6 C        2.909    -0.043    29.078     8.842
   221   6 C        2.967    -0.009    28.239     8.717
   222   6 C        3.800    -0.046    21.404     6.587
   223   6 C        3.797    -0.039    21.267     6.566
   224   6 C        3.401     0.061    22.905     7.390
   225   6 C        2.570    -0.186    32.925     9.381
   226   6 C        3.540    -0.144    24.513     7.257
   227   6 C        2.969     0.013    27.713     8.635
   228   6 C        2.923    -0.040    29.002     8.831
   229   6 C        2.918    -0.001    28.048     8.685
   230   1 H        0.925    -0.006     3.171     2.785
   231   1 H        0.924     0.006     2.961     2.691
   232   1 H        0.924     0.024     2.673     2.557
   233   1 H        0.925     0.023     2.694     2.567
   234   1 H        0.920     0.035     2.520     2.483
   235   1 H        0.922     0.031     2.571     2.507
   236   1 H        0.922     0.077     2.006     2.215
   237   1 H        0.925     0.025     2.656     2.549
   238   1 H        0.757     0.069     2.163     2.319
   239   1 H        0.928     0.096     1.823     2.111
   240   1 H        0.920     0.070     2.087     2.260
   241   1 H        0.921     0.052     2.302     2.373
   242   1 H        0.926     0.041     2.439     2.442

 Mol. C6AA /au·bohr⁶  :     741569.942363
 Mol. C8AA /au·bohr⁸  :   18249890.674449
 Mol. α(0) /au        :       1348.977798


Wiberg/Mayer (AO) data.
largest (>0.10) Wiberg bond orders for each atom

 ---------------------------------------------------------------------------
     #   Z sym  total        # sym  WBO       # sym  WBO       # sym  WBO
 ---------------------------------------------------------------------------
     1   7 N    3.963 --     5 C    3.543     4 C    0.212    10 C    0.128
     2   7 N    3.045 --    16 C    1.648    12 C    0.292    47 Fe   0.287
                            26 C    0.243    10 C    0.153
     3   6 C    3.773 --   106 C    1.791    39 C    1.234     4 C    0.235
                            35 C    0.153
     4   6 C    2.671 --     7 C    1.023    10 C    0.521     5 C    0.374
                             3 C    0.235     1 N    0.212
     5   6 C    3.938 --     1 N    3.543     4 C    0.374
     6   1 H    0.928 --     7 C    0.840
     7   6 C    2.852 --     4 C    1.023     6 H    0.840     8 H    0.560
                            10 C    0.223
     8   1 H    0.885 --     7 C    0.560    10 C    0.167
     9   6 C    3.976 --    11 C    3.673    10 C    0.207
    10   6 C    2.422 --     4 C    0.521    17 C    0.467     7 C    0.223
                             9 C    0.207     8 H    0.167    11 C    0.155
                             2 N    0.153     1 N    0.128
    11   6 C    3.969 --     9 C    3.673    10 C    0.155
    12   6 C    3.771 --    14 C    2.177    13 H    0.980     2 N    0.292
    13   1 H    0.988 --    12 C    0.980
    14   6 C    3.918 --    12 C    2.177    15 H    0.894    16 C    0.691
    15   1 H    0.972 --    14 C    0.894
    16   6 C    3.958 --     2 N    1.648    26 C    1.528    14 C    0.691
    17   6 C    3.735 --    18 C    1.796    23 C    1.025    10 C    0.467
                            20 C    0.158
    18   6 C    3.967 --    17 C    1.796    19 C    1.323   167 O    0.694
    19   6 C    3.970 --    20 C    1.722    18 C    1.323   163 H    0.795
    20   6 C    3.957 --    19 C    1.722    22 C    1.017    21 H    0.971
                            17 C    0.158
    21   1 H    0.990 --    20 C    0.971
    22   6 C    3.954 --    23 C    1.708    20 C    1.017   164 H    0.978
    23   6 C    3.843 --    22 C    1.708    17 C    1.025   168 O    0.859
    24   7 N    3.784 --    27 C    2.310    32 C    1.085    30 C    0.125
                            28 C    0.109
    25   7 N    3.441 --    47 Fe   1.692    39 C    0.775    34 C    0.562
    26   6 C    3.695 --    16 C    1.528    27 C    0.760    49 C    0.662
                             2 N    0.243
    27   6 C    3.775 --    24 N    2.310    26 C    0.760    47 Fe   0.143
                            30 C    0.125
    28   6 C    3.931 --    30 C    2.650    29 H    0.961    24 N    0.109
    29   1 H    0.980 --    28 C    0.961
    30   6 C    3.918 --    28 C    2.650    31 H    0.947    27 C    0.125
                            24 N    0.125
    31   1 H    0.978 --    30 C    0.947
    32   6 C    3.607 --    33 C    1.228    24 N    1.085    47 Fe   0.530
                            35 C    0.144   215 N    0.105
    33   6 C    3.938 --    34 C    1.494    32 C    1.228    40 C    0.969
    34   6 C    3.839 --    33 C    1.494    35 C    1.329    25 N    0.562
                            47 Fe   0.219
    35   6 C    3.926 --    34 C    1.329    37 C    1.182    36 H    0.966
                             3 C    0.153    32 C    0.144
    36   1 H    0.991 --    35 C    0.966
    37   6 C    3.927 --    39 C    1.696    35 C    1.182    38 H    0.892
    38   1 H    0.991 --    37 C    0.892
    39   6 C    3.956 --    37 C    1.696     3 C    1.234    25 N    0.775
    40   6 C    3.946 --    46 C    1.324    41 C    1.263    33 C    0.969
    41   6 C    3.908 --    42 C    1.359    40 C    1.263   169 O    1.095
    42   6 C    3.973 --    43 C    1.422    41 C    1.359   165 H    0.959
    43   6 C    3.977 --    45 C    1.467    42 C    1.422    44 H    0.965
    44   1 H    0.996 --    43 C    0.965
    45   6 C    3.971 --    43 C    1.467    46 C    1.314   166 H    0.961
    46   6 C    3.908 --    40 C    1.324    45 C    1.314   170 O    1.078
    47  26 Fe   5.038 --    25 N    1.692   215 N    1.156    32 C    0.530
                            48 Cl   0.462     2 N    0.287    34 C    0.219
                            27 C    0.143
    48  17 Cl   0.595 --    47 Fe   0.462
    49   6 C    3.936 --    50 C    1.669    51 C    1.291    26 C    0.662
    50   6 C    3.973 --    49 C    1.669    52 C    1.177    53 N    0.993
    51   6 C    3.964 --    54 C    1.372    49 C    1.291    55 N    1.107
                            52 C    0.108
    52   6 C    3.918 --    57 C    1.504    50 C    1.177    56 H    0.966
                            51 C    0.108
    53   7 N    3.374 --    58 C    1.055    50 C    0.993    59 H    0.929
                            64 O    0.182
    54   6 C    3.934 --    51 C    1.372    57 C    1.327    60 H    0.972
    55   7 N    3.507 --    61 C    1.193    51 C    1.107    62 H    0.842
                            66 O    0.164
    56   1 H    0.988 --    52 C    0.966
    57   6 C    3.968 --    52 C    1.504    54 C    1.327    63 H    0.982
    58   6 C    3.941 --    64 O    1.721    65 C    1.082    53 N    1.055
    59   1 H    0.980 --    53 N    0.929
    60   1 H    0.990 --    54 C    0.972
    61   6 C    3.933 --    66 O    1.724    55 N    1.193    67 C    0.940
    62   1 H    0.981 --    55 N    0.842
    63   1 H    0.987 --    57 C    0.982
    64   8 O    2.058 --    58 C    1.721    53 N    0.182
    65   6 C    3.931 --    58 C    1.082    69 H    0.943    68 C    0.926
                            70 C    0.856
    66   8 O    2.074 --    61 C    1.724    55 N    0.164
    67   6 C    3.934 --    72 H    0.969    71 C    0.963    61 C    0.940
                            73 C    0.896
    68   6 C    3.936 --    70 C    0.980    75 H    0.964    74 H    0.963
                            65 C    0.926
    69   1 H    0.996 --    65 C    0.943
    70   6 C    3.939 --    77 C    1.015    68 C    0.980    76 H    0.951
                            65 C    0.856
    71   6 C    3.937 --    78 H    0.979    79 H    0.972    67 C    0.963
                            73 C    0.937
    72   1 H    0.995 --    67 C    0.969
    73   6 C    3.940 --    81 C    1.005    80 H    0.970    71 C    0.937
                            67 C    0.896
    74   1 H    0.994 --    68 C    0.963
    75   1 H    0.994 --    68 C    0.964
    76   1 H    0.994 --    70 C    0.951
    77   6 C    3.920 --    83 O    1.707    82 O    1.112    70 C    1.015
    78   1 H    0.995 --    71 C    0.979
    79   1 H    0.992 --    71 C    0.972
    80   1 H    0.994 --    73 C    0.970
    81   6 C    3.917 --    85 O    1.683    84 O    1.163    73 C    1.005
    82   8 O    2.294 --    77 C    1.112    86 C    0.933    83 O    0.169
    83   8 O    2.010 --    77 C    1.707    82 O    0.169
    84   8 O    2.291 --    81 C    1.163    87 C    0.877    85 O    0.169
    85   8 O    1.991 --    81 C    1.683    84 O    0.169
    86   6 C    3.917 --    89 C    1.000    88 C    0.994    90 H    0.957
                            82 O    0.933
    87   6 C    3.908 --    91 C    1.013    92 C    1.011    93 H    0.962
                            84 O    0.877
    88   6 C    3.990 --    86 C    0.994    94 H    0.986    95 H    0.985
                            96 H    0.984
    89   6 C    3.989 --    86 C    1.000    97 H    0.985    99 H    0.984
                            98 H    0.983
    90   1 H    0.998 --    86 C    0.957
    91   6 C    3.989 --    87 C    1.013   100 H    0.984   101 H    0.983
                           102 H    0.980
    92   6 C    3.990 --    87 C    1.011   103 H    0.984   105 H    0.983
                           104 H    0.979
    93   1 H    0.997 --    87 C    0.962
    94   1 H    0.998 --    88 C    0.986
    95   1 H    0.997 --    88 C    0.985
    96   1 H    0.996 --    88 C    0.984
    97   1 H    0.997 --    89 C    0.985
    98   1 H    0.996 --    89 C    0.983
    99   1 H    0.996 --    89 C    0.984
   100   1 H    0.997 --    91 C    0.984
   101   1 H    0.996 --    91 C    0.983
   102   1 H    0.995 --    91 C    0.980
   103   1 H    0.997 --    92 C    0.984
   104   1 H    0.995 --    92 C    0.979
   105   1 H    0.997 --    92 C    0.983
   106   6 C    3.974 --     3 C    1.791   107 C    1.002   108 C    0.986
   107   6 C    3.768 --   109 C    1.322   110 N    1.130   106 C    1.002
   108   6 C    3.790 --   111 C    1.356   112 N    1.153   106 C    0.986
   109   6 C    3.955 --   114 C    1.466   107 C    1.322   113 H    0.948
   110   7 N    3.545 --   115 C    1.237   107 C    1.130   116 H    0.898
                           121 O    0.147
   111   6 C    3.959 --   114 C    1.439   108 C    1.356   117 H    0.947
   112   7 N    3.558 --   118 C    1.236   108 C    1.153   119 H    0.894
                           123 O    0.141
   113   1 H    0.983 --   109 C    0.948
   114   6 C    3.931 --   109 C    1.466   111 C    1.439   120 H    0.940
   115   6 C    3.933 --   121 O    1.651   110 N    1.237   122 C    0.964
   116   1 H    0.950 --   110 N    0.898
   117   1 H    0.984 --   111 C    0.947
   118   6 C    3.934 --   123 O    1.643   112 N    1.236   124 C    0.964
   119   1 H    0.949 --   112 N    0.894
   120   1 H    0.997 --   114 C    0.940
   121   8 O    1.962 --   115 C    1.651   110 N    0.147
   122   6 C    3.938 --   126 H    0.967   115 C    0.964   125 C    0.961
                           127 C    0.903
   123   8 O    1.954 --   118 C    1.643   112 N    0.141
   124   6 C    3.936 --   128 C    0.970   129 H    0.967   118 C    0.964
                           130 C    0.887
   125   6 C    3.935 --   132 H    0.976   131 H    0.975   122 C    0.961
                           127 C    0.933
   126   1 H    0.996 --   122 C    0.967
   127   6 C    3.936 --   134 C    1.012   133 H    0.965   125 C    0.933
                           122 C    0.903
   128   6 C    3.933 --   135 H    0.974   124 C    0.970   136 H    0.968
                           130 C    0.932
   129   1 H    0.995 --   124 C    0.967
   130   6 C    3.934 --   138 C    1.023   137 H    0.965   128 C    0.932
                           124 C    0.887
   131   1 H    0.993 --   125 C    0.975
   132   1 H    0.995 --   125 C    0.976
   133   1 H    0.993 --   127 C    0.965
   134   6 C    3.918 --   140 O    1.686   139 O    1.151   127 C    1.012
   135   1 H    0.994 --   128 C    0.974
   136   1 H    0.992 --   128 C    0.968
   137   1 H    0.993 --   130 C    0.965
   138   6 C    3.916 --   142 O    1.689   141 O    1.131   130 C    1.023
   139   8 O    2.294 --   134 C    1.151   143 C    0.892   140 O    0.169
   140   8 O    1.988 --   134 C    1.686   139 O    0.169
   141   8 O    2.278 --   138 C    1.131   144 C    0.897   142 O    0.165
   142   8 O    1.996 --   138 C    1.689   141 O    0.165
   143   6 C    3.911 --   145 C    1.010   146 C    1.007   147 H    0.961
                           139 O    0.892
   144   6 C    3.913 --   149 C    1.010   148 C    1.007   150 H    0.961
                           141 O    0.897
   145   6 C    3.989 --   143 C    1.010   151 H    0.983   152 H    0.983
                           153 H    0.981
   146   6 C    3.991 --   143 C    1.007   154 H    0.985   156 H    0.984
                           155 H    0.981
   147   1 H    0.997 --   143 C    0.961
   148   6 C    3.991 --   144 C    1.007   157 H    0.985   158 H    0.984
                           159 H    0.981
   149   6 C    3.989 --   144 C    1.010   160 H    0.984   162 H    0.983
                           161 H    0.981
   150   1 H    0.998 --   144 C    0.961
   151   1 H    0.996 --   145 C    0.983
   152   1 H    0.996 --   145 C    0.983
   153   1 H    0.995 --   145 C    0.981
   154   1 H    0.998 --   146 C    0.985
   155   1 H    0.996 --   146 C    0.981
   156   1 H    0.997 --   146 C    0.984
   157   1 H    0.998 --   148 C    0.985
   158   1 H    0.997 --   148 C    0.984
   159   1 H    0.996 --   148 C    0.981
   160   1 H    0.997 --   149 C    0.984
   161   1 H    0.996 --   149 C    0.981
   162   1 H    0.996 --   149 C    0.983
   163   1 H    0.986 --    19 C    0.795
   164   1 H    0.989 --    22 C    0.978
   165   1 H    0.998 --    42 C    0.959
   166   1 H    0.998 --    45 C    0.961
   167   8 O    1.289 --    18 C    0.694
   168   8 O    2.218 --   182 C    1.105    23 C    0.859
   169   8 O    2.432 --    41 C    1.095   193 C    1.055
   170   8 O    2.399 --    46 C    1.078   204 C    1.047
   171   6 C    2.564 --   174 C    0.933   224 C    0.575   226 C    0.230
                           175 H    0.158   178 C    0.128   225 C    0.108
   172   6 C    3.905 --   173 C    2.020   176 C    1.302   177 H    0.481
   173   6 C    2.999 --   172 C    2.020   176 C    0.460   177 H    0.338
                           178 C    0.106
   174   6 C    3.777 --   178 C    1.395   171 C    0.933   179 H    0.841
                           238 H    0.303   225 C    0.114
   175   1 H    0.892 --   226 C    0.475   171 C    0.158   225 C    0.153
   176   6 C    3.632 --   172 C    1.302   180 H    0.969   178 C    0.711
                           173 C    0.460
   177   1 H    0.838 --   172 C    0.481   173 C    0.338
   178   6 C    3.679 --   174 C    1.395   181 H    0.951   176 C    0.711
                           225 C    0.175   171 C    0.128   173 C    0.106
   179   1 H    0.988 --   174 C    0.841
   180   1 H    0.980 --   176 C    0.969
   181   1 H    0.985 --   178 C    0.951
   182   6 C    3.941 --   184 C    1.479   183 C    1.253   168 O    1.105
   183   6 C    3.985 --   185 C    1.511   182 C    1.253   186 H    0.973
                           187 C    0.143
   184   6 C    3.977 --   182 C    1.479   187 C    1.284   188 H    0.974
                           185 C    0.107
   185   6 C    3.990 --   183 C    1.511   189 C    1.377   190 H    0.969
                           184 C    0.107
   186   1 H    0.999 --   183 C    0.973
   187   6 C    3.985 --   189 C    1.547   184 C    1.284   191 H    0.978
                           183 C    0.143
   188   1 H    0.998 --   184 C    0.974
   189   6 C    3.988 --   187 C    1.547   185 C    1.377   192 H    0.962
   190   1 H    0.999 --   185 C    0.969
   191   1 H    0.995 --   187 C    0.978
   192   1 H    0.999 --   189 C    0.962
   193   6 C    3.912 --   195 C    1.353   194 C    1.335   169 O    1.055
   194   6 C    3.979 --   196 C    1.423   193 C    1.335   197 H    0.982
                           198 C    0.102
   195   6 C    3.982 --   198 C    1.461   193 C    1.353   199 H    0.951
                           196 C    0.122
   196   6 C    3.984 --   194 C    1.423   200 C    1.419   201 H    0.979
                           195 C    0.122
   197   1 H    0.996 --   194 C    0.982
   198   6 C    3.992 --   200 C    1.476   195 C    1.461   202 H    0.930
                           194 C    0.102
   199   1 H    0.999 --   195 C    0.951
   200   6 C    3.985 --   198 C    1.476   196 C    1.419   203 H    0.952
   201   1 H    0.996 --   196 C    0.979
   202   1 H    0.998 --   198 C    0.930
   203   1 H    0.999 --   200 C    0.952
   204   6 C    3.916 --   206 C    1.380   205 C    1.324   170 O    1.047
   205   6 C    3.981 --   207 C    1.444   204 C    1.324   208 H    0.982
                           209 C    0.106
   206   6 C    3.983 --   209 C    1.437   204 C    1.380   210 H    0.954
                           207 C    0.118
   207   6 C    3.983 --   205 C    1.444   211 C    1.404   212 H    0.977
                           206 C    0.118
   208   1 H    0.995 --   205 C    0.982
   209   6 C    3.993 --   211 C    1.492   206 C    1.437   213 H    0.936
                           205 C    0.106
   210   1 H    0.999 --   206 C    0.954
   211   6 C    3.987 --   209 C    1.492   207 C    1.404   214 H    0.953
   212   1 H    0.995 --   207 C    0.977
   213   1 H    0.999 --   209 C    0.936
   214   1 H    0.999 --   211 C    0.953
   215   7 N    3.064 --   216 C    1.381    47 Fe   1.156    32 C    0.105
   216   6 C    3.970 --   215 N    1.381   217 C    1.243   221 C    1.192
   217   6 C    3.936 --   218 C    1.499   216 C    1.243   230 H    0.963
   218   6 C    3.987 --   217 C    1.499   219 C    1.388   231 H    0.965
   219   6 C    3.892 --   220 C    1.412   218 C    1.388   232 H    0.970
   220   6 C    3.984 --   221 C    1.465   219 C    1.412   233 H    0.966
   221   6 C    3.921 --   220 C    1.465   216 C    1.192   222 C    1.008
   222   6 C    3.990 --   221 C    1.008   223 C    0.983   235 H    0.969
                           234 H    0.961
   223   6 C    3.973 --   222 C    0.983   237 H    0.976   224 C    0.938
                           236 H    0.938
   224   6 C    3.958 --   229 C    1.201   225 C    1.081   223 C    0.938
                           171 C    0.575
   225   6 C    3.129 --   224 C    1.081   238 H    0.632   226 C    0.597
                           178 C    0.175   175 H    0.153   174 C    0.114
                           171 C    0.108
   226   6 C    3.813 --   227 C    1.389   239 H    0.927   225 C    0.597
                           175 H    0.475   171 C    0.230
   227   6 C    3.903 --   226 C    1.389   228 C    1.299   240 H    0.941
   228   6 C    3.958 --   229 C    1.535   227 C    1.299   241 H    0.945
   229   6 C    3.903 --   228 C    1.535   224 C    1.201   242 H    0.892
   230   1 H    0.999 --   217 C    0.963
   231   1 H    0.997 --   218 C    0.965
   232   1 H    0.999 --   219 C    0.970
   233   1 H    0.996 --   220 C    0.966
   234   1 H    0.995 --   222 C    0.961
   235   1 H    0.998 --   222 C    0.969
   236   1 H    0.993 --   223 C    0.938
   237   1 H    0.999 --   223 C    0.976
   238   1 H    0.993 --   225 C    0.632   174 C    0.303
   239   1 H    0.989 --   226 C    0.927
   240   1 H    0.992 --   227 C    0.941
   241   1 H    0.996 --   228 C    0.945
   242   1 H    0.998 --   229 C    0.892
 ---------------------------------------------------------------------------

Topologies differ in total number of bonds
Writing topology from bond orders to xtbtopo.mol

molecular dipole:
                 x           y           z       tot (Debye)
 q only:        2.423       2.678      -3.022
   full:        2.678       2.617      -0.753       9.708
molecular quadrupole (traceless):
                xx          xy          yy          xz          yz          zz
 q only:       33.638     -24.815      20.523      22.048       4.105     -54.161
  q+dip:       44.299     -32.741      33.618      31.616      -8.640     -77.916
   full:       42.449     -36.953      40.578      33.820     -14.973     -83.027

           -------------------------------------------------
          |                Geometry Summary                 |
           -------------------------------------------------

      molecular mass/u    :     1944.3747980
   center of mass at/Å    :       -0.0807284      -0.1104990       0.0713706
  moments of inertia/u·Å² :        0.5065580E+05   0.6460546E+05   0.6594997E+05
rotational constants/cm⁻¹ :        0.3327878E-03   0.2609320E-03   0.2556124E-03

 * 168 selected distances

     #   Z          #   Z                                           value/Å
     1   7 N        4   6 C                                       1.0559640
     1   7 N        5   6 C                                       0.2008418
     4   6 C        5   6 C                                       0.8767203
     9   6 C       11   6 C                                       0.1131115 (min)
    12   6 C       13   1 H                                       0.6405893
     2   7 N       16   6 C                                       1.0378518
    17   6 C       18   6 C                                       1.0155106
    18   6 C       19   6 C                                       1.1349997
    19   6 C       20   6 C                                       1.2679421
    20   6 C       21   1 H                                       1.0221727
    16   6 C       26   6 C                                       1.0292847
    24   7 N       27   6 C                                       0.8759553
    28   6 C       29   1 H                                       0.8643584
    28   6 C       30   6 C                                       1.1575547
    30   6 C       31   1 H                                       0.9963058
    24   7 N       32   6 C                                       1.1809885
    33   6 C       34   6 C                                       1.2608082
    35   6 C       36   1 H                                       0.9860736
     3   6 C       39   6 C                                       1.3701739
    37   6 C       39   6 C                                       1.0953502
    41   6 C       42   6 C                                       1.4096561
    42   6 C       43   6 C                                       1.3803458
    43   6 C       44   1 H                                       1.0974690
    43   6 C       45   6 C                                       1.3696584
    45   6 C       46   6 C                                       1.4322131
    25   7 N       47  26 Fe                                      1.3361704
    49   6 C       50   6 C                                       1.0788538
    49   6 C       51   6 C                                       1.2981606
    50   6 C       52   6 C                                       1.4088204
    50   6 C       53   7 N                                       1.4232498
    51   6 C       55   7 N                                       1.3526886
    52   6 C       56   1 H                                       1.0131968
    54   6 C       60   1 H                                       0.9692897
    55   7 N       61   6 C                                       1.3199424
    57   6 C       63   1 H                                       0.6554524
    58   6 C       64   8 O                                       1.1896368
    58   6 C       65   6 C                                       1.3847401
    61   6 C       66   8 O                                       1.1133111
    65   6 C       68   6 C                                       1.4594829
    65   6 C       70   6 C                                       1.4951298
    68   6 C       70   6 C                                       1.4106186
    67   6 C       72   1 H                                       1.0504107
    68   6 C       74   1 H                                       1.1514704
    68   6 C       75   1 H                                       1.1364475
    70   6 C       77   6 C                                       1.4856565
    71   6 C       78   1 H                                       1.0713476
    71   6 C       79   1 H                                       1.0792926
    73   6 C       80   1 H                                       1.0611180
    77   6 C       82   8 O                                       1.3897792
    77   6 C       83   8 O                                       1.2391416
    81   6 C       84   8 O                                       1.3256018
    81   6 C       85   8 O                                       1.2177397
    82   8 O       86   6 C                                       1.4107696
    86   6 C       89   6 C                                       1.5347178
    86   6 C       90   1 H                                       1.1193887
    87   6 C       91   6 C                                       1.5206100
    87   6 C       92   6 C                                       1.5215420
    87   6 C       93   1 H                                       1.1054953
    88   6 C       94   1 H                                       1.1075579
    88   6 C       95   1 H                                       1.1094936
    88   6 C       96   1 H                                       1.1043758
    89   6 C       97   1 H                                       1.1084386
    89   6 C       98   1 H                                       1.1049517
    89   6 C       99   1 H                                       1.1096514
    91   6 C      100   1 H                                       1.1084731
    91   6 C      101   1 H                                       1.1101540
    91   6 C      102   1 H                                       1.1113287
    92   6 C      103   1 H                                       1.1082521
    92   6 C      104   1 H                                       1.1128762
    92   6 C      105   1 H                                       1.1103250
     3   6 C      106   6 C                                       1.0895096
   107   6 C      110   7 N                                       1.4028284
   108   6 C      112   7 N                                       1.3824331
   109   6 C      113   1 H                                       1.0645141
   109   6 C      114   6 C                                       1.3167222
   111   6 C      114   6 C                                       1.3194110
   110   7 N      115   6 C                                       1.3316446
   111   6 C      117   1 H                                       1.0757806
   112   7 N      118   6 C                                       1.3304182
   115   6 C      121   8 O                                       1.2218395
   118   6 C      123   8 O                                       1.2260204
   122   6 C      125   6 C                                       1.5312280
   122   6 C      126   1 H                                       1.0792173
   124   6 C      128   6 C                                       1.5183861
   124   6 C      129   1 H                                       1.0806122
   125   6 C      131   1 H                                       1.0865602
   125   6 C      132   1 H                                       1.0902267
   127   6 C      133   1 H                                       1.0827514
   128   6 C      135   1 H                                       1.0878196
   128   6 C      136   1 H                                       1.0945731
   130   6 C      137   1 H                                       1.0846575
   134   6 C      139   8 O                                       1.3438304
   134   6 C      140   8 O                                       1.2268015
   138   6 C      141   8 O                                       1.3556751
   138   6 C      142   8 O                                       1.2229043
   143   6 C      145   6 C                                       1.5231218
   143   6 C      146   6 C                                       1.5259091
   143   6 C      147   1 H                                       1.1087307
   144   6 C      148   6 C                                       1.5256565
   144   6 C      149   6 C                                       1.5237359
   144   6 C      150   1 H                                       1.1091773
   145   6 C      151   1 H                                       1.1082879
   145   6 C      152   1 H                                       1.1098178
   145   6 C      153   1 H                                       1.1102000
   146   6 C      154   1 H                                       1.1082968
   146   6 C      155   1 H                                       1.1108539
   146   6 C      156   1 H                                       1.1098959
   148   6 C      157   1 H                                       1.1078515
   148   6 C      158   1 H                                       1.1101561
   148   6 C      159   1 H                                       1.1110736
   149   6 C      160   1 H                                       1.1085283
   149   6 C      161   1 H                                       1.1103752
   149   6 C      162   1 H                                       1.1100149
    22   6 C      164   1 H                                       0.8240243
    41   6 C      169   8 O                                       1.2937843
    46   6 C      170   8 O                                       1.3015264
   172   6 C      173   6 C                                       0.9278624
   172   6 C      176   6 C                                       1.1933212
   172   6 C      177   1 H                                       0.6777188
   173   6 C      177   1 H                                       0.8694021
   176   6 C      180   1 H                                       0.6501328
   178   6 C      181   1 H                                       0.9226409
   168   8 O      182   6 C                                       1.2722784
   182   6 C      184   6 C                                       1.3606276
   183   6 C      185   6 C                                       1.4118114
   183   6 C      186   1 H                                       1.0913622
   184   6 C      188   1 H                                       1.0609333
   185   6 C      189   6 C                                       1.3813655
   187   6 C      189   6 C                                       1.3896013
   185   6 C      190   1 H                                       1.0925950
   187   6 C      191   1 H                                       1.0022439
   169   8 O      193   6 C                                       1.3110897
   193   6 C      195   6 C                                       1.4105451
   194   6 C      197   1 H                                       0.9429706
   195   6 C      198   6 C                                       1.2757950
   196   6 C      200   6 C                                       1.4266604
   198   6 C      200   6 C                                       1.2611893
   196   6 C      201   1 H                                       0.9905017
   170   8 O      204   6 C                                       1.3135834
   204   6 C      206   6 C                                       1.4082533
   205   6 C      208   1 H                                       0.9377471
   206   6 C      209   6 C                                       1.2951313
   207   6 C      211   6 C                                       1.4223438
   209   6 C      211   6 C                                       1.2649923
   207   6 C      212   1 H                                       1.0102237
    47  26 Fe     215   7 N                                       1.8384356 (max)
   215   7 N      216   6 C                                       1.3390204
   216   6 C      217   6 C                                       1.4247319
   217   6 C      218   6 C                                       1.3742898
   218   6 C      219   6 C                                       1.3938154
   219   6 C      220   6 C                                       1.3930208
   220   6 C      221   6 C                                       1.3903752
   222   6 C      223   6 C                                       1.5058065
   175   1 H      226   6 C                                       0.9810019
   226   6 C      227   6 C                                       1.3567930
   227   6 C      228   6 C                                       1.3838782
   224   6 C      229   6 C                                       1.3994051
   228   6 C      229   6 C                                       1.3418994
   217   6 C      230   1 H                                       1.0886007
   218   6 C      231   1 H                                       1.0904492
   219   6 C      232   1 H                                       1.0903919
   220   6 C      233   1 H                                       1.0883929
   222   6 C      234   1 H                                       1.1180793
   222   6 C      235   1 H                                       1.1106543
   223   6 C      236   1 H                                       1.1099268
   223   6 C      237   1 H                                       1.0824131
   226   6 C      239   1 H                                       1.0463350
   229   6 C      242   1 H                                       1.0830298

 * 5 distinct bonds (by element types)

   Z      Z             #   av. dist./Å        max./Å        min./Å
   1 H    6 C          77     1.0473701     1.1514704     0.6405893
   6 C    6 C          58     1.3237734     1.5347178     0.1131115
   6 C    7 N          13     1.1718328     1.4232498     0.2008418
   6 C    8 O          18     1.2764063     1.4107696     1.1133111
   7 N   26 Fe          2     1.5873030     1.8384356     1.3361704


optimized geometry written to: xtbopt.xyz


           -------------------------------------------------
          | TOTAL ENERGY             -271.243827017823 Eh   |
          | GRADIENT NORM               0.175736364724 Eh/α |
          | HOMO-LUMO GAP               0.083777332428 eV   |
           -------------------------------------------------

------------------------------------------------------------------------
 * finished run on 2026/09/07 at 18:27:40.680     
------------------------------------------------------------------------
 total:
 * wall-time:     0 d,  0 h,  6 min,  8.165 sec
 *  cpu-time:     0 d,  0 h,  6 min,  6.949 sec
 * ratio c/w:     0.997 speedup
 SCF:
 * wall-time:     0 d,  0 h,  0 min,  2.644 sec
 *  cpu-time:     0 d,  0 h,  0 min,  2.634 sec
 * ratio c/w:     0.996 speedup
 ANC optimizer:
 * wall-time:     0 d,  0 h,  6 min,  5.434 sec
 *  cpu-time:     0 d,  0 h,  6 min,  4.227 sec
 * ratio c/w:     0.997 speedup

