34

N      4.002506   -1.691506   -1.506793
C      3.553434   -0.617054   -0.683883
C      4.215064    0.615135   -0.748566
C      3.786765    1.686665    0.038612
C      2.694215    1.532903    0.894037
C      2.028948    0.306525    0.967097
C      2.453876   -0.782431    0.185069
C      1.688109   -2.084493    0.242659
C      0.672876   -2.202450   -0.903233
C     -0.390315   -1.136453   -0.820058
C     -0.281265    0.032809   -1.589766
C     -1.235587    1.046713   -1.477825
C     -2.311069    0.908027   -0.589219
C     -3.273648    1.922134   -0.466434
C     -4.338758    1.773825    0.426589
C     -4.450783    0.616590    1.201914
C     -3.498715   -0.400728    1.089464
C     -2.424857   -0.265150    0.195682
C     -1.461464   -1.277987    0.076231
H      5.060252    0.744334   -1.413045
H      4.299979    2.637952   -0.017268
H      2.359452    2.366138    1.498269
H      1.174784    0.208637    1.625924
H      1.161411   -2.181778    1.217651
H      2.397878   -2.937707    0.186369
H      0.191732   -3.203458   -0.853872
H      1.200168   -2.150810   -1.880937
H      0.551317    0.164249   -2.269921
H     -1.129701    1.940521   -2.081062
H     -3.202001    2.826690   -1.058609
H     -5.078962    2.558155    0.518468
H     -5.277448    0.507926    1.892083
H     -3.601353   -1.290558    1.699123
H     -1.536842   -2.173366    0.682995
