34

N      3.243332   -2.520892   -0.252924
C      3.811288   -1.218922   -0.126723
C      5.180518   -1.094315    0.138157
C      5.757883    0.169587    0.281439
C      4.969010    1.315733    0.165433
C      3.601546    1.201478   -0.099043
C      3.010797   -0.064033   -0.260539
C      1.526479   -0.163977   -0.512954
C      0.762892   -0.303120    0.807457
C     -0.717375   -0.404875    0.554066
C     -1.311673   -1.658174    0.338817
C     -2.679224   -1.757391    0.070052
C     -3.470533   -0.601874    0.002245
C     -4.845031   -0.690100   -0.268267
C     -5.622082    0.469782   -0.337991
C     -5.035404    1.722545   -0.139807
C     -3.667610    1.824336    0.130075
C     -2.875971    0.667445    0.204264
C     -1.501927    0.756844    0.473950
H      5.797967   -1.978370    0.237237
H      6.816541    0.260420    0.487596
H      5.416748    2.293998    0.283951
H      3.002124    2.100270   -0.176583
H      1.173484    0.743069   -1.052175
H      1.308356   -1.033846   -1.170295
H      1.113995   -1.207253    1.352177
H      0.974494    0.575281    1.456647
H     -0.713502   -2.560290    0.377678
H     -3.116762   -2.735935   -0.088324
H     -5.316552   -1.652835   -0.425885
H     -6.681652    0.397564   -0.546843
H     -5.642294    2.617024   -0.195630
H     -3.230032    2.804041    0.280843
H     -1.039828    1.726787    0.620019
