34

N      4.035045   -2.126695   -0.171478
C      3.563547   -0.798083    0.042473
C      4.187740    0.000702    1.008160
C      3.736694    1.301389    1.244887
C      2.658671    1.810562    0.518478
C      2.030764    1.021825   -0.448759
C      2.479013   -0.286982   -0.701851
C      1.752720   -1.139750   -1.716921
C      0.728810   -2.071934   -1.053354
C     -0.364409   -1.298546   -0.360253
C     -0.298445   -1.065886    1.022872
C     -1.280992   -0.305550    1.661427
C     -2.342024    0.238417    0.923982
C     -3.332713    1.006733    1.555070
C     -4.383053    1.547508    0.807876
C     -4.452285    1.327110   -0.570348
C     -3.471888    0.564062   -1.211125
C     -2.412441    0.014171   -0.472483
C     -1.420939   -0.750830   -1.104885
H      5.021355   -0.388216    1.579469
H      4.220938    1.913751    1.994540
H      2.306134    2.816190    0.707877
H      1.187189    1.427792   -0.993552
H      2.486712   -1.752920   -2.282775
H      1.239932   -0.497735   -2.466821
H      0.278007   -2.722503   -1.834052
H      1.243509   -2.746989   -0.335028
H      0.522324   -1.464937    1.606119
H     -1.208217   -0.138318    2.729480
H     -3.294354    1.188977    2.622470
H     -5.145037    2.139525    1.298196
H     -5.267709    1.749054   -1.143553
H     -3.541464    0.404281   -2.280540
H     -1.463134   -0.916177   -2.175599
