34

N      3.254529   -2.382373    0.701089
C      3.808625   -1.222716    0.083188
C      5.190177   -1.006186    0.153245
C      5.755398    0.129991   -0.430670
C      4.942311    1.058344   -1.083722
C      3.562382    0.850774   -1.159030
C      2.982633   -0.296108   -0.588821
C      1.486687   -0.482672   -0.653943
C      0.814217    0.113300    0.586424
C     -0.677684   -0.075781    0.521376
C     -1.264449   -1.240315    1.040845
C     -2.644949   -1.437755    0.954178
C     -3.457660   -0.476633    0.336338
C     -4.845384   -0.665533    0.242814
C     -5.644066    0.297964   -0.379901
C     -5.066017    1.453162   -0.913061
C     -3.685245    1.653383   -0.826806
C     -2.871763    0.694479   -0.202835
C     -1.484567    0.883951   -0.110590
H      5.826915   -1.717368    0.664518
H      6.823761    0.293447   -0.372438
H      5.381150    1.941756   -1.529280
H      2.944814    1.585459   -1.661019
H      1.084398    0.009706   -1.567081
H      1.239624   -1.563647   -0.736402
H      1.053818    1.197421    0.657704
H      1.215180   -0.373421    1.502820
H     -0.650453   -1.997706    1.512541
H     -3.076028   -2.342426    1.366258
H     -5.310575   -1.555668    0.649374
H     -6.713783    0.148604   -0.450048
H     -5.689704    2.195265   -1.394541
H     -3.254644    2.555006   -1.245955
H     -1.029649    1.774296   -0.530112
