34

N     -4.209793    1.751790   -0.085761
C     -3.613654    0.506502    0.270852
C     -4.246684   -0.685225   -0.102355
C     -3.676605   -1.917845    0.224641
C     -2.470193   -1.966201    0.925562
C     -1.832144   -0.782374    1.304204
C     -2.398534    0.465307    0.987263
C     -1.665437    1.732931    1.362465
C     -0.840703    2.285138    0.190901
C      0.248752    1.329364   -0.225306
C      0.052195    0.462995   -1.312637
C      1.037210   -0.460732   -1.670036
C      2.232223   -0.535180   -0.940708
C      3.227060   -1.461961   -1.289164
C      4.412263   -1.529491   -0.551140
C      4.612915   -0.676066    0.537104
C      3.629963    0.251214    0.894837
C      2.435686    0.330373    0.161463
C      1.440588    1.254831    0.512730
H     -5.180118   -0.656629   -0.650487
H     -4.168619   -2.836172   -0.068714
H     -2.026409   -2.922053    1.172229
H     -0.889931   -0.838084    1.835580
H     -0.998344    1.551569    2.234003
H     -2.396360    2.504971    1.685917
H     -0.382598    3.250171    0.498803
H     -1.509927    2.510442   -0.668160
H     -0.871138    0.495404   -1.877868
H      0.862433   -1.119897   -2.512030
H      3.088067   -2.132310   -2.129009
H      5.176997   -2.245607   -0.822944
H      5.532499   -0.733626    1.105055
H      3.802613    0.904331    1.741977
H      1.585727    1.912122    1.362701
