34

N     -3.843823    1.845137   -0.531922
C     -3.304300    0.558086   -0.239200
C     -3.675785   -0.534405   -1.032097
C     -3.150806   -1.802867   -0.773950
C     -2.251606   -1.986469    0.278037
C     -1.877080   -0.902946    1.076507
C     -2.401951    0.378577    0.830843
C     -1.938042    1.547057    1.670535
C     -0.817295    2.338297    0.980552
C      0.420216    1.499043    0.786408
C      1.322595    1.318755    1.845976
C      2.441364    0.496103    1.691986
C      2.667298   -0.167555    0.477690
C      3.783170   -1.003281    0.315072
C      3.992486   -1.665796   -0.897912
C      3.092521   -1.500615   -1.954187
C      1.977633   -0.670692   -1.805461
C      1.756936    0.002071   -0.593502
C      0.640244    0.834992   -0.431476
H     -4.368984   -0.399793   -1.853018
H     -3.438592   -2.643410   -1.392103
H     -1.840402   -2.968601    0.472355
H     -1.166975   -1.060334    1.879095
H     -2.793790    2.228221    1.867056
H     -1.585604    1.194432    2.665002
H     -1.177414    2.729914    0.004078
H     -0.566791    3.223350    1.605007
H      1.154246    1.811192    2.795778
H      3.124772    0.372815    2.523711
H      4.490037   -1.144951    1.123949
H      4.853823   -2.309927   -1.019178
H      3.259318   -2.017349   -2.890493
H      1.289877   -0.555356   -2.634771
H     -0.067296    0.956306   -1.244121
