34

N      3.347917   -2.227203   -0.880100
C      3.859217   -1.024215   -0.309996
C      5.205774   -0.967298    0.069510
C      5.726906    0.194319    0.644312
C      4.903897    1.303774    0.847270
C      3.558699    1.256573    0.471536
C      3.025302    0.099021   -0.121881
C      1.562307    0.059519   -0.489286
C      0.731123   -0.506943    0.665772
C     -0.727656   -0.548198    0.296969
C     -1.261847   -1.677652   -0.342761
C     -2.607395   -1.709657   -0.717926
C     -3.436009   -0.606601   -0.467623
C     -4.788797   -0.627752   -0.841418
C     -5.603238    0.480302   -0.590624
C     -5.075661    1.614562    0.032269
C     -3.730031    1.648651    0.409332
C     -2.901400    0.542260    0.164672
C     -1.549064    0.564773    0.538037
H      5.848990   -1.825969   -0.077364
H      6.768159    0.232668    0.937276
H      5.307678    2.200451    1.299434
H      2.931711    2.122638    0.644638
H      1.413965   -0.558553   -1.401606
H      1.206957    1.085071   -0.734367
H      1.084400   -1.531386    0.917091
H      0.872827    0.121912    1.572563
H     -0.633714   -2.534666   -0.552778
H     -2.998613   -2.594138   -1.206506
H     -5.214550   -1.498081   -1.326489
H     -6.645898    0.460113   -0.880412
H     -5.711248    2.469599    0.223224
H     -3.338382    2.536662    0.891075
H     -1.132323    1.445445    1.013858
