34

N      4.035045   -2.126695   -0.171478
C      3.563547   -0.798082    0.042473
C      4.187739    0.000703    1.008160
C      3.736693    1.301389    1.244887
C      2.658672    1.810561    0.518478
C      2.030766    1.021824   -0.448759
C      2.479014   -0.286982   -0.701851
C      1.752720   -1.139749   -1.716921
C      0.728809   -2.071934   -1.053354
C     -0.364409   -1.298546   -0.360253
C     -0.298445   -1.065886    1.022872
C     -1.280992   -0.305550    1.661428
C     -2.342026    0.238418    0.923982
C     -3.332715    1.006734    1.555069
C     -4.383053    1.547508    0.807877
C     -4.452285    1.327110   -0.570348
C     -3.471888    0.564062   -1.211126
C     -2.412442    0.014172   -0.472484
C     -1.420940   -0.750829   -1.104885
H      5.021355   -0.388215    1.579469
H      4.220938    1.913751    1.994540
H      2.306134    2.816189    0.707876
H      1.187189    1.427791   -0.993551
H      2.486712   -1.752919   -2.282775
H      1.239932   -0.497735   -2.466821
H      0.278007   -2.722503   -1.834052
H      1.243509   -2.746990   -0.335028
H      0.522325   -1.464938    1.606120
H     -1.208216   -0.138318    2.729480
H     -3.294354    1.188978    2.622469
H     -5.145038    2.139525    1.298197
H     -5.267708    1.749053   -1.143552
H     -3.541463    0.404280   -2.280540
H     -1.463133   -0.916177   -2.175600
