34

N      3.365152   -2.666733    0.428061
C      3.047494   -1.289320    0.615423
C      3.345158   -0.680512    1.840564
C      3.031755    0.663994    2.053453
C      2.419075    1.407463    1.043095
C      2.120695    0.809482   -0.183784
C      2.435412   -0.541968   -0.413300
C      2.050689   -1.183664   -1.727018
C      0.724448   -1.950714   -1.622465
C     -0.427271   -1.032503   -1.300124
C     -1.041691   -0.288512   -2.319162
C     -2.071169    0.607587   -2.020335
C     -2.493343    0.780444   -0.694480
C     -3.520573    1.684446   -0.382015
C     -3.926488    1.853610    0.944893
C     -3.312023    1.124995    1.966898
C     -2.288265    0.221054    1.669116
C     -1.872671    0.040071    0.340700
C     -0.844490   -0.861796    0.030067
H      3.815970   -1.251244    2.631235
H      3.260841    1.128889    3.003632
H      2.170577    2.447227    1.212129
H      1.631814    1.396908   -0.951308
H      1.972483   -0.414075   -2.526479
H      2.850363   -1.885537   -2.047648
H      0.528085   -2.460450   -2.590775
H      0.809968   -2.750005   -0.854109
H     -0.716715   -0.398061   -3.346464
H     -2.531299    1.170389   -2.823795
H     -4.006610    2.259476   -1.161196
H     -4.718544    2.552178    1.181876
H     -3.629836    1.261384    2.992518
H     -1.822523   -0.334463    2.474443
H     -0.356470   -1.420044    0.821216
