34

N      4.239129   -1.761399    0.123909
C      3.629682   -0.474304    0.051407
C      4.184906    0.585938    0.777931
C      3.599393    1.853385    0.732954
C      2.455148    2.067930   -0.037586
C      1.895086    1.016666   -0.767722
C      2.478330   -0.262716   -0.736677
C      1.826432   -1.397002   -1.493977
C      0.927113   -2.248662   -0.586463
C     -0.227871   -1.450585   -0.036259
C     -0.155318   -0.897686    1.252368
C     -1.200182   -0.113659    1.747165
C     -2.331662    0.133611    0.957148
C     -3.385666    0.922803    1.443252
C     -4.506393    1.165819    0.643965
C     -4.583427    0.625584   -0.642535
C     -3.540461   -0.161814   -1.138763
C     -2.409879   -0.414700   -0.346153
C     -1.355461   -1.200904   -0.834333
H      5.069428    0.426919    1.382003
H      4.030953    2.668936    1.298722
H      1.998829    3.048954   -0.065987
H      0.999417    1.197324   -1.349418
H      2.609826   -2.047023   -1.939713
H      1.228651   -1.002054   -2.344952
H      1.529669   -2.682671    0.241287
H      0.532303   -3.105009   -1.175315
H      0.717859   -1.064962    1.870964
H     -1.121090    0.303487    2.744025
H     -3.342440    1.350821    2.437717
H     -5.317074    1.775009    1.022387
H     -5.453568    0.817890   -1.256856
H     -3.617226   -0.571749   -2.138804
H     -1.404435   -1.613742   -1.835690
