34

N      4.146414   -1.858573   -0.432199
C      3.601103   -0.607786   -0.018116
C      4.170933    0.057419    1.074139
C      3.647330    1.278097    1.506637
C      2.550696    1.840184    0.850504
C      1.976625    1.184937   -0.241750
C      2.498045   -0.041269   -0.691747
C      1.829721   -0.757094   -1.843276
C      0.851344   -1.835620   -1.356200
C     -0.289444   -1.241284   -0.569429
C     -0.250472   -1.230051    0.834093
C     -1.279485   -0.634069    1.567033
C     -2.360927   -0.035047    0.905843
C     -3.398419    0.569588    1.632530
C     -4.468900    1.167599    0.961410
C     -4.511851    1.167501   -0.435381
C     -3.484828    0.569066   -1.170986
C     -2.404665   -0.036080   -0.509589
C     -1.366527   -0.637191   -1.237029
H      5.018582   -0.374021    1.591747
H      4.089796    1.786854    2.353306
H      2.142003    2.782734    1.191107
H      1.117834    1.628419   -0.730657
H      1.290451   -0.030851   -2.490766
H      2.601784   -1.232602   -2.485714
H      0.444696   -2.375346   -2.238972
H      1.394640   -2.589255   -0.745078
H      0.584775   -1.674041    1.361651
H     -1.226909   -0.636506    2.649266
H     -3.381020    0.580253    2.715864
H     -5.266986    1.632927    1.525366
H     -5.343097    1.632751   -0.949278
H     -3.534598    0.579238   -2.253316
H     -1.388645   -0.630880   -2.321012
