34

N      4.055768   -1.371757   -1.487735
C      3.573807   -0.487731   -0.478030
C      4.229252    0.731574   -0.268484
C      3.769209    1.620027    0.706338
C      2.650945    1.295199    1.476424
C      1.991562    0.079873    1.276141
C      2.448181   -0.826689    0.302693
C      1.689317   -2.112919    0.068558
C      0.711912   -1.994306   -1.109700
C     -0.360181   -0.967447   -0.845466
C     -0.234108    0.334260   -1.356525
C     -1.197968    1.304227   -1.071220
C     -2.300334    0.987393   -0.265044
C     -3.272797    1.955346    0.030632
C     -4.364872    1.628189    0.839511
C     -4.494164    0.337117    1.358444
C     -3.532516   -0.636088    1.071879
C     -2.431597   -0.321243    0.259936
C     -1.458439   -1.288636   -0.032206
H      5.094352    0.993448   -0.864798
H      4.277835    2.562581    0.862377
H      2.291748    1.987680    2.226684
H      1.117467   -0.150196    1.873013
H      1.132430   -2.406995    0.985553
H      2.405964   -2.936863   -0.137464
H      1.269769   -1.744368   -2.038642
H      0.235848   -2.984203   -1.281221
H      0.618887    0.601526   -1.968120
H     -1.078606    2.302304   -1.475688
H     -3.188084    2.961692   -0.361945
H     -5.112626    2.377450    1.065312
H     -5.341702    0.090111    1.984691
H     -3.648852   -1.631579    1.483565
H     -1.547405   -2.288976    0.376390
