34

N      3.298755   -2.065422    1.297828
C      3.838052   -0.966810    0.565817
C      5.197288   -0.972000    0.229764
C      5.746277    0.085000   -0.500095
C      4.938742    1.150689   -0.902121
C      3.581063    1.164884   -0.571259
C      3.019204    0.114820    0.175912
C      1.544146    0.135528    0.493211
C      0.749313   -0.602567   -0.588161
C     -0.721592   -0.583358   -0.269070
C     -1.285658   -1.598425    0.519443
C     -2.643555   -1.569274    0.847377
C     -3.455083   -0.517266    0.399399
C     -4.820089   -0.477592    0.724040
C     -5.617398    0.579257    0.275305
C     -5.060489    1.601706   -0.497566
C     -3.702432    1.574314   -0.827703
C     -2.890717    0.518128   -0.384779
C     -1.526168    0.479869   -0.709222
H      5.828877   -1.798397    0.531060
H      6.797277    0.075472   -0.758582
H      5.364319    1.965288   -1.473812
H      2.966651    1.994469   -0.899027
H      1.359955   -0.332599    1.484815
H      1.187901    1.187343    0.563003
H      1.103698   -1.654259   -0.664348
H      0.926766   -0.122925   -1.576222
H     -0.671326   -2.413325    0.882297
H     -3.057756   -2.366154    1.453587
H     -5.268582   -1.260981    1.323362
H     -6.669559    0.606263    0.527795
H     -5.682941    2.417644   -0.841547
H     -3.288012    2.375747   -1.427693
H     -1.086926    1.274932   -1.301340
