      -----------------------------------------------------------      
     |                   =====================                   |     
     |                           x T B                           |     
     |                   =====================                   |     
     |                         S. Grimme                         |     
     |          Mulliken Center for Theoretical Chemistry        |     
     |                    University of Bonn                     |     
      -----------------------------------------------------------      

   * xtb version 6.7.1 (edcfbbe) compiled by 'runner@sat12-gn217-0cbadaec-b866-44ae-a866-732403219ae3-6E01A8DFFD18.local' on 2026-06-10

   xtb is free software: you can redistribute it and/or modify it under
   the terms of the GNU Lesser General Public License as published by
   the Free Software Foundation, either version 3 of the License, or
   (at your option) any later version.
   
   xtb is distributed in the hope that it will be useful,
   but WITHOUT ANY WARRANTY; without even the implied warranty of
   MERCHANTABILITY or FITNESS FOR A PARTICULAR PURPOSE.  See the
   GNU Lesser General Public License for more details.
   
   Cite this work as:
   * C. Bannwarth, E. Caldeweyher, S. Ehlert, A. Hansen, P. Pracht,
     J. Seibert, S. Spicher, S. Grimme, WIREs Comput. Mol. Sci., 2020, 11,
     e01493. DOI: 10.1002/wcms.1493
   
   for GFN2-xTB:
   * C. Bannwarth, S. Ehlert and S. Grimme., J. Chem. Theory Comput., 2019,
     15, 1652-1671. DOI: 10.1021/acs.jctc.8b01176
   for GFN1-xTB:
   * S. Grimme, C. Bannwarth, P. Shushkov, J. Chem. Theory Comput., 2017,
     13, 1989-2009. DOI: 10.1021/acs.jctc.7b00118
   for GFN0-xTB:
   * P. Pracht, E. Caldeweyher, S. Ehlert, S. Grimme, ChemRxiv, 2019, preprint.
     DOI: 10.26434/chemrxiv.8326202.v1
   for GFN-FF:
   * S. Spicher and S. Grimme, Angew. Chem. Int. Ed., 2020, 59, 15665-15673.
     DOI: 10.1002/anie.202004239
   
   for ALPB and GBSA implicit solvation:
   * S. Ehlert, M. Stahn, S. Spicher, S. Grimme, J. Chem. Theory Comput.,
     2021, 17, 4250-4261. DOI: 10.1021/acs.jctc.1c00471
   
   for ddCOSMO and CPCM-X implicit solvation:
   * M. Stahn, S. Ehlert, S. Grimme, J. Phys. Chem. A,
     2023, XX, XXXX-XXXX. DOI: 10.1021/acs.jpca.3c04382
   
   for DFT-D4:
   * E. Caldeweyher, C. Bannwarth and S. Grimme, J. Chem. Phys., 2017,
     147, 034112. DOI: 10.1063/1.4993215
   * E. Caldeweyher, S. Ehlert, A. Hansen, H. Neugebauer, S. Spicher,
     C. Bannwarth and S. Grimme, J. Chem. Phys., 2019, 150, 154122.
     DOI: 10.1063/1.5090222
   * E. Caldeweyher, J.-M. Mewes, S. Ehlert and S. Grimme, Phys. Chem. Chem. Phys.
     2020, 22, 8499-8512. DOI: 10.1039/D0CP00502A
   
   for sTDA-xTB:
   * S. Grimme and C. Bannwarth, J. Chem. Phys., 2016, 145, 054103.
     DOI: 10.1063/1.4959605
   
   in the mass-spec context:
   * V. Asgeirsson, C. Bauer and S. Grimme, Chem. Sci., 2017, 8, 4879.
     DOI: 10.1039/c7sc00601b
   * J. Koopman and S. Grimme, ACS Omega 2019, 4, 12, 15120-15133.
     DOI: 10.1021/acsomega.9b02011
   
   for metadynamics refer to:
   * S. Grimme, J. Chem. Theory Comput., 2019, 155, 2847-2862
     DOI: 10.1021/acs.jctc.9b00143
   
   for SPH calculations refer to:
   * S. Spicher and S. Grimme, J. Chem. Theory Comput., 2021, 17, 1701-1714
     DOI: 10.1021/acs.jctc.0c01306
   
   for ONIOM refer to:
   * C. Plett, A. Katbashev, S. Ehlert, S. Grimme, M. Bursch,
     Phys. Chem. Chem. Phys., 2023, 25, 17860-17868. DOI: 10.1039/D3CP02178E
   
   for DIPRO refer to:
   * J. Kohn, N. Gildemeister, S. Grimme, D. Fazzi, A. Hansen,
     J. Chem. Phys., 2023, just accepted.
   
   for PTB refer to:
   * S. Grimme, M. Mueller, A. Hansen, J. Chem. Phys., 2023, 158, 124111.
     DOI: 10.1063/5.0137838
   
   with help from (in alphabetical order)
   P. Atkinson, C. Bannwarth, F. Bohle, G. Brandenburg, E. Caldeweyher
   M. Checinski, S. Dohm, S. Ehlert, S. Ehrlich, I. Gerasimov, C. Hölzer
   A. Katbashev, J. Kohn, J. Koopman, C. Lavigne, S. Lehtola, F. März, M. Müller,
   F. Musil, H. Neugebauer, J. Pisarek, C. Plett, P. Pracht, F. Pultar,
   J. Seibert, P. Shushkov, S. Spicher, M. Stahn, M. Steiner, T. Strunk,
   J. Stückrath, T. Rose, and J. Unsleber
   
 * started run on 2026/09/07 at 18:22:20.181     
   ID    Z sym.   atoms
    1    7 N      1, 2, 24, 25, 53, 55, 110, 112, 215
    2    6 C      3-5, 7, 9-12, 14, 16-20, 22, 23, 26-28, 30, 32-35, 37,
                  39-43, 45, 46, 49-52, 54, 57, 58, 61, 65, 67, 68, 70, 71,
                  73, 77, 81, 86-89, 91, 92, 106-109, 111, 114, 115, 118,
                  122, 124, 125, 127, 128, 130, 134, 138, 143-146, 148, 149,
                  171-174, 176, 178, 182-185, 187, 189, 193-196, 198, 200,
                  204-207, 209, 211, 216-229
    3    1 H      6, 8, 13, 15, 21, 29, 31, 36, 38, 44, 56, 59, 60, 62, 63,
                  69, 72, 74-76, 78-80, 90, 93-105, 113, 116, 117, 119, 120,
                  126, 129, 131-133, 135-137, 147, 150-166, 175, 177,
                  179-181, 186, 188, 190-192, 197, 199, 201-203, 208, 210,
                  212-214, 230-242
    4   26 Fe     47
    5   17 Cl     48
    6    8 O      64, 66, 82-85, 121, 123, 139-142, 167-170

           -------------------------------------------------
          |                Calculation Setup                |
           -------------------------------------------------

          program call               : /Users/haywoodau3/Documents/genaisubstrate/.chem-env/bin/xtb input.xyz --gfn 2 --alpb ether --opt --input xcontrol --chrg 0 --uhf 1
          coordinate file            : input.xyz
          omp threads                :                     1


           -------------------------------------------------
          |                 G F N 2 - x T B                 |
           -------------------------------------------------

        Reference                      10.1021/acs.jctc.8b01176
      * Hamiltonian:
        H0-scaling (s, p, d)           1.850000    2.230000    2.230000
        zeta-weighting                 0.500000
      * Dispersion:
        s8                             2.700000
        a1                             0.520000
        a2                             5.000000
        s9                             5.000000
      * Repulsion:
        kExp                           1.500000    1.000000
        rExp                           1.000000
      * Coulomb:
        alpha                          2.000000
        third order                    shell-resolved
        anisotropic                    true
        a3                             3.000000
        a5                             4.000000
        cn-shift                       1.200000
        cn-exp                         4.000000
        max-rad                        5.000000

      * Solvation model:               ALPB
        Solvent                        ether
        Parameter file                 internal GFN2-xTB/ALPB
        Dielectric constant                4.3300E+00
        Reference state                gsolv [1 M gas/solution]
        Free energy shift                  4.9534E-03 Eh       3.1083E+00 kcal/mol
        Temperature                        2.9815E+02 K
        Density                            7.1300E-01 kg/L
        Solvent mass                       7.4120E+01 g/mol
        Interaction kernel             P16
        Born radius scaling (c1)           1.5847E+00
        Born radii integrator          GBOBC
        Born offset                        0.0000E+00 a0       0.0000E+00 AA
        H-bond correction              true
        Ion screening                  false
        Surface tension                    1.0000E-05 Eh       1.5569E+01 dyn/cm
        Grid points                               230 per atom

          ...................................................
          :                      SETUP                      :
          :.................................................:
          :  # basis functions                 677          :
          :  # atomic orbitals                 675          :
          :  # shells                          385          :
          :  # electrons                       713          :
          :  max. iterations                   250          :
          :  Hamiltonian                  GFN2-xTB          :
          :  restarted?                      false          :
          :  GBSA solvation                   true          :
          :  PC potential                    false          :
          :  electronic temp.          300.0000000     K    :
          :  accuracy                    1.0000000          :
          :  -> integral cutoff          0.2500000E+02      :
          :  -> integral neglect         0.1000000E-07      :
          :  -> SCF convergence          0.1000000E-05 Eh   :
          :  -> wf. convergence          0.1000000E-03 e    :
          :  Broyden damping             0.4000000          :
          :  net charge                          0          :
          :  unpaired electrons                  1          :
          ...................................................

 iter      E             dE          RMSdq      gap      omega  full diag
   1   -396.5911877 -0.396591E+03  0.464E+00    0.25       0.0  T
   2   -386.5755921  0.100156E+02  0.537E+00    0.57       1.0  T
   3   -394.3863364 -0.781074E+01  0.379E+00    0.06       1.0  T
   4   -397.2244103 -0.283807E+01  0.215E+00    0.42       1.0  T
   5   -398.0580424 -0.833632E+00  0.142E+00    1.11       1.0  T
   6   -398.6456748 -0.587632E+00  0.829E-01    0.10       1.0  T
   7   -398.6565457 -0.108709E-01  0.522E-01    0.33       1.0  T
   8   -398.6719754 -0.154297E-01  0.685E-01    0.15       1.0  T
   9   -398.7650500 -0.930746E-01  0.266E-01    0.15       1.0  T
  10   -398.7616940  0.335602E-02  0.214E-01    0.13       1.0  T
  11   -398.7569714  0.472262E-02  0.173E-01    0.17       1.0  T
  12   -398.7626474 -0.567604E-02  0.133E-01    0.13       1.0  T
  13   -398.7683356 -0.568815E-02  0.371E-02    0.14       1.0  T
  14   -398.7685638 -0.228194E-03  0.261E-02    0.15       1.0  T
  15   -398.7686055 -0.417763E-04  0.179E-02    0.14       1.0  T
  16   -398.7686026  0.293786E-05  0.183E-02    0.15       1.0  T
  17   -398.7685815  0.211379E-04  0.161E-02    0.15       1.0  T
  18   -398.7686589 -0.774496E-04  0.411E-03    0.15       1.6  T
  19   -398.7686561  0.284433E-05  0.463E-03    0.15       1.4  T
  20   -398.7686605 -0.441381E-05  0.171E-03    0.15       3.8  T
  21   -398.7686612 -0.715227E-06  0.863E-04    0.15       7.4  T
  22   -398.7686611  0.420661E-07  0.774E-04    0.15       8.3  T

   *** convergence criteria satisfied after 22 iterations ***

         #    Occupation            Energy/Eh            Energy/eV
      -------------------------------------------------------------
         1        2.0000           -0.9884333             -26.8966
       ...           ...                  ...                  ...
       351        2.0000           -0.3379023              -9.1948
       352        2.0000           -0.3329000              -9.0587
       353        2.0000           -0.3277785              -8.9193
       354        2.0000           -0.3206159              -8.7244
       355        2.0000           -0.3123039              -8.4982
       356        1.8786           -0.2863067              -7.7908
       357        1.0643           -0.2825218              -7.6878 (HOMO)
       358        0.0570           -0.2771552              -7.5418 (LUMO)
       359        0.0000           -0.2696428              -7.3374
       360        0.0000           -0.2665636              -7.2536
       361                         -0.2607053              -7.0942
       362                         -0.2579274              -7.0186
       ...                                ...                  ...
       675                          3.3566323              91.3386
      -------------------------------------------------------------
                  HL-Gap            0.0053667 Eh            0.1460 eV
             Fermi-level           -0.2821227 Eh           -7.6769 eV

 SCC (total)                   0 d,  0 h,  0 min,  2.905 sec
 SCC setup                      ...        0 min,  0.008 sec (  0.264%)
 Dispersion                     ...        0 min,  0.006 sec (  0.212%)
 classical contributions        ...        0 min,  0.002 sec (  0.058%)
 integral evaluation            ...        0 min,  0.065 sec (  2.246%)
 iterations                     ...        0 min,  2.190 sec ( 75.407%)
 molecular gradient             ...        0 min,  0.571 sec ( 19.667%)
 printout                       ...        0 min,  0.062 sec (  2.146%)

         :::::::::::::::::::::::::::::::::::::::::::::::::::::
         ::                     SUMMARY                     ::
         :::::::::::::::::::::::::::::::::::::::::::::::::::::
         :: total energy            -392.898240964183 Eh    ::
         :: total w/o Gsasa/hb      -392.784438738804 Eh    ::
         :: gradient norm              2.116301537396 Eh/a0 ::
         :: HOMO-LUMO gap              0.146034309481 eV    ::
         ::.................................................::
         :: SCC energy              -398.744938668597 Eh    ::
         :: -> isotropic ES            0.662510665319 Eh    ::
         :: -> anisotropic ES          0.025538303110 Eh    ::
         :: -> anisotropic XC          0.156287307352 Eh    ::
         :: -> dispersion             -0.361927988758 Eh    ::
         :: -> Gsolv                  -0.221879849856 Eh    ::
         ::    -> Gelec               -0.108077624477 Eh    ::
         ::    -> Gsasa               -0.111480528516 Eh    ::
         ::    -> Ghb                 -0.007275134440 Eh    ::
         ::    -> Gshift               0.004953437577 Eh    ::
         :: repulsion energy           5.846697704414 Eh    ::
         :: add. restraining           0.000000000000 Eh    ::
         :: total charge               0.000000000020 e     ::
         :::::::::::::::::::::::::::::::::::::::::::::::::::::

      ----------------------------------------------------------- 
     |                   =====================                   |
     |                        A N C O P T                        |
     |                   =====================                   |
     |               Approximate Normal Coordinate               |
     |                Rational Function Optimizer                |
      ----------------------------------------------------------- 
      ----------------------------------------------------------- 
     |                   =====================                   |
     |                        A N C O P T                        |
     |                   =====================                   |
     |               Approximate Normal Coordinate               |
     |                Rational Function Optimizer                |
      ----------------------------------------------------------- 

          ...................................................
          :                      SETUP                      :
          :.................................................:
          :   optimization level            normal          :
          :   max. optcycles                   726          :
          :   ANC micro-cycles                  20          :
          :   degrees of freedom                81          :
          :.................................................:
          :   RF solver                   davidson          :
          :   write xtbopt.log                true          :
          :   linear?                        false          :
          :   energy convergence         0.5000000E-05 Eh   :
          :   grad. convergence          0.1000000E-02 Eh/α :
          :   maxmium RF displ.          1.0000000          :
          :   Hlow (freq-cutoff)         0.1000000E-01      :
          :   Hmax (freq-cutoff)         5.0000000          :
          :   S6 in model hess.         20.0000000          :
          ...................................................

generating ANC from exact Hessian ...
Using Lindh-Hessian (1995)
 Shifting diagonal of input Hessian by    1.0024583259783807E-002
 Lowest  eigenvalues of input Hessian
    0.010000    0.010004    0.000000    0.000000    0.000000    0.000000
    0.000000    0.000000    0.010038    0.010049    0.010060    0.010082
    0.010089    0.010107    0.010135    0.010156    0.010180    0.010189
 Highest eigenvalues
    3.167999    3.388747    3.556813    3.690650    4.105483    4.400285


........................................................................
.............................. CYCLE    1 ..............................
........................................................................

 iter      E             dE          RMSdq      gap      omega  full diag
   1   -398.7686613 -0.398769E+03  0.469E-04    0.15       0.0  T
   2   -398.7686580  0.325796E-05  0.306E-03    0.15       2.1  T
   3   -398.7686613 -0.328750E-05  0.362E-04    0.15      17.8  T
   4   -398.7686613 -0.215559E-07  0.201E-04    0.15      32.0  T
   5   -398.7686613 -0.196565E-09  0.182E-04    0.15      35.3  T
     SCC iter.                  ...        0 min,  0.493 sec
     gradient                   ...        0 min,  0.597 sec
 * total energy  :  -392.8982412 Eh     change       -0.1936579E-06 Eh
   gradient norm :     1.1650955 Eh/α   predicted     0.0000000E+00 (-100.00%)
   displ. norm   :     0.3217216 α      lambda       -0.3670340E+00
   maximum displ.:     0.1598786 α      in ANC's #76, #78, #77, ...

........................................................................
.............................. CYCLE    2 ..............................
........................................................................

 iter      E             dE          RMSdq      gap      omega  full diag
   1   -398.7777568 -0.398778E+03  0.368E-01    0.15       0.0  T
   2   -398.5838444  0.193912E+00  0.747E-01    0.50       1.0  T
   3   -398.7510321 -0.167188E+00  0.442E-01    0.09       1.0  T
   4   -398.7962553 -0.452232E-01  0.240E-01    0.22       1.0  T
   5   -398.8061843 -0.992900E-02  0.156E-01    0.17       1.0  T
   6   -398.8093038 -0.311949E-02  0.102E-01    0.17       1.0  T
   7   -398.8093180 -0.142715E-04  0.767E-02    0.17       1.0  T
   8   -398.8111722 -0.185418E-02  0.353E-02    0.19       1.0  T
   9   -398.8115252 -0.353026E-03  0.979E-03    0.18       1.0  T
  10   -398.8115420 -0.167984E-04  0.454E-03    0.18       1.4  T
  11   -398.8115437 -0.163360E-05  0.255E-03    0.18       2.5  T
  12   -398.8115436  0.220097E-07  0.203E-03    0.18       3.2  T
  13   -398.8115443 -0.694524E-06  0.118E-03    0.18       5.5  T
  14   -398.8115444 -0.109773E-06  0.791E-04    0.18       8.1  T
  15   -398.8115446 -0.104912E-06  0.406E-04    0.18      15.9  T
     SCC iter.                  ...        0 min,  1.468 sec
     gradient                   ...        0 min,  0.593 sec
 * total energy  :  -393.2434094 Eh     change       -0.3451682E+00 Eh
   gradient norm :     0.5704953 Eh/α   predicted    -0.2025133E+00 ( -41.33%)
   displ. norm   :     0.3058599 α      lambda       -0.1686433E+00
   maximum displ.:     0.1560103 α      in ANC's #76, #81, #78, ...

........................................................................
.............................. CYCLE    3 ..............................
........................................................................

 iter      E             dE          RMSdq      gap      omega  full diag
   1   -398.7833904 -0.398783E+03  0.448E-01    0.12       0.0  T
   2   -398.1434292  0.639961E+00  0.135E+00    0.76       1.0  T
   3   -398.8143133 -0.670884E+00  0.439E-01    0.27       1.0  T
   4   -398.8377032 -0.233899E-01  0.266E-01    0.21       1.0  T
   5   -398.8472956 -0.959235E-02  0.246E-01    0.16       1.0  T
   6   -398.8569560 -0.966040E-02  0.106E-01    0.14       1.0  T
   7   -398.8626530 -0.569699E-02  0.427E-02    0.17       1.0  T
   8   -398.8631133 -0.460343E-03  0.147E-02    0.17       1.0  T
   9   -398.8630447  0.686482E-04  0.185E-02    0.17       1.0  T
  10   -398.8631535 -0.108768E-03  0.374E-03    0.17       1.7  T
  11   -398.8631530  0.446636E-06  0.285E-03    0.17       2.3  T
  12   -398.8631548 -0.183882E-05  0.157E-03    0.17       4.1  T
  13   -398.8631547  0.125459E-06  0.146E-03    0.17       4.4  T
  14   -398.8631545  0.235200E-06  0.151E-03    0.17       4.3  T
  15   -398.8631552 -0.697221E-06  0.372E-04    0.17      17.3  T
  16   -398.8631552 -0.873916E-08  0.255E-04    0.17      25.2  T
     SCC iter.                  ...        0 min,  1.575 sec
     gradient                   ...        0 min,  0.584 sec
 * total energy  :  -393.3958614 Eh     change       -0.1524520E+00 Eh
   gradient norm :     0.3303546 Eh/α   predicted    -0.9221002E-01 ( -39.52%)
   displ. norm   :     0.3192508 α      lambda       -0.9872378E-01
   maximum displ.:     0.1983308 α      in ANC's #76, #81, #55, ...

........................................................................
.............................. CYCLE    4 ..............................
........................................................................

 iter      E             dE          RMSdq      gap      omega  full diag
   1   -398.7026057 -0.398703E+03  0.686E-01    0.10       0.0  T
   2   -397.4849613  0.121764E+01  0.172E+00    0.65       1.0  T
   3   -398.8063349 -0.132137E+01  0.634E-01    0.41       1.0  T
   4   -398.8396916 -0.333567E-01  0.423E-01    0.27       1.0  T
   5   -398.9082368 -0.685452E-01  0.271E-01    0.16       1.0  T
   6   -398.9229126 -0.146758E-01  0.854E-02    0.14       1.0  T
   7   -398.9230503 -0.137650E-03  0.704E-02    0.16       1.0  T
   8   -398.9222443  0.806028E-03  0.658E-02    0.13       1.0  T
   9   -398.9233380 -0.109377E-02  0.394E-02    0.15       1.0  T
  10   -398.9238037 -0.465623E-03  0.840E-03    0.15       1.0  T
  11   -398.9237857  0.179831E-04  0.959E-03    0.15       1.0  T
  12   -398.9238205 -0.348619E-04  0.297E-03    0.15       2.2  T
  13   -398.9238201  0.403816E-06  0.258E-03    0.14       2.5  T
  14   -398.9238206 -0.444773E-06  0.191E-03    0.14       3.4  T
  15   -398.9238212 -0.633623E-06  0.124E-03    0.14       5.2  T
  16   -398.9238216 -0.355506E-06  0.510E-04    0.14      12.6  T
  17   -398.9238216  0.218864E-08  0.453E-04    0.14      14.2  T
     SCC iter.                  ...        0 min,  1.697 sec
     gradient                   ...        0 min,  0.591 sec
 * total energy  :  -393.4832899 Eh     change       -0.8742849E-01 Eh
   gradient norm :     0.2532735 Eh/α   predicted    -0.5439293E-01 ( -37.79%)
   displ. norm   :     0.3419133 α      lambda       -0.6767711E-01
   maximum displ.:     0.2451618 α      in ANC's #76, #81, #55, ...

........................................................................
.............................. CYCLE    5 ..............................
........................................................................

 iter      E             dE          RMSdq      gap      omega  full diag
   1   -398.7920756 -0.398792E+03  0.645E-01    0.08       0.0  T
   2   -397.3857977  0.140628E+01  0.174E+00    0.44       1.0  T
   3   -398.8588290 -0.147303E+01  0.639E-01    0.34       1.0  T
   4   -398.9261603 -0.673313E-01  0.352E-01    0.20       1.0  T
   5   -398.9722194 -0.460590E-01  0.220E-01    0.10       1.0  T
   6   -398.9821073 -0.988799E-02  0.914E-02    0.08       1.0  T
   7   -398.9825949 -0.487551E-03  0.665E-02    0.11       1.0  T
   8   -398.9831356 -0.540747E-03  0.379E-02    0.09       1.0  T
   9   -398.9831980 -0.624031E-04  0.242E-02    0.09       1.0  T
  10   -398.9833379 -0.139890E-03  0.127E-02    0.09       1.0  T
  11   -398.9833645 -0.265852E-04  0.672E-03    0.09       1.0  T
  12   -398.9833721 -0.758241E-05  0.477E-03    0.09       1.3  T
  13   -398.9833769 -0.479361E-05  0.281E-03    0.09       2.3  T
  14   -398.9833771 -0.170788E-06  0.226E-03    0.09       2.8  T
  15   -398.9833781 -0.101204E-05  0.129E-03    0.09       5.0  T
  16   -398.9833773  0.737012E-06  0.158E-03    0.09       4.1  T
  17   -398.9833784 -0.105785E-05  0.337E-04    0.09      19.1  T
  18   -398.9833784  0.528513E-08  0.279E-04    0.09      23.1  T
  19   -398.9833784  0.258069E-09  0.244E-04    0.09      26.4  T
     SCC iter.                  ...        0 min,  1.916 sec
     gradient                   ...        0 min,  0.605 sec
 * total energy  :  -393.5374878 Eh     change       -0.5419790E-01 Eh
   gradient norm :     0.2080266 Eh/α   predicted    -0.3779453E-01 ( -30.27%)
   displ. norm   :     0.3981937 α      lambda       -0.5576507E-01
   maximum displ.:     0.3007573 α      in ANC's #76, #81, #73, ...

........................................................................
.............................. CYCLE    6 ..............................
........................................................................

 iter      E             dE          RMSdq      gap      omega  full diag
   1   -398.9347271 -0.398935E+03  0.484E-01    0.05       0.0  T
   2   -397.6092865  0.132544E+01  0.164E+00    0.30       1.0  T
   3   -398.9087673 -0.129948E+01  0.588E-01    0.26       1.0  T
   4   -399.0179478 -0.109180E+00  0.236E-01    0.11       1.0  T
   5   -399.0307983 -0.128505E-01  0.132E-01    0.02       1.0  T
   6   -399.0327732 -0.197485E-02  0.123E-01    0.08       1.0  T
   7   -399.0331632 -0.390053E-03  0.835E-02    0.06       1.0  T
   8   -399.0350213 -0.185813E-02  0.246E-02    0.05       1.0  T
   9   -399.0350140  0.733869E-05  0.207E-02    0.05       1.0  T
  10   -399.0350519 -0.379201E-04  0.155E-02    0.05       1.0  T
  11   -399.0351380 -0.860669E-04  0.650E-03    0.05       1.0  T
  12   -399.0351450 -0.705800E-05  0.284E-03    0.05       2.3  T
  13   -399.0351468 -0.174441E-05  0.194E-03    0.05       3.3  T
  14   -399.0351467  0.732412E-07  0.171E-03    0.05       3.8  T
  15   -399.0351444  0.228175E-05  0.284E-03    0.05       2.3  T
  16   -399.0351474 -0.292259E-05  0.715E-04    0.05       9.0  T
  17   -399.0351470  0.333036E-06  0.986E-04    0.05       6.5  T
  18   -399.0351474 -0.411398E-06  0.259E-04    0.05      24.8  T
     SCC iter.                  ...        0 min,  1.796 sec
     gradient                   ...        0 min,  0.599 sec
 * total energy  :  -393.5584283 Eh     change       -0.2094050E-01 Eh
   gradient norm :     0.1266044 Eh/α   predicted    -0.3230365E-01 (  54.26%)
   displ. norm   :     0.3385241 α      lambda       -0.2695339E-01
   maximum displ.:     0.2576462 α      in ANC's #76, #81, #73, ...

........................................................................
.............................. CYCLE    7 ..............................
........................................................................

 iter      E             dE          RMSdq      gap      omega  full diag
   1   -399.0435255 -0.399044E+03  0.353E-01    0.00       0.0  T
   2   -398.4744528  0.569073E+00  0.110E+00    0.29       1.0  T
   3   -399.0190311 -0.544578E+00  0.448E-01    0.08       1.0  T
   4   -399.0665287 -0.474976E-01  0.196E-01    0.02       1.0  T
   5   -399.0712508 -0.472211E-02  0.135E-01    0.06       1.0  T
   6   -399.0726074 -0.135660E-02  0.815E-02    0.05       1.0  T
   7   -399.0717666  0.840801E-03  0.815E-02    0.03       1.0  T
   8   -399.0738713 -0.210476E-02  0.306E-02    0.05       1.0  T
   9   -399.0741787 -0.307374E-03  0.113E-02    0.05       1.0  T
  10   -399.0742012 -0.224576E-04  0.695E-03    0.05       1.0  T
  11   -399.0742053 -0.412845E-05  0.460E-03    0.05       1.4  T
  12   -399.0742083 -0.300341E-05  0.254E-03    0.05       2.5  T
  13   -399.0742095 -0.116287E-05  0.178E-03    0.05       3.6  T
  14   -399.0742106 -0.111230E-05  0.663E-04    0.05       9.7  T
  15   -399.0742104  0.188485E-06  0.858E-04    0.05       7.5  T
  16   -399.0742107 -0.289351E-06  0.231E-04    0.05      27.9  T
     SCC iter.                  ...        0 min,  1.615 sec
     gradient                   ...        0 min,  0.599 sec
 * total energy  :  -393.5513581 Eh     change        0.7070173E-02 Eh
   gradient norm :     0.1151928 Eh/α   predicted    -0.1502125E-01 (-312.46%)
   displ. norm   :     0.8116019 α      lambda       -0.5853450E-01
   maximum displ.:     0.6123710 α      in ANC's #76, #81, #80, ...

........................................................................
.............................. CYCLE    8 ..............................
........................................................................

 iter      E             dE          RMSdq      gap      omega  full diag
   1   -399.0606192 -0.399061E+03  0.666E-01    0.08       0.0  T
   2   -398.8104604  0.250159E+00  0.978E-01    0.08       1.0  T
   3   -398.5804230  0.230037E+00  0.115E+00    0.28       1.0  T
   4   -398.8841609 -0.303738E+00  0.845E-01    0.18       1.0  T
   5   -399.0971650 -0.213004E+00  0.307E-01    0.10       1.0  T
   6   -399.0704061  0.267589E-01  0.377E-01    0.08       1.0  T
   7   -399.0901429 -0.197368E-01  0.289E-01    0.11       1.0  T
   8   -399.1168911 -0.267481E-01  0.175E-01    0.09       1.0  T
   9   -399.1181082 -0.121712E-02  0.153E-01    0.09       1.0  T
  10   -399.1285805 -0.104723E-01  0.344E-02    0.07       1.0  T
  11   -399.1283067  0.273814E-03  0.315E-02    0.07       1.0  T
  12   -399.1286848 -0.378144E-03  0.982E-03    0.07       1.0  T
  13   -399.1287043 -0.195478E-04  0.477E-03    0.07       1.3  T
  14   -399.1287007  0.361087E-05  0.474E-03    0.07       1.4  T
  15   -399.1287032 -0.244203E-05  0.380E-03    0.07       1.7  T
  16   -399.1287088 -0.561843E-05  0.996E-04    0.07       6.5  T
  17   -399.1287089 -0.131107E-06  0.698E-04    0.07       9.2  T
  18   -399.1287091 -0.171793E-06  0.325E-04    0.07      19.8  T
     SCC iter.                  ...        0 min,  1.831 sec
     gradient                   ...        0 min,  0.601 sec
 * total energy  :  -393.4317393 Eh     change        0.1196188E+00 Eh
   gradient norm :     0.1834716 Eh/α   predicted    -0.4854653E-01 (-140.58%)
   displ. norm   :     0.0629014 α      lambda       -0.8684847E-02
   maximum displ.:     0.0313107 α      in ANC's #76, #6, #78, ...

........................................................................
.............................. CYCLE    9 ..............................
........................................................................

 iter      E             dE          RMSdq      gap      omega  full diag
   1   -399.1321565 -0.399132E+03  0.693E-02    0.09       0.0  T
   2   -398.9269654  0.205191E+00  0.662E-01    0.15       1.0  T
   3   -399.1275710 -0.200606E+00  0.127E-01    0.09       1.0  T
   4   -399.1309657 -0.339477E-02  0.771E-02    0.09       1.0  T
   5   -399.1326253 -0.165954E-02  0.460E-02    0.08       1.0  T
   6   -399.1332102 -0.584902E-03  0.266E-02    0.08       1.0  T
   7   -399.1334479 -0.237688E-03  0.135E-02    0.08       1.0  T
   8   -399.1334441  0.375383E-05  0.883E-03    0.08       1.0  T
   9   -399.1334668 -0.227054E-04  0.454E-03    0.08       1.4  T
  10   -399.1334731 -0.628005E-05  0.186E-03    0.08       3.4  T
  11   -399.1334730  0.117230E-06  0.115E-03    0.08       5.6  T
  12   -399.1334734 -0.404785E-06  0.733E-04    0.08       8.8  T
  13   -399.1334735 -0.100412E-06  0.294E-04    0.08      21.8  T
     SCC iter.                  ...        0 min,  1.318 sec
     gradient                   ...        0 min,  0.614 sec
 * total energy  :  -393.4423130 Eh     change       -0.1057369E-01 Eh
   gradient norm :     0.1112344 Eh/α   predicted    -0.4359702E-02 ( -58.77%)
   displ. norm   :     0.0843360 α      lambda       -0.8129479E-02
   maximum displ.:     0.0364565 α      in ANC's #15, #78, #18, ...

........................................................................
.............................. CYCLE   10 ..............................
........................................................................

 iter      E             dE          RMSdq      gap      omega  full diag
   1   -399.1412335 -0.399141E+03  0.798E-02    0.10       0.0  T
   2   -399.0158588  0.125375E+00  0.529E-01    0.08       1.0  T
   3   -399.1353304 -0.119472E+00  0.136E-01    0.09       1.0  T
   4   -399.1413732 -0.604277E-02  0.551E-02    0.10       1.0  T
   5   -399.1424267 -0.105349E-02  0.199E-02    0.09       1.0  T
   6   -399.1422037  0.223007E-03  0.276E-02    0.09       1.0  T
   7   -399.1424688 -0.265144E-03  0.837E-03    0.09       1.0  T
   8   -399.1424798 -0.109656E-04  0.633E-03    0.09       1.0  T
   9   -399.1424851 -0.529802E-05  0.398E-03    0.09       1.6  T
  10   -399.1424866 -0.154342E-05  0.262E-03    0.09       2.5  T
  11   -399.1424885 -0.190602E-05  0.153E-03    0.09       4.2  T
  12   -399.1424890 -0.490653E-06  0.784E-04    0.09       8.2  T
  13   -399.1424892 -0.188992E-06  0.368E-04    0.09      17.5  T
     SCC iter.                  ...        0 min,  1.307 sec
     gradient                   ...        0 min,  0.598 sec
 * total energy  :  -393.4335344 Eh     change        0.8778589E-02 Eh
   gradient norm :     0.0833637 Eh/α   predicted    -0.4093670E-02 (-146.63%)
   displ. norm   :     0.0822610 α      lambda       -0.4632885E-02
   maximum displ.:     0.0302242 α      in ANC's #15, #81, #78, ...

........................................................................
.............................. CYCLE   11 ..............................
........................................................................

 iter      E             dE          RMSdq      gap      omega  full diag
   1   -399.1493674 -0.399149E+03  0.817E-02    0.10       0.0  T
   2   -399.1473663  0.200108E-02  0.103E-01    0.08       1.0  T
   3   -399.1473310  0.353136E-04  0.847E-02    0.09       1.0  T
   4   -399.1430572  0.427379E-02  0.135E-01    0.11       1.0  T
   5   -399.1500584 -0.700119E-02  0.299E-02    0.09       1.0  T
   6   -399.1497395  0.318897E-03  0.329E-02    0.09       1.0  T
   7   -399.1501565 -0.416963E-03  0.104E-02    0.09       1.0  T
   8   -399.1501854 -0.289091E-04  0.284E-03    0.09       2.3  T
   9   -399.1501837  0.170490E-05  0.271E-03    0.09       2.4  T
  10   -399.1501855 -0.184090E-05  0.149E-03    0.09       4.3  T
  11   -399.1501861 -0.541445E-06  0.863E-04    0.09       7.4  T
  12   -399.1501862 -0.136388E-06  0.503E-04    0.09      12.8  T
     SCC iter.                  ...        0 min,  1.304 sec
     gradient                   ...        0 min,  0.629 sec
 * total energy  :  -393.4117049 Eh     change        0.2182946E-01 Eh
   gradient norm :     0.0895847 Eh/α   predicted    -0.2332335E-02 (-110.68%)
   displ. norm   :     0.1829587 α      lambda       -0.8658118E-02
   maximum displ.:     0.0771226 α      in ANC's #81, #74, #76, ...

........................................................................
.............................. CYCLE   12 ..............................
........................................................................

 iter      E             dE          RMSdq      gap      omega  full diag
   1   -399.1560708 -0.399156E+03  0.204E-01    0.10       0.0  T
   2   -399.0339150  0.122156E+00  0.522E-01    0.14       1.0  T
   3   -398.9830140  0.509009E-01  0.655E-01    0.07       1.0  T
   4   -399.1588822 -0.175868E+00  0.124E-01    0.10       1.0  T
   5   -399.1606808 -0.179851E-02  0.880E-02    0.09       1.0  T
   6   -399.1581019  0.257885E-02  0.105E-01    0.09       1.0  T
   7   -399.1612798 -0.317789E-02  0.461E-02    0.09       1.0  T
   8   -399.1620133 -0.733526E-03  0.182E-02    0.10       1.0  T
   9   -399.1620403 -0.269401E-04  0.116E-02    0.10       1.0  T
  10   -399.1620712 -0.309773E-04  0.648E-03    0.10       1.0  T
  11   -399.1620702  0.992195E-06  0.505E-03    0.10       1.3  T
  12   -399.1620782 -0.798117E-05  0.235E-03    0.10       2.7  T
  13   -399.1620804 -0.221050E-05  0.839E-04    0.10       7.7  T
  14   -399.1620804  0.422247E-07  0.752E-04    0.10       8.6  T
  15   -399.1620805 -0.110832E-06  0.413E-04    0.10      15.6  T
     SCC iter.                  ...        0 min,  1.561 sec
     gradient                   ...        0 min,  0.614 sec
 * total energy  :  -393.3412173 Eh     change        0.7048761E-01 Eh
   gradient norm :     0.0967986 Eh/α   predicted    -0.4474663E-02 (-106.35%)
   displ. norm   :     0.2016189 α      lambda       -0.7707942E-02
   maximum displ.:     0.0921110 α      in ANC's #81, #74, #76, ...

........................................................................
.............................. CYCLE   13 ..............................
........................................................................

 iter      E             dE          RMSdq      gap      omega  full diag
   1   -399.1596770 -0.399160E+03  0.254E-01    0.09       0.0  T
   2   -398.8153408  0.344336E+00  0.856E-01    0.20       1.0  T
   3   -399.0154115 -0.200071E+00  0.613E-01    0.06       1.0  T
   4   -399.1627572 -0.147346E+00  0.177E-01    0.10       1.0  T
   5   -399.1658611 -0.310399E-02  0.132E-01    0.09       1.0  T
   6   -399.1643939  0.146726E-02  0.124E-01    0.09       1.0  T
   7   -399.1663908 -0.199693E-02  0.796E-02    0.09       1.0  T
   8   -399.1691596 -0.276877E-02  0.277E-02    0.10       1.0  T
   9   -399.1692145 -0.549002E-04  0.157E-02    0.09       1.0  T
  10   -399.1692379 -0.234036E-04  0.837E-03    0.09       1.0  T
  11   -399.1692091  0.287653E-04  0.915E-03    0.09       1.0  T
  12   -399.1692449 -0.357656E-04  0.268E-03    0.09       2.4  T
  13   -399.1692475 -0.258226E-05  0.124E-03    0.09       5.2  T
  14   -399.1692475 -0.632255E-07  0.930E-04    0.09       6.9  T
  15   -399.1692478 -0.272537E-06  0.455E-04    0.09      14.1  T
     SCC iter.                  ...        0 min,  1.549 sec
     gradient                   ...        0 min,  0.619 sec
 * total energy  :  -393.2367809 Eh     change        0.1044364E+00 Eh
   gradient norm :     0.0980665 Eh/α   predicted    -0.4011091E-02 (-103.84%)
   displ. norm   :     0.2701276 α      lambda       -0.1066970E-01
   maximum displ.:     0.1222691 α      in ANC's #81, #74, #6, ...

........................................................................
.............................. CYCLE   14 ..............................
........................................................................

 iter      E             dE          RMSdq      gap      omega  full diag
   1   -399.1577296 -0.399158E+03  0.362E-01    0.07       0.0  T
   2   -398.6852808  0.472449E+00  0.103E+00    0.32       1.0  T
   3   -398.9594061 -0.274125E+00  0.706E-01    0.10       1.0  T
   4   -399.1576475 -0.198241E+00  0.270E-01    0.11       1.0  T
   5   -399.1708889 -0.132414E-01  0.157E-01    0.08       1.0  T
   6   -399.1691399  0.174896E-02  0.148E-01    0.08       1.0  T
   7   -399.1682234  0.916535E-03  0.118E-01    0.07       1.0  T
   8   -399.1733008 -0.507734E-02  0.417E-02    0.09       1.0  T
   9   -399.1733327 -0.319878E-04  0.327E-02    0.08       1.0  T
  10   -399.1733248  0.795484E-05  0.255E-02    0.08       1.0  T
  11   -399.1735726 -0.247827E-03  0.923E-03    0.08       1.0  T
  12   -399.1735936 -0.210156E-04  0.514E-03    0.08       1.3  T
  13   -399.1736054 -0.117984E-04  0.132E-03    0.08       4.9  T
  14   -399.1736058 -0.351217E-06  0.656E-04    0.08       9.8  T
  15   -399.1736057  0.840033E-07  0.823E-04    0.08       7.8  T
     SCC iter.                  ...        0 min,  1.535 sec
     gradient                   ...        0 min,  0.619 sec
 * total energy  :  -393.0636786 Eh     change        0.1731023E+00 Eh
   gradient norm :     0.1037756 Eh/α   predicted    -0.5724181E-02 (-103.31%)
   displ. norm   :     0.3488754 α      lambda       -0.1440736E-01
   maximum displ.:     0.1553401 α      in ANC's #81, #74, #6, ...

........................................................................
.............................. CYCLE   15 ..............................
........................................................................

 iter      E             dE          RMSdq      gap      omega  full diag
   1   -399.1512238 -0.399151E+03  0.404E-01    0.06       0.0  T
   2   -398.7205872  0.430637E+00  0.102E+00    0.20       1.0  T
   3   -398.9837549 -0.263168E+00  0.674E-01    0.03       1.0  T
   4   -399.1582404 -0.174485E+00  0.273E-01    0.10       1.0  T
   5   -399.1650441 -0.680366E-02  0.179E-01    0.06       1.0  T
   6   -399.1669541 -0.191008E-02  0.136E-01    0.08       1.0  T
   7   -399.1680308 -0.107669E-02  0.989E-02    0.07       1.0  T
   8   -399.1700928 -0.206201E-02  0.396E-02    0.08       1.0  T
   9   -399.1702148 -0.121920E-03  0.263E-02    0.08       1.0  T
  10   -399.1704401 -0.225310E-03  0.894E-03    0.08       1.0  T
  11   -399.1704543 -0.142062E-04  0.301E-03    0.08       2.1  T
  12   -399.1704553 -0.104334E-05  0.195E-03    0.08       3.3  T
  13   -399.1704560 -0.694538E-06  0.101E-03    0.08       6.4  T
  14   -399.1704559  0.150930E-06  0.102E-03    0.08       6.3  T
  15   -399.1704561 -0.248606E-06  0.620E-04    0.08      10.4  T
  16   -399.1704561 -0.366862E-07  0.388E-04    0.08      16.6  T
     SCC iter.                  ...        0 min,  1.632 sec
     gradient                   ...        0 min,  0.617 sec
 * total energy  :  -392.7975954 Eh     change        0.2660832E+00 Eh
   gradient norm :     0.1248542 Eh/α   predicted    -0.8080406E-02 (-103.04%)
   displ. norm   :     0.0929157 α      lambda       -0.6348581E-02
   maximum displ.:     0.0598155 α      in ANC's #76, #15, #13, ...

........................................................................
.............................. CYCLE   16 ..............................
........................................................................

 iter      E             dE          RMSdq      gap      omega  full diag
   1   -399.1678481 -0.399168E+03  0.811E-02    0.08       0.0  T
   2   -399.1554311  0.124170E-01  0.197E-01    0.09       1.0  T
   3   -399.1586693 -0.323818E-02  0.167E-01    0.06       1.0  T
   4   -399.1685360 -0.986669E-02  0.432E-02    0.08       1.0  T
   5   -399.1685595 -0.234429E-04  0.372E-02    0.07       1.0  T
   6   -399.1687191 -0.159614E-03  0.142E-02    0.08       1.0  T
   7   -399.1687727 -0.536368E-04  0.351E-03    0.08       1.8  T
   8   -399.1687747 -0.198281E-05  0.246E-03    0.08       2.6  T
   9   -399.1687740  0.690861E-06  0.228E-03    0.08       2.8  T
  10   -399.1687755 -0.155103E-05  0.873E-04    0.08       7.4  T
  11   -399.1687756 -0.985302E-07  0.535E-04    0.08      12.0  T
  12   -399.1687756  0.459212E-07  0.533E-04    0.08      12.1  T
     SCC iter.                  ...        0 min,  1.228 sec
     gradient                   ...        0 min,  0.616 sec
 * total energy  :  -392.8728774 Eh     change       -0.7528200E-01 Eh
   gradient norm :     0.1006080 Eh/α   predicted    -0.3201979E-02 ( -95.75%)
   displ. norm   :     0.1973733 α      lambda       -0.1287622E-01
   maximum displ.:     0.1163013 α      in ANC's #76, #73, #15, ...

........................................................................
.............................. CYCLE   17 ..............................
........................................................................

 iter      E             dE          RMSdq      gap      omega  full diag
   1   -399.1537044 -0.399154E+03  0.152E-01    0.07       0.0  T
   2   -399.1305928  0.231116E-01  0.296E-01    0.10       1.0  T
   3   -399.1328587 -0.226595E-02  0.261E-01    0.04       1.0  T
   4   -399.1556545 -0.227958E-01  0.851E-02    0.08       1.0  T
   5   -399.1558720 -0.217457E-03  0.639E-02    0.07       1.0  T
   6   -399.1564424 -0.570406E-03  0.275E-02    0.08       1.0  T
   7   -399.1565127 -0.702653E-04  0.181E-02    0.07       1.0  T
   8   -399.1566190 -0.106339E-03  0.503E-03    0.07       1.3  T
   9   -399.1566126  0.644155E-05  0.538E-03    0.07       1.2  T
  10   -399.1566211 -0.849955E-05  0.218E-03    0.07       3.0  T
  11   -399.1566226 -0.152511E-05  0.106E-03    0.07       6.0  T
  12   -399.1566226 -0.249402E-07  0.826E-04    0.07       7.8  T
  13   -399.1566224  0.174802E-06  0.929E-04    0.07       6.9  T
     SCC iter.                  ...        0 min,  1.315 sec
     gradient                   ...        0 min,  0.619 sec
 * total energy  :  -393.0354737 Eh     change       -0.1625963E+00 Eh
   gradient norm :     0.0807028 Eh/α   predicted    -0.6689087E-02 ( -95.89%)
   displ. norm   :     0.1017921 α      lambda       -0.4350894E-02
   maximum displ.:     0.0423963 α      in ANC's #74, #76, #72, ...

........................................................................
.............................. CYCLE   18 ..............................
........................................................................

 iter      E             dE          RMSdq      gap      omega  full diag
   1   -399.1464107 -0.399146E+03  0.976E-02    0.07       0.0  T
   2   -399.1146840  0.317267E-01  0.291E-01    0.11       1.0  T
   3   -399.1365679 -0.218839E-01  0.177E-01    0.05       1.0  T
   4   -399.1465812 -0.100133E-01  0.635E-02    0.08       1.0  T
   5   -399.1472511 -0.669893E-03  0.460E-02    0.07       1.0  T
   6   -399.1474226 -0.171539E-03  0.193E-02    0.08       1.0  T
   7   -399.1475182 -0.956302E-04  0.884E-03    0.08       1.0  T
   8   -399.1475355 -0.172273E-04  0.362E-03    0.08       1.8  T
   9   -399.1475337  0.177233E-05  0.331E-03    0.08       1.9  T
  10   -399.1475362 -0.249392E-05  0.209E-03    0.08       3.1  T
  11   -399.1475374 -0.123278E-05  0.878E-04    0.08       7.3  T
  12   -399.1475376 -0.174822E-06  0.469E-04    0.08      13.7  T
  13   -399.1475377 -0.680574E-07  0.235E-04    0.08      27.4  T
     SCC iter.                  ...        0 min,  1.353 sec
     gradient                   ...        0 min,  0.603 sec
 * total energy  :  -393.0328391 Eh     change        0.2634612E-02 Eh
   gradient norm :     0.0891698 Eh/α   predicted    -0.2198174E-02 (-183.43%)
   displ. norm   :     0.3438802 α      lambda       -0.1671863E-01
   maximum displ.:     0.1312528 α      in ANC's #76, #74, #72, ...

........................................................................
.............................. CYCLE   19 ..............................
........................................................................

 iter      E             dE          RMSdq      gap      omega  full diag
   1   -399.0972755 -0.399097E+03  0.289E-01    0.09       0.0  T
   2   -399.0906948  0.658072E-02  0.290E-01    0.08       1.0  T
   3   -398.9532481  0.137447E+00  0.600E-01    0.08       1.0  T
   4   -399.0979998 -0.144752E+00  0.179E-01    0.08       1.0  T
   5   -399.1016743 -0.367450E-02  0.151E-01    0.09       1.0  T
   6   -399.1044112 -0.273695E-02  0.794E-02    0.10       1.0  T
   7   -399.1060059 -0.159467E-02  0.259E-02    0.09       1.0  T
   8   -399.1060171 -0.111875E-04  0.186E-02    0.09       1.0  T
   9   -399.1060663 -0.492349E-04  0.138E-02    0.09       1.0  T
  10   -399.1061000 -0.337017E-04  0.904E-03    0.09       1.0  T
  11   -399.1061320 -0.320369E-04  0.262E-03    0.09       2.5  T
  12   -399.1061339 -0.188182E-05  0.828E-04    0.09       7.8  T
  13   -399.1061340 -0.296272E-07  0.597E-04    0.09      10.8  T
  14   -399.1061340 -0.541001E-07  0.341E-04    0.09      18.8  T
     SCC iter.                  ...        0 min,  1.440 sec
     gradient                   ...        0 min,  0.620 sec
 * total energy  :  -392.9647152 Eh     change        0.6812387E-01 Eh
   gradient norm :     0.1105665 Eh/α   predicted    -0.9347403E-02 (-113.72%)
   displ. norm   :     0.1058424 α      lambda       -0.5285860E-02
   maximum displ.:     0.0349098 α      in ANC's #18, #80, #78, ...

........................................................................
.............................. CYCLE   20 ..............................
........................................................................

 iter      E             dE          RMSdq      gap      omega  full diag
   1   -399.0900286 -0.399090E+03  0.116E-01    0.10       0.0  T
   2   -398.9943355  0.956931E-01  0.498E-01    0.03       1.0  T
   3   -399.0925236 -0.981881E-01  0.803E-02    0.11       1.0  T
   4   -399.0928998 -0.376193E-03  0.651E-02    0.09       1.0  T
   5   -399.0933717 -0.471919E-03  0.395E-02    0.09       1.0  T
   6   -399.0936569 -0.285226E-03  0.163E-02    0.10       1.0  T
   7   -399.0935037  0.153256E-03  0.215E-02    0.10       1.0  T
   8   -399.0936648 -0.161097E-03  0.939E-03    0.10       1.0  T
   9   -399.0936937 -0.289205E-04  0.367E-03    0.10       1.8  T
  10   -399.0936944 -0.704627E-06  0.311E-03    0.10       2.1  T
  11   -399.0936974 -0.299516E-05  0.114E-03    0.10       5.6  T
  12   -399.0936977 -0.283465E-06  0.479E-04    0.10      13.4  T
  13   -399.0936975  0.213932E-06  0.846E-04    0.10       7.6  T
     SCC iter.                  ...        0 min,  1.338 sec
     gradient                   ...        0 min,  0.616 sec
 * total energy  :  -392.9236985 Eh     change        0.4101668E-01 Eh
   gradient norm :     0.0895140 Eh/α   predicted    -0.2672629E-02 (-106.52%)
   displ. norm   :     0.1881239 α      lambda       -0.7995044E-02
   maximum displ.:     0.0610541 α      in ANC's #74, #18, #63, ...
 * RMSD in coord.:     0.2029138 α      energy gain  -0.2545754E-01 Eh

generating ANC from exact Hessian ...
Using Lindh-Hessian (1995)
 Shifting diagonal of input Hessian by    1.0027521703352608E-002
 Lowest  eigenvalues of input Hessian
    0.010000    0.010003    0.000000    0.000000    0.000000    0.000000
    0.000000    0.000000    0.010040    0.010051    0.010062    0.010085
    0.010091    0.010111    0.010134    0.010159    0.010179    0.010190
 Highest eigenvalues
    2.749184    2.903351    3.133211    3.789330    4.597330    4.918874


........................................................................
.............................. CYCLE   21 ..............................
........................................................................

 iter      E             dE          RMSdq      gap      omega  full diag
   1   -399.0565675 -0.399057E+03  0.246E-01    0.10       0.0  T
   2   -398.6660213  0.390546E+00  0.952E-01    0.38       1.0  T
   3   -399.0666719 -0.400651E+00  0.181E-01    0.13       1.0  T
   4   -399.0705502 -0.387835E-02  0.134E-01    0.09       1.0  T
   5   -399.0719935 -0.144330E-02  0.743E-02    0.10       1.0  T
   6   -399.0699594  0.203409E-02  0.932E-02    0.11       1.0  T
   7   -399.0727924 -0.283294E-02  0.207E-02    0.10       1.0  T
   8   -399.0728863 -0.939869E-04  0.127E-02    0.10       1.0  T
   9   -399.0728900 -0.364430E-05  0.109E-02    0.10       1.0  T
  10   -399.0728979 -0.792953E-05  0.812E-03    0.10       1.0  T
  11   -399.0729111 -0.131555E-04  0.353E-03    0.10       1.8  T
  12   -399.0729145 -0.344559E-05  0.227E-03    0.10       2.8  T
  13   -399.0729159 -0.140682E-05  0.117E-03    0.10       5.5  T
  14   -399.0729160 -0.459230E-07  0.103E-03    0.10       6.2  T
  15   -399.0729163 -0.342124E-06  0.342E-04    0.10      18.8  T
  16   -399.0729162  0.150976E-06  0.686E-04    0.10       9.4  T
     SCC iter.                  ...        0 min,  1.652 sec
     gradient                   ...        0 min,  0.620 sec
 * total energy  :  -392.8071062 Eh     change        0.1165923E+00 Eh
   gradient norm :     0.0610904 Eh/α   predicted     0.0000000E+00 (-100.00%)
   displ. norm   :     0.0373668 α      lambda       -0.2232707E-02
   maximum displ.:     0.0302811 α      in ANC's #5, #6, #8, ...

........................................................................
.............................. CYCLE   22 ..............................
........................................................................

 iter      E             dE          RMSdq      gap      omega  full diag
   1   -399.0693468 -0.399069E+03  0.333E-02    0.10       0.0  T
   2   -399.0552145  0.141323E-01  0.190E-01    0.11       1.0  T
   3   -399.0667926 -0.115780E-01  0.801E-02    0.09       1.0  T
   4   -399.0694249 -0.263238E-02  0.204E-02    0.10       1.0  T
   5   -399.0694608 -0.358607E-04  0.157E-02    0.10       1.0  T
   6   -399.0694574  0.342298E-05  0.921E-03    0.10       1.0  T
   7   -399.0694815 -0.240800E-04  0.522E-03    0.10       1.2  T
   8   -399.0694929 -0.114030E-04  0.765E-04    0.10       8.4  T
   9   -399.0694929 -0.307836E-07  0.559E-04    0.10      11.5  T
  10   -399.0694930 -0.689265E-07  0.280E-04    0.10      23.0  T
     SCC iter.                  ...        0 min,  1.067 sec
     gradient                   ...        0 min,  0.611 sec
 * total energy  :  -392.8076057 Eh     change       -0.4995265E-03 Eh
   gradient norm :     0.0366534 Eh/α   predicted    -0.1135452E-02 ( 127.31%)
   displ. norm   :     0.0521885 α      lambda       -0.1866741E-02
   maximum displ.:     0.0378385 α      in ANC's #5, #6, #8, ...

........................................................................
.............................. CYCLE   23 ..............................
........................................................................

 iter      E             dE          RMSdq      gap      omega  full diag
   1   -399.0647888 -0.399065E+03  0.531E-02    0.10       0.0  T
   2   -399.0180381  0.467507E-01  0.339E-01    0.11       1.0  T
   3   -399.0603196 -0.422814E-01  0.109E-01    0.09       1.0  T
   4   -399.0649267 -0.460713E-02  0.346E-02    0.10       1.0  T
   5   -399.0651542 -0.227553E-03  0.224E-02    0.10       1.0  T
   6   -399.0651623 -0.806243E-05  0.139E-02    0.10       1.0  T
   7   -399.0651983 -0.360287E-04  0.776E-03    0.10       1.0  T
   8   -399.0652185 -0.201443E-04  0.220E-03    0.10       2.9  T
   9   -399.0652190 -0.480861E-06  0.165E-03    0.10       3.9  T
  10   -399.0652199 -0.963637E-06  0.600E-04    0.10      10.7  T
  11   -399.0652200 -0.549394E-07  0.412E-04    0.10      15.6  T
     SCC iter.                  ...        0 min,  1.169 sec
     gradient                   ...        0 min,  0.617 sec
 * total energy  :  -392.8053706 Eh     change        0.2235082E-02 Eh
   gradient norm :     0.0227069 Eh/α   predicted    -0.9359534E-03 (-141.88%)
   displ. norm   :     0.0187701 α      lambda       -0.3127833E-03
   maximum displ.:     0.0070641 α      in ANC's #1, #5, #78, ...

........................................................................
.............................. CYCLE   24 ..............................
........................................................................

 iter      E             dE          RMSdq      gap      omega  full diag
   1   -399.0638883 -0.399064E+03  0.206E-02    0.10       0.0  T
   2   -399.0583368  0.555152E-02  0.119E-01    0.11       1.0  T
   3   -399.0630797 -0.474292E-02  0.462E-02    0.10       1.0  T
   4   -399.0639452 -0.865465E-03  0.939E-03    0.10       1.0  T
   5   -399.0639522 -0.698783E-05  0.756E-03    0.10       1.0  T
   6   -399.0639505  0.171704E-05  0.603E-03    0.10       1.1  T
   7   -399.0639568 -0.627988E-05  0.279E-03    0.10       2.3  T
   8   -399.0639595 -0.276778E-05  0.453E-04    0.10      14.2  T
   9   -399.0639595 -0.230244E-07  0.281E-04    0.10      22.9  T
  10   -399.0639596 -0.184044E-07  0.132E-04    0.10      48.6  T
     SCC iter.                  ...        0 min,  1.046 sec
     gradient                   ...        0 min,  0.620 sec
 * total energy  :  -392.8030143 Eh     change        0.2356293E-02 Eh
   gradient norm :     0.0226059 Eh/α   predicted    -0.1588315E-03 (-106.74%)
   displ. norm   :     0.0830326 α      lambda       -0.1394918E-02
   maximum displ.:     0.0365262 α      in ANC's #1, #77, #34, ...

........................................................................
.............................. CYCLE   25 ..............................
........................................................................

 iter      E             dE          RMSdq      gap      omega  full diag
   1   -399.0568817 -0.399057E+03  0.788E-02    0.09       0.0  T
   2   -398.9966251  0.602566E-01  0.388E-01    0.11       1.0  T
   3   -399.0484889 -0.518638E-01  0.151E-01    0.09       1.0  T
   4   -399.0571387 -0.864980E-02  0.477E-02    0.10       1.0  T
   5   -399.0576987 -0.559976E-03  0.240E-02    0.10       1.0  T
   6   -399.0577256 -0.268990E-04  0.195E-02    0.10       1.0  T
   7   -399.0577551 -0.295211E-04  0.169E-02    0.10       1.0  T
   8   -399.0578018 -0.467115E-04  0.358E-03    0.10       1.8  T
   9   -399.0578033 -0.149024E-05  0.268E-03    0.10       2.4  T
  10   -399.0578057 -0.236542E-05  0.112E-03    0.10       5.8  T
  11   -399.0578059 -0.266271E-06  0.667E-04    0.10       9.6  T
  12   -399.0578060 -0.442226E-07  0.507E-04    0.10      12.7  T
     SCC iter.                  ...        0 min,  1.272 sec
     gradient                   ...        0 min,  0.617 sec
 * total energy  :  -392.7876438 Eh     change        0.1537053E-01 Eh
   gradient norm :     0.0295137 Eh/α   predicted    -0.7022966E-03 (-104.57%)
   displ. norm   :     0.0959638 α      lambda       -0.1234232E-02
   maximum displ.:     0.0454904 α      in ANC's #1, #77, #34, ...

........................................................................
.............................. CYCLE   26 ..............................
........................................................................

 iter      E             dE          RMSdq      gap      omega  full diag
   1   -399.0475928 -0.399048E+03  0.788E-02    0.10       0.0  T
   2   -399.0246158  0.229770E-01  0.251E-01    0.12       1.0  T
   3   -399.0374947 -0.128789E-01  0.164E-01    0.08       1.0  T
   4   -399.0478478 -0.103531E-01  0.481E-02    0.10       1.0  T
   5   -399.0480387 -0.190857E-03  0.426E-02    0.10       1.0  T
   6   -399.0483343 -0.295647E-03  0.167E-02    0.10       1.0  T
   7   -399.0483245  0.980967E-05  0.159E-02    0.10       1.0  T
   8   -399.0483863 -0.617261E-04  0.255E-03    0.10       2.5  T
   9   -399.0483866 -0.370673E-06  0.198E-03    0.10       3.3  T
  10   -399.0483876 -0.101972E-05  0.992E-04    0.10       6.5  T
  11   -399.0483878 -0.204171E-06  0.603E-04    0.10      10.7  T
  12   -399.0483879 -0.415171E-07  0.409E-04    0.10      15.7  T
     SCC iter.                  ...        0 min,  1.275 sec
     gradient                   ...        0 min,  0.629 sec
 * total energy  :  -392.7611460 Eh     change        0.2649782E-01 Eh
   gradient norm :     0.0377735 Eh/α   predicted    -0.6228195E-03 (-102.35%)
   displ. norm   :     0.1862554 α      lambda       -0.2314321E-02
   maximum displ.:     0.0901296 α      in ANC's #1, #77, #34, ...

........................................................................
.............................. CYCLE   27 ..............................
........................................................................

 iter      E             dE          RMSdq      gap      omega  full diag
   1   -399.0202464 -0.399020E+03  0.144E-01    0.09       0.0  T
   2   -398.9985626  0.216838E-01  0.278E-01    0.11       1.0  T
   3   -398.9897749  0.878779E-02  0.279E-01    0.05       1.0  T
   4   -399.0217979 -0.320230E-01  0.833E-02    0.10       1.0  T
   5   -399.0212638  0.534141E-03  0.786E-02    0.09       1.0  T
   6   -399.0224583 -0.119459E-02  0.263E-02    0.09       1.0  T
   7   -399.0223139  0.144405E-03  0.320E-02    0.09       1.0  T
   8   -399.0226230 -0.309032E-03  0.819E-03    0.09       1.0  T
   9   -399.0226337 -0.107078E-04  0.487E-03    0.09       1.3  T
  10   -399.0226404 -0.673109E-05  0.196E-03    0.09       3.3  T
  11   -399.0226410 -0.635261E-06  0.111E-03    0.09       5.8  T
  12   -399.0226410  0.214762E-07  0.919E-04    0.09       7.0  T
  13   -399.0226413 -0.284882E-06  0.336E-04    0.09      19.1  T
     SCC iter.                  ...        0 min,  1.378 sec
     gradient                   ...        0 min,  0.624 sec
 * total energy  :  -392.6832763 Eh     change        0.7786967E-01 Eh
   gradient norm :     0.0470481 Eh/α   predicted    -0.1198505E-02 (-101.54%)
   displ. norm   :     0.2383778 α      lambda       -0.2813478E-02
   maximum displ.:     0.1152513 α      in ANC's #1, #77, #34, ...

........................................................................
.............................. CYCLE   28 ..............................
........................................................................

 iter      E             dE          RMSdq      gap      omega  full diag
   1   -398.9720802 -0.398972E+03  0.192E-01    0.08       0.0  T
   2   -398.9618543  0.102259E-01  0.271E-01    0.08       1.0  T
   3   -398.9571471  0.470720E-02  0.229E-01    0.05       1.0  T
   4   -398.9655822 -0.843513E-02  0.175E-01    0.10       1.0  T
   5   -398.9743314 -0.874917E-02  0.102E-01    0.06       1.0  T
   6   -398.9756799 -0.134857E-02  0.330E-02    0.08       1.0  T
   7   -398.9757098 -0.298379E-04  0.311E-02    0.07       1.0  T
   8   -398.9759395 -0.229782E-03  0.118E-02    0.07       1.0  T
   9   -398.9759837 -0.441298E-04  0.297E-03    0.08       2.2  T
  10   -398.9759833  0.421125E-06  0.259E-03    0.07       2.5  T
  11   -398.9759845 -0.120961E-05  0.150E-03    0.07       4.3  T
  12   -398.9759849 -0.465406E-06  0.772E-04    0.07       8.3  T
  13   -398.9759850 -0.506515E-07  0.494E-04    0.08      13.0  T
     SCC iter.                  ...        0 min,  1.381 sec
     gradient                   ...        0 min,  0.626 sec
 * total energy  :  -392.5313626 Eh     change        0.1519137E+00 Eh
   gradient norm :     0.0489656 Eh/α   predicted    -0.1487303E-02 (-100.98%)
   displ. norm   :     0.2872120 α      lambda       -0.3389459E-02
   maximum displ.:     0.1362408 α      in ANC's #1, #77, #78, ...

........................................................................
.............................. CYCLE   29 ..............................
........................................................................

 iter      E             dE          RMSdq      gap      omega  full diag
   1   -398.8953049 -0.398895E+03  0.256E-01    0.06       0.0  T
   2   -398.8795389  0.157660E-01  0.381E-01    0.04       1.0  T
   3   -398.8967195 -0.171806E-01  0.204E-01    0.06       1.0  T
   4   -398.9003073 -0.358784E-02  0.976E-02    0.05       1.0  T
   5   -398.8857122  0.145951E-01  0.199E-01    0.03       1.0  T
   6   -398.8971028 -0.113905E-01  0.109E-01    0.06       1.0  T
   7   -398.9016845 -0.458168E-02  0.255E-02    0.05       1.0  T
   8   -398.9017638 -0.793749E-04  0.128E-02    0.05       1.0  T
   9   -398.9018079 -0.440220E-04  0.666E-03    0.05       1.0  T
  10   -398.9018142 -0.635589E-05  0.308E-03    0.05       2.1  T
  11   -398.9018091  0.510963E-05  0.403E-03    0.05       1.6  T
  12   -398.9018152 -0.608081E-05  0.141E-03    0.05       4.6  T
  13   -398.9018154 -0.260109E-06  0.101E-03    0.05       6.4  T
  14   -398.9018154  0.409889E-07  0.949E-04    0.05       6.8  T
  15   -398.9018155 -0.825411E-07  0.685E-04    0.05       9.4  T
     SCC iter.                  ...        0 min,  1.586 sec
     gradient                   ...        0 min,  0.622 sec
 * total energy  :  -392.2679953 Eh     change        0.2633673E+00 Eh
   gradient norm :     0.0412048 Eh/α   predicted    -0.1834540E-02 (-100.70%)
   displ. norm   :     0.2858023 α      lambda       -0.2862265E-02
   maximum displ.:     0.1311512 α      in ANC's #1, #77, #78, ...

........................................................................
.............................. CYCLE   30 ..............................
........................................................................

 iter      E             dE          RMSdq      gap      omega  full diag
   1   -398.8046927 -0.398805E+03  0.278E-01    0.07       0.0  T
   2   -398.7781855  0.265072E-01  0.459E-01    0.02       1.0  T
   3   -398.8042914 -0.261059E-01  0.233E-01    0.07       1.0  T
   4   -398.7957563  0.853517E-02  0.211E-01    0.02       1.0  T
   5   -398.7851163  0.106400E-01  0.253E-01    0.06       1.0  T
   6   -398.8109659 -0.258495E-01  0.771E-02    0.05       1.0  T
   7   -398.8122666 -0.130075E-02  0.260E-02    0.05       1.0  T
   8   -398.8122783 -0.116384E-04  0.207E-02    0.05       1.0  T
   9   -398.8123656 -0.873236E-04  0.101E-02    0.05       1.0  T
  10   -398.8123768 -0.112748E-04  0.647E-03    0.05       1.0  T
  11   -398.8123739  0.291064E-05  0.477E-03    0.05       1.3  T
  12   -398.8123823 -0.832953E-05  0.203E-03    0.05       3.2  T
  13   -398.8123827 -0.431081E-06  0.145E-03    0.05       4.4  T
  14   -398.8123825  0.217764E-06  0.145E-03    0.05       4.4  T
  15   -398.8123830 -0.489924E-06  0.813E-04    0.05       7.9  T
  16   -398.8123830 -0.537829E-07  0.609E-04    0.05      10.6  T
     SCC iter.                  ...        0 min,  1.695 sec
     gradient                   ...        0 min,  0.632 sec
 * total energy  :  -391.9135664 Eh     change        0.3544289E+00 Eh
   gradient norm :     0.0340478 Eh/α   predicted    -0.1548087E-02 (-100.44%)
   displ. norm   :     0.2878030 α      lambda       -0.2075428E-02
   maximum displ.:     0.1287391 α      in ANC's #1, #78, #77, ...

........................................................................
.............................. CYCLE   31 ..............................
........................................................................

 iter      E             dE          RMSdq      gap      omega  full diag
   1   -398.7016956 -0.398702E+03  0.277E-01    0.08       0.0  T
   2   -398.6805724  0.211232E-01  0.421E-01    0.06       1.0  T
   3   -398.7046057 -0.240334E-01  0.209E-01    0.08       1.0  T
   4   -398.7078604 -0.325466E-02  0.105E-01    0.06       1.0  T
   5   -398.6578444  0.500159E-01  0.347E-01    0.10       1.0  T
   6   -398.7088611 -0.510166E-01  0.717E-02    0.09       1.0  T
   7   -398.7099452 -0.108414E-02  0.296E-02    0.07       1.0  T
   8   -398.7100823 -0.137069E-03  0.137E-02    0.07       1.0  T
   9   -398.7101034 -0.211036E-04  0.859E-03    0.07       1.0  T
  10   -398.7101227 -0.192969E-04  0.546E-03    0.08       1.2  T
  11   -398.7101278 -0.514114E-05  0.318E-03    0.07       2.0  T
  12   -398.7101291 -0.128887E-05  0.208E-03    0.07       3.1  T
  13   -398.7101292 -0.504197E-07  0.169E-03    0.07       3.8  T
  14   -398.7101293 -0.143277E-06  0.140E-03    0.07       4.6  T
  15   -398.7101295 -0.202028E-06  0.109E-03    0.07       5.9  T
  16   -398.7101297 -0.192693E-06  0.579E-04    0.07      11.1  T
  17   -398.7101298 -0.470562E-07  0.362E-04    0.07      17.7  T
     SCC iter.                  ...        0 min,  1.803 sec
     gradient                   ...        0 min,  0.629 sec
 * total energy  :  -391.4552004 Eh     change        0.4583660E+00 Eh
   gradient norm :     0.0341218 Eh/α   predicted    -0.1123695E-02 (-100.25%)
   displ. norm   :     0.3626542 α      lambda       -0.2110348E-02
   maximum displ.:     0.1599334 α      in ANC's #1, #78, #77, ...

........................................................................
.............................. CYCLE   32 ..............................
........................................................................

 iter      E             dE          RMSdq      gap      omega  full diag
   1   -398.5509367 -0.398551E+03  0.372E-01    0.04       0.0  T
   2   -398.5337075  0.172291E-01  0.422E-01    0.10       1.0  T
   3   -398.5197693  0.139382E-01  0.344E-01    0.06       1.0  T
   4   -398.5357160 -0.159467E-01  0.311E-01    0.10       1.0  T
   5   -398.5644073 -0.286913E-01  0.139E-01    0.07       1.0  T
   6   -398.5637044  0.702922E-03  0.116E-01    0.08       1.0  T
   7   -398.5666334 -0.292902E-02  0.636E-02    0.05       1.0  T
   8   -398.5676174 -0.983958E-03  0.279E-02    0.06       1.0  T
   9   -398.5677774 -0.160053E-03  0.152E-02    0.06       1.0  T
  10   -398.5677706  0.679616E-05  0.115E-02    0.06       1.0  T
  11   -398.5678117 -0.411146E-04  0.691E-03    0.06       1.0  T
  12   -398.5678247 -0.129405E-04  0.431E-03    0.06       1.5  T
  13   -398.5678266 -0.188523E-05  0.304E-03    0.06       2.1  T
  14   -398.5678262  0.330062E-06  0.278E-03    0.06       2.3  T
  15   -398.5678272 -0.934813E-06  0.175E-03    0.06       3.7  T
  16   -398.5678277 -0.530336E-06  0.101E-03    0.06       6.4  T
  17   -398.5678280 -0.281253E-06  0.356E-04    0.06      18.1  T
  18   -398.5678280 -0.823593E-08  0.209E-04    0.06      30.7  T
     SCC iter.                  ...        0 min,  1.899 sec
     gradient                   ...        0 min,  0.630 sec
 * total energy  :  -390.7194674 Eh     change        0.7357330E+00 Eh
   gradient norm :     0.0380155 Eh/α   predicted    -0.1193960E-02 (-100.16%)
   displ. norm   :     0.4839727 α      lambda       -0.2593307E-02
   maximum displ.:     0.2114599 α      in ANC's #1, #78, #77, ...

........................................................................
.............................. CYCLE   33 ..............................
........................................................................

 iter      E             dE          RMSdq      gap      omega  full diag
   1   -398.2488679 -0.398249E+03  0.719E-01    0.09       0.0  T
   2   -396.7720969  0.147677E+01  0.192E+00    0.01       1.0  T
   3   -398.3139142 -0.154182E+01  0.506E-01    0.05       1.0  T
   4   -398.1333589  0.180555E+00  0.763E-01    0.06       1.0  T
   5   -398.3004866 -0.167128E+00  0.458E-01    0.03       1.0  T
   6   -398.3448709 -0.443843E-01  0.353E-01    0.13       1.0  T
   7   -398.2831929  0.616780E-01  0.425E-01    0.11       1.0  T
   8   -398.3666271 -0.834342E-01  0.204E-01    0.05       1.0  T
   9   -398.3649954  0.163166E-02  0.177E-01    0.05       1.0  T
  10   -398.3726801 -0.768466E-02  0.130E-01    0.06       1.0  T
  11   -398.3734047 -0.724621E-03  0.104E-01    0.06       1.0  T
  12   -398.3768469 -0.344225E-02  0.431E-02    0.06       1.0  T
  13   -398.3772436 -0.396618E-03  0.173E-02    0.05       1.0  T
  14   -398.3773108 -0.672526E-04  0.105E-02    0.05       1.0  T
  15   -398.3773192 -0.837551E-05  0.757E-03    0.05       1.0  T
  16   -398.3773239 -0.470372E-05  0.558E-03    0.05       1.2  T
  17   -398.3773156  0.827116E-05  0.852E-03    0.05       1.0  T
  18   -398.3773261 -0.105217E-04  0.381E-03    0.05       1.7  T
  19   -398.3773296 -0.343427E-05  0.176E-03    0.05       3.7  T
  20   -398.3773299 -0.344023E-06  0.138E-03    0.05       4.7  T
  21   -398.3773302 -0.282559E-06  0.643E-04    0.05      10.0  T
  22   -398.3773303 -0.130879E-06  0.304E-04    0.05      21.1  T
     SCC iter.                  ...        0 min,  2.331 sec
     gradient                   ...        0 min,  0.641 sec
 * total energy  :  -389.4418271 Eh     change        0.1277640E+01 Eh
   gradient norm :     0.0352237 Eh/α   predicted    -0.1600387E-02 (-100.13%)
   displ. norm   :     0.4783215 α      lambda       -0.3286149E-02
   maximum displ.:     0.2112433 α      in ANC's #78, #1, #34, ...

........................................................................
.............................. CYCLE   34 ..............................
........................................................................

 iter      E             dE          RMSdq      gap      omega  full diag
   1   -398.1057760 -0.398106E+03  0.759E-01    0.09       0.0  T
   2   -397.7003532  0.405423E+00  0.130E+00    0.14       1.0  T
   3   -398.0045527 -0.304199E+00  0.732E-01    0.09       1.0  T
   4   -398.0659380 -0.613853E-01  0.580E-01    0.19       1.0  T
   5   -398.1427122 -0.767743E-01  0.332E-01    0.09       1.0  T
   6   -398.1363211  0.639110E-02  0.321E-01    0.09       1.0  T
   7   -398.1320768  0.424434E-02  0.345E-01    0.03       1.0  T
   8   -398.1739025 -0.418258E-01  0.209E-01    0.11       1.0  T
   9   -398.1823490 -0.844652E-02  0.752E-02    0.09       1.0  T
  10   -398.1818273  0.521775E-03  0.753E-02    0.08       1.0  T
  11   -398.1835810 -0.175378E-02  0.212E-02    0.08       1.0  T
  12   -398.1835230  0.580071E-04  0.210E-02    0.08       1.0  T
  13   -398.1836721 -0.149069E-03  0.103E-02    0.08       1.0  T
  14   -398.1836664  0.567926E-05  0.105E-02    0.08       1.0  T
  15   -398.1836959 -0.294368E-04  0.469E-03    0.08       1.4  T
  16   -398.1836958  0.785836E-07  0.444E-03    0.08       1.4  T
  17   -398.1836994 -0.360970E-05  0.229E-03    0.08       2.8  T
  18   -398.1836998 -0.366782E-06  0.175E-03    0.08       3.7  T
  19   -398.1837003 -0.567064E-06  0.909E-04    0.08       7.1  T
  20   -398.1837004 -0.655538E-07  0.663E-04    0.08       9.7  T
     SCC iter.                  ...        0 min,  2.136 sec
     gradient                   ...        0 min,  0.632 sec
 * total energy  :  -387.7096496 Eh     change        0.1732177E+01 Eh
   gradient norm :     0.0361286 Eh/α   predicted    -0.2019232E-02 (-100.12%)
   displ. norm   :     0.4609409 α      lambda       -0.3307538E-02
   maximum displ.:     0.2111088 α      in ANC's #78, #1, #34, ...

........................................................................
.............................. CYCLE   35 ..............................
........................................................................

 iter      E             dE          RMSdq      gap      omega  full diag
   1   -397.8424092 -0.397842E+03  0.684E-01    0.11       0.0  T
   2   -397.2303466  0.612063E+00  0.148E+00    0.16       1.0  T
   3   -397.8949211 -0.664574E+00  0.511E-01    0.10       1.0  T
   4   -397.9387382 -0.438171E-01  0.238E-01    0.03       1.0  T
   5   -397.8091066  0.129632E+00  0.526E-01    0.07       1.0  T
   6   -397.9284333 -0.119327E+00  0.234E-01    0.09       1.0  T
   7   -397.9514798 -0.230464E-01  0.705E-02    0.07       1.0  T
   8   -397.9500640  0.141580E-02  0.719E-02    0.07       1.0  T
   9   -397.9520648 -0.200080E-02  0.298E-02    0.06       1.0  T
  10   -397.9521690 -0.104291E-03  0.268E-02    0.07       1.0  T
  11   -397.9522155 -0.464236E-04  0.192E-02    0.07       1.0  T
  12   -397.9522737 -0.582255E-04  0.143E-02    0.07       1.0  T
  13   -397.9523420 -0.683561E-04  0.516E-03    0.07       1.2  T
  14   -397.9523429 -0.893844E-06  0.478E-03    0.06       1.3  T
  15   -397.9523430 -0.688718E-07  0.445E-03    0.06       1.4  T
  16   -397.9523503 -0.730979E-05  0.171E-03    0.06       3.7  T
  17   -397.9523506 -0.311732E-06  0.111E-03    0.06       5.8  T
  18   -397.9523508 -0.150741E-06  0.918E-04    0.06       7.0  T
  19   -397.9523509 -0.111183E-06  0.557E-04    0.06      11.6  T
     SCC iter.                  ...        0 min,  1.800 sec
     gradient                   ...        0 min,  0.558 sec
 * total energy  :  -385.4360110 Eh     change        0.2273639E+01 Eh
   gradient norm :     0.0444827 Eh/α   predicted    -0.2005131E-02 (-100.09%)
   displ. norm   :     0.2707625 α      lambda       -0.3537285E-02
   maximum displ.:     0.1300907 α      in ANC's #78, #13, #35, ...

........................................................................
.............................. CYCLE   36 ..............................
........................................................................

 iter      E             dE          RMSdq      gap      omega  full diag
   1   -397.6088018 -0.397609E+03  0.706E-01    0.03       0.0  T
   2   -396.6711682  0.937634E+00  0.158E+00    0.05       1.0  T
   3   -397.6752842 -0.100412E+01  0.725E-01    0.07       1.0  T
   4   -397.7739937 -0.987095E-01  0.354E-01    0.05       1.0  T
   5   -397.7021325  0.718612E-01  0.475E-01    0.06       1.0  T
   6   -397.7480882 -0.459557E-01  0.387E-01    0.05       1.0  T
   7   -397.7989962 -0.509081E-01  0.190E-01    0.09       1.0  T
   8   -397.7979590  0.103726E-02  0.155E-01    0.06       1.0  T
   9   -397.8085757 -0.106167E-01  0.753E-02    0.09       1.0  T
  10   -397.8096655 -0.108975E-02  0.416E-02    0.07       1.0  T
  11   -397.8099721 -0.306666E-03  0.282E-02    0.09       1.0  T
  12   -397.8100333 -0.611991E-04  0.221E-02    0.08       1.0  T
  13   -397.8101744 -0.141082E-03  0.123E-02    0.08       1.0  T
  14   -397.8102179 -0.435249E-04  0.574E-03    0.08       1.1  T
  15   -397.8102269 -0.896335E-05  0.249E-03    0.08       2.6  T
  16   -397.8102279 -0.100151E-05  0.168E-03    0.08       3.8  T
  17   -397.8102276  0.261733E-06  0.158E-03    0.08       4.1  T
  18   -397.8102282 -0.580933E-06  0.952E-04    0.08       6.8  T
  19   -397.8102282 -0.297825E-07  0.680E-04    0.08       9.4  T
     SCC iter.                  ...        0 min,  1.797 sec
     gradient                   ...        0 min,  0.557 sec
 * total energy  :  -383.8657794 Eh     change        0.1570232E+01 Eh
   gradient norm :     0.0517703 Eh/α   predicted    -0.1898318E-02 (-100.12%)
   displ. norm   :     0.6507304 α      lambda       -0.1269525E-01
   maximum displ.:     0.4155749 α      in ANC's #13, #35, #6, ...

........................................................................
.............................. CYCLE   37 ..............................
........................................................................

 iter      E             dE          RMSdq      gap      omega  full diag
   1   -397.6265573 -0.397627E+03  0.101E+00    0.35       0.0  T
   2   -396.9539474  0.672610E+00  0.158E+00    0.13       1.0  T
   3   -397.6886525 -0.734705E+00  0.820E-01    0.34       1.0  T
   4   -397.7397138 -0.510613E-01  0.482E-01    0.30       1.0  T
   5   -397.6272516  0.112462E+00  0.632E-01    0.08       1.0  T
   6   -397.7934759 -0.166224E+00  0.281E-01    0.26       1.0  T
   7   -397.7999113 -0.643535E-02  0.139E-01    0.24       1.0  T
   8   -397.7763991  0.235121E-01  0.284E-01    0.17       1.0  T
   9   -397.8032146 -0.268155E-01  0.813E-02    0.24       1.0  T
  10   -397.8047117 -0.149707E-02  0.742E-02    0.22       1.0  T
  11   -397.8061200 -0.140829E-02  0.340E-02    0.23       1.0  T
  12   -397.8058789  0.241149E-03  0.322E-02    0.23       1.0  T
  13   -397.8062905 -0.411659E-03  0.145E-02    0.23       1.0  T
  14   -397.8063293 -0.388245E-04  0.946E-03    0.23       1.0  T
  15   -397.8063383 -0.896705E-05  0.719E-03    0.23       1.0  T
  16   -397.8063436 -0.531852E-05  0.485E-03    0.23       1.3  T
  17   -397.8063454 -0.175131E-05  0.355E-03    0.23       1.8  T
  18   -397.8063472 -0.180797E-05  0.222E-03    0.23       2.9  T
  19   -397.8063478 -0.579174E-06  0.142E-03    0.23       4.5  T
  20   -397.8063480 -0.230891E-06  0.110E-03    0.23       5.9  T
  21   -397.8063482 -0.179673E-06  0.567E-04    0.23      11.3  T
  22   -397.8063482 -0.763521E-07  0.267E-04    0.23      24.1  T
     SCC iter.                  ...        0 min,  2.077 sec
     gradient                   ...        0 min,  0.560 sec
 * total energy  :  -381.9512819 Eh     change        0.1914498E+01 Eh
   gradient norm :     0.1297055 Eh/α   predicted    -0.9035555E-02 (-100.47%)
   displ. norm   :     0.2010840 α      lambda       -0.6116325E-02
   maximum displ.:     0.0920287 α      in ANC's #1, #77, #78, ...

........................................................................
.............................. CYCLE   38 ..............................
........................................................................

 iter      E             dE          RMSdq      gap      omega  full diag
   1   -397.7291476 -0.397729E+03  0.285E-01    0.30       0.0  T
   2   -397.6072802  0.121867E+00  0.690E-01    0.20       1.0  T
   3   -397.7290695 -0.121789E+00  0.236E-01    0.29       1.0  T
   4   -397.7393173 -0.102479E-01  0.124E-01    0.31       1.0  T
   5   -397.7273302  0.119872E-01  0.187E-01    0.21       1.0  T
   6   -397.7396999 -0.123697E-01  0.833E-02    0.32       1.0  T
   7   -397.7418081 -0.210820E-02  0.401E-02    0.28       1.0  T
   8   -397.7421987 -0.390607E-03  0.189E-02    0.29       1.0  T
   9   -397.7422400 -0.413002E-04  0.138E-02    0.30       1.0  T
  10   -397.7422464 -0.641481E-05  0.111E-02    0.29       1.0  T
  11   -397.7422941 -0.477014E-04  0.401E-03    0.29       1.6  T
  12   -397.7422949 -0.756382E-06  0.280E-03    0.29       2.3  T
  13   -397.7422964 -0.153520E-05  0.181E-03    0.29       3.6  T
  14   -397.7422973 -0.913960E-06  0.101E-03    0.29       6.4  T
  15   -397.7422971  0.251140E-06  0.111E-03    0.29       5.8  T
  16   -397.7422974 -0.373786E-06  0.534E-04    0.29      12.0  T
  17   -397.7422975 -0.494858E-07  0.287E-04    0.29      22.4  T
     SCC iter.                  ...        0 min,  1.588 sec
     gradient                   ...        0 min,  0.571 sec
 * total energy  :  -380.7176026 Eh     change        0.1233679E+01 Eh
   gradient norm :     0.0828174 Eh/α   predicted    -0.3181885E-02 (-100.26%)
   displ. norm   :     0.3553809 α      lambda       -0.9901343E-02
   maximum displ.:     0.1900211 α      in ANC's #78, #13, #35, ...

........................................................................
.............................. CYCLE   39 ..............................
........................................................................

 iter      E             dE          RMSdq      gap      omega  full diag
   1   -397.7128207 -0.397713E+03  0.374E-01    0.22       0.0  T
   2   -397.4935010  0.219320E+00  0.879E-01    0.13       1.0  T
   3   -397.7226183 -0.229117E+00  0.266E-01    0.22       1.0  T
   4   -397.7272976 -0.467929E-02  0.191E-01    0.19       1.0  T
   5   -397.7121431  0.151545E-01  0.289E-01    0.24       1.0  T
   6   -397.7221024 -0.995926E-02  0.161E-01    0.17       1.0  T
   7   -397.7245771 -0.247471E-02  0.151E-01    0.24       1.0  T
   8   -397.7355279 -0.109508E-01  0.295E-02    0.21       1.0  T
   9   -397.7355461 -0.182355E-04  0.228E-02    0.21       1.0  T
  10   -397.7357144 -0.168232E-03  0.102E-02    0.21       1.0  T
  11   -397.7357173 -0.291297E-05  0.822E-03    0.21       1.0  T
  12   -397.7357336 -0.162957E-04  0.413E-03    0.21       1.6  T
  13   -397.7357377 -0.413772E-05  0.222E-03    0.21       2.9  T
  14   -397.7357384 -0.715630E-06  0.155E-03    0.21       4.1  T
  15   -397.7357384  0.696085E-07  0.136E-03    0.21       4.7  T
  16   -397.7357384 -0.502509E-07  0.106E-03    0.21       6.0  T
  17   -397.7357388 -0.420713E-06  0.393E-04    0.21      16.3  T
  18   -397.7357389 -0.237506E-07  0.245E-04    0.21      26.3  T
     SCC iter.                  ...        0 min,  1.675 sec
     gradient                   ...        0 min,  0.568 sec
 * total energy  :  -378.2604351 Eh     change        0.2457168E+01 Eh
   gradient norm :     0.0498826 Eh/α   predicted    -0.5575980E-02 (-100.23%)
   displ. norm   :     0.4536072 α      lambda       -0.4124816E-02
   maximum displ.:     0.2353929 α      in ANC's #78, #13, #34, ...

........................................................................
.............................. CYCLE   40 ..............................
........................................................................

 iter      E             dE          RMSdq      gap      omega  full diag
   1   -397.6533301 -0.397653E+03  0.535E-01    0.13       0.0  T
   2   -397.1119013  0.541429E+00  0.130E+00    0.21       1.0  T
   3   -397.5979930 -0.486092E+00  0.561E-01    0.23       1.0  T
   4   -397.5935464  0.444662E-02  0.498E-01    0.11       1.0  T
   5   -397.6563229 -0.627765E-01  0.307E-01    0.17       1.0  T
   6   -397.6653087 -0.898574E-02  0.256E-01    0.11       1.0  T
   7   -397.6967343 -0.314256E-01  0.117E-01    0.15       1.0  T
   8   -397.6975944 -0.860167E-03  0.896E-02    0.14       1.0  T
   9   -397.7001690 -0.257454E-02  0.385E-02    0.15       1.0  T
  10   -397.6999427  0.226262E-03  0.416E-02    0.13       1.0  T
  11   -397.6999472 -0.449129E-05  0.388E-02    0.13       1.0  T
  12   -397.7004002 -0.453035E-03  0.236E-02    0.14       1.0  T
  13   -397.7005167 -0.116519E-03  0.149E-02    0.14       1.0  T
  14   -397.7005216 -0.480926E-05  0.141E-02    0.14       1.0  T
  15   -397.7005369 -0.153383E-04  0.122E-02    0.14       1.0  T
  16   -397.7005919 -0.549837E-04  0.746E-03    0.13       1.0  T
  17   -397.7006054 -0.135022E-04  0.517E-03    0.13       1.2  T
  18   -397.7006094 -0.399484E-05  0.385E-03    0.13       1.7  T
  19   -397.7006091  0.303937E-06  0.333E-03    0.13       1.9  T
  20   -397.7006111 -0.198553E-05  0.178E-03    0.13       3.6  T
  21   -397.7006111 -0.241131E-07  0.171E-03    0.13       3.8  T
  22   -397.7006119 -0.832043E-06  0.753E-04    0.13       8.5  T
  23   -397.7006119  0.106733E-07  0.555E-04    0.13      11.6  T
     SCC iter.                  ...        0 min,  2.155 sec
     gradient                   ...        0 min,  0.559 sec
 * total energy  :  -374.4306151 Eh     change        0.3829820E+01 Eh
   gradient norm :     0.0433230 Eh/α   predicted    -0.2486794E-02 (-100.06%)
   displ. norm   :     0.6092535 α      lambda       -0.6968527E-02
   maximum displ.:     0.3167486 α      in ANC's #78, #13, #35, ...

........................................................................
.............................. CYCLE   41 ..............................
........................................................................

 iter      E             dE          RMSdq      gap      omega  full diag
   1   -397.6299041 -0.397630E+03  0.756E-01    0.03       0.0  T
   2   -396.4547388  0.117517E+01  0.180E+00    0.15       1.0  T
   3   -397.5175162 -0.106278E+01  0.837E-01    0.18       1.0  T
   4   -397.4938359  0.236803E-01  0.828E-01    0.07       1.0  T
   5   -397.6273394 -0.133503E+00  0.419E-01    0.20       1.0  T
   6   -397.5248039  0.102535E+00  0.619E-01    0.11       1.0  T
   7   -397.7130506 -0.188247E+00  0.231E-01    0.11       1.0  T
   8   -397.7225912 -0.954059E-02  0.149E-01    0.11       1.0  T
   9   -397.7257438 -0.315260E-02  0.986E-02    0.12       1.0  T
  10   -397.7266985 -0.954646E-03  0.615E-02    0.12       1.0  T
  11   -397.7276075 -0.909070E-03  0.420E-02    0.11       1.0  T
  12   -397.7277840 -0.176464E-03  0.349E-02    0.11       1.0  T
  13   -397.7280716 -0.287624E-03  0.156E-02    0.11       1.0  T
  14   -397.7281078 -0.361838E-04  0.974E-03    0.11       1.0  T
  15   -397.7280835  0.243386E-04  0.112E-02    0.11       1.0  T
  16   -397.7281222 -0.387137E-04  0.463E-03    0.11       1.4  T
  17   -397.7281260 -0.380591E-05  0.258E-03    0.11       2.5  T
  18   -397.7281262 -0.191291E-06  0.181E-03    0.11       3.6  T
  19   -397.7281269 -0.738514E-06  0.138E-03    0.11       4.6  T
  20   -397.7281271 -0.146559E-06  0.911E-04    0.11       7.1  T
  21   -397.7281271 -0.568819E-07  0.764E-04    0.11       8.4  T
     SCC iter.                  ...        0 min,  1.982 sec
     gradient                   ...        0 min,  0.554 sec
 * total energy  :  -368.4588680 Eh     change        0.5971747E+01 Eh
   gradient norm :     0.0488474 Eh/α   predicted    -0.4777625E-02 (-100.08%)
   displ. norm   :     0.5006517 α      lambda       -0.3787248E-02
   maximum displ.:     0.2374474 α      in ANC's #78, #1, #34, ...

........................................................................
.............................. CYCLE   42 ..............................
........................................................................

 iter      E             dE          RMSdq      gap      omega  full diag
   1   -397.5370753 -0.397537E+03  0.918E-01    0.12       0.0  T
   2   -395.9971851  0.153989E+01  0.203E+00    0.12       1.0  T
   3   -397.4369803 -0.143980E+01  0.902E-01    0.13       1.0  T
   4   -397.3588314  0.781489E-01  0.957E-01    0.12       1.0  T
   5   -397.6111614 -0.252330E+00  0.490E-01    0.14       1.0  T
   6   -397.6353205 -0.241591E-01  0.399E-01    0.10       1.0  T
   7   -397.6791669 -0.438464E-01  0.278E-01    0.14       1.0  T
   8   -397.6995074 -0.203405E-01  0.130E-01    0.10       1.0  T
   9   -397.7019755 -0.246808E-02  0.126E-01    0.09       1.0  T
  10   -397.7061645 -0.418906E-02  0.618E-02    0.11       1.0  T
  11   -397.7052516  0.912950E-03  0.915E-02    0.09       1.0  T
  12   -397.7071479 -0.189634E-02  0.399E-02    0.09       1.0  T
  13   -397.7075815 -0.433592E-03  0.222E-02    0.10       1.0  T
  14   -397.7077147 -0.133202E-03  0.952E-03    0.10       1.0  T
  15   -397.7077198 -0.501911E-05  0.934E-03    0.10       1.0  T
  16   -397.7077409 -0.211857E-04  0.441E-03    0.10       1.5  T
  17   -397.7077434 -0.246329E-05  0.323E-03    0.10       2.0  T
  18   -397.7077458 -0.241536E-05  0.216E-03    0.10       3.0  T
  19   -397.7077464 -0.546875E-06  0.149E-03    0.10       4.3  T
  20   -397.7077467 -0.283387E-06  0.122E-03    0.10       5.3  T
  21   -397.7077470 -0.334616E-06  0.596E-04    0.10      10.8  T
  22   -397.7077471 -0.786040E-07  0.392E-04    0.10      16.4  T
     SCC iter.                  ...        0 min,  2.114 sec
     gradient                   ...        0 min,  0.548 sec
 * total energy  :  -351.8211970 Eh     change        0.1663767E+02 Eh
   gradient norm :     0.0381720 Eh/α   predicted    -0.2368354E-02 (-100.01%)
   displ. norm   :     0.8219886 α      lambda       -0.7620595E-02
   maximum displ.:     0.4006439 α      in ANC's #78, #13, #34, ...
 * RMSD in coord.:     0.4058056 α      energy gain   0.4110250E+02 Eh

generating ANC from exact Hessian ...
Using Lindh-Hessian (1995)
 Shifting diagonal of input Hessian by    5.1583567501893546     
 Lowest  eigenvalues of input Hessian
    0.010000    5.155799    5.158321    5.158334    0.000000    0.000000
    0.000000    0.000000    0.000000    0.000000    5.158365    5.158377
    5.158390    5.158403    5.158412    5.158424    5.158438    5.158468
 Highest eigenvalues
   14.658607   15.906980   16.822039   40.974492   81.330747  154.209256


........................................................................
.............................. CYCLE   43 ..............................
........................................................................

 iter      E             dE          RMSdq      gap      omega  full diag
   1   -396.9577788 -0.396958E+03  0.168E+00    0.03       0.0  T
   2   -395.0478878  0.190989E+01  0.248E+00    0.01       1.0  T
   3   -396.9712981 -0.192341E+01  0.173E+00    0.26       1.0  T
   4   -396.8110746  0.160223E+00  0.145E+00    0.12       1.0  T
   5   -396.7768090  0.342656E-01  0.158E+00    0.13       1.0  T
   6   -397.4717815 -0.694972E+00  0.983E-01    0.12       1.0  T
   7   -397.5851248 -0.113343E+00  0.681E-01    0.11       1.0  T
   8   -397.5070624  0.780624E-01  0.671E-01    0.05       1.0  T
   9   -397.6898294 -0.182767E+00  0.401E-01    0.08       1.0  T
  10   -397.7024287 -0.125993E-01  0.346E-01    0.06       1.0  T
  11   -397.7381082 -0.356795E-01  0.152E-01    0.07       1.0  T
  12   -397.7407641 -0.265584E-02  0.130E-01    0.07       1.0  T
  13   -397.7409307 -0.166652E-03  0.144E-01    0.07       1.0  T
  14   -397.7432448 -0.231408E-02  0.103E-01    0.07       1.0  T
  15   -397.7447956 -0.155082E-02  0.715E-02    0.07       1.0  T
  16   -397.7461233 -0.132764E-02  0.225E-02    0.07       1.0  T
  17   -397.7460792  0.440364E-04  0.220E-02    0.07       1.0  T
  18   -397.7462123 -0.133091E-03  0.867E-03    0.07       1.0  T
  19   -397.7461026  0.109728E-03  0.199E-02    0.07       1.0  T
  20   -397.7462207 -0.118153E-03  0.458E-03    0.07       1.4  T
  21   -397.7462263 -0.560806E-05  0.311E-03    0.07       2.1  T
  22   -397.7462066  0.197444E-04  0.915E-03    0.07       1.0  T
  23   -397.7462168 -0.101734E-04  0.563E-03    0.07       1.1  T
  24   -397.7462205 -0.372867E-05  0.596E-03    0.07       1.1  T
  25   -397.7462268 -0.628199E-05  0.294E-03    0.07       2.2  T
  26   -397.7462287 -0.194092E-05  0.612E-04    0.07      10.5  T
  27   -397.7462289 -0.133193E-06  0.300E-04    0.07      21.4  T
  28   -397.7462289  0.879140E-08  0.355E-04    0.07      18.1  T
     SCC iter.                  ...        0 min,  2.641 sec
     gradient                   ...        0 min,  0.565 sec
 * total energy  :  -329.4383053 Eh     change        0.2238289E+02 Eh
   gradient norm :     0.0952325 Eh/α   predicted     0.0000000E+00 (-100.00%)
   displ. norm   :     0.0190396 α      lambda        0.2696314E-01
   maximum displ.:     0.0091823 α      in ANC's #36, #71, #37, ...

........................................................................
.............................. CYCLE   44 ..............................
........................................................................

 iter      E             dE          RMSdq      gap      omega  full diag
   1   -397.7482839 -0.397748E+03  0.188E-02    0.07       0.0  T
   2   -397.7379624  0.103216E-01  0.167E-01    0.08       1.0  T
   3   -397.7475142 -0.955186E-02  0.510E-02    0.07       1.0  T
   4   -397.7461598  0.135442E-02  0.661E-02    0.07       1.0  T
   5   -397.7482482 -0.208839E-02  0.162E-02    0.07       1.0  T
   6   -397.7482774 -0.291947E-04  0.116E-02    0.07       1.0  T
   7   -397.7482898 -0.124477E-04  0.117E-02    0.07       1.0  T
   8   -397.7483182 -0.283258E-04  0.831E-03    0.07       1.0  T
   9   -397.7483400 -0.218116E-04  0.382E-03    0.07       1.7  T
  10   -397.7483437 -0.368480E-05  0.149E-03    0.07       4.3  T
  11   -397.7483443 -0.618478E-06  0.770E-04    0.07       8.3  T
  12   -397.7483444 -0.769337E-07  0.600E-04    0.07      10.7  T
     SCC iter.                  ...        0 min,  1.143 sec
     gradient                   ...        0 min,  0.570 sec
 * total energy  :  -329.4356366 Eh     change        0.2668665E-02 Eh
   gradient norm :     0.0798966 Eh/α   predicted    -0.9069225E-03 (-133.98%)
   displ. norm   :     0.0999529 α      lambda       -0.7985730E-02
   maximum displ.:     0.0464299 α      in ANC's #36, #71, #37, ...

........................................................................
.............................. CYCLE   45 ..............................
........................................................................

 iter      E             dE          RMSdq      gap      omega  full diag
   1   -397.7587042 -0.397759E+03  0.925E-02    0.07       0.0  T
   2   -397.5926234  0.166081E+00  0.680E-01    0.10       1.0  T
   3   -397.7439923 -0.151369E+00  0.221E-01    0.07       1.0  T
   4   -397.7301099  0.138824E-01  0.257E-01    0.08       1.0  T
   5   -397.7559547 -0.258448E-01  0.107E-01    0.07       1.0  T
   6   -397.7558607  0.940539E-04  0.954E-02    0.07       1.0  T
   7   -397.7584901 -0.262946E-02  0.600E-02    0.07       1.0  T
   8   -397.7584583  0.318651E-04  0.699E-02    0.07       1.0  T
   9   -397.7598424 -0.138415E-02  0.259E-02    0.07       1.0  T
  10   -397.7600020 -0.159620E-03  0.965E-03    0.07       1.0  T
  11   -397.7600141 -0.120869E-04  0.608E-03    0.07       1.1  T
  12   -397.7600195 -0.536085E-05  0.437E-03    0.07       1.5  T
  13   -397.7600219 -0.246099E-05  0.329E-03    0.07       2.0  T
  14   -397.7600245 -0.258160E-05  0.174E-03    0.07       3.7  T
  15   -397.7600250 -0.470829E-06  0.923E-04    0.07       7.0  T
  16   -397.7600251 -0.149675E-06  0.611E-04    0.07      10.5  T
     SCC iter.                  ...        0 min,  1.502 sec
     gradient                   ...        0 min,  0.573 sec
 * total energy  :  -329.4219068 Eh     change        0.1372979E-01 Eh
   gradient norm :     0.0402265 Eh/α   predicted    -0.4032856E-02 (-129.37%)
   displ. norm   :     0.0209050 α      lambda       -0.5251510E-03
   maximum displ.:     0.0089655 α      in ANC's #71, #39, #27, ...

........................................................................
.............................. CYCLE   46 ..............................
........................................................................

 iter      E             dE          RMSdq      gap      omega  full diag
   1   -397.7626542 -0.397763E+03  0.164E-02    0.07       0.0  T
   2   -397.7613856  0.126861E-02  0.630E-02    0.07       1.0  T
   3   -397.7613344  0.511271E-04  0.661E-02    0.07       1.0  T
   4   -397.7623814 -0.104692E-02  0.289E-02    0.07       1.0  T
   5   -397.7624749 -0.935748E-04  0.201E-02    0.07       1.0  T
   6   -397.7621933  0.281639E-03  0.301E-02    0.07       1.0  T
   7   -397.7625424 -0.349065E-03  0.162E-02    0.07       1.0  T
   8   -397.7626699 -0.127562E-03  0.600E-03    0.07       1.1  T
   9   -397.7626831 -0.131821E-04  0.247E-03    0.07       2.6  T
  10   -397.7626840 -0.838625E-06  0.173E-03    0.07       3.7  T
  11   -397.7626848 -0.865081E-06  0.818E-04    0.07       7.9  T
  12   -397.7626850 -0.165919E-06  0.579E-04    0.07      11.1  T
     SCC iter.                  ...        0 min,  1.150 sec
     gradient                   ...        0 min,  0.575 sec
 * total energy  :  -329.4199841 Eh     change        0.1922698E-02 Eh
   gradient norm :     0.0434645 Eh/α   predicted    -0.2627348E-03 (-113.66%)
   displ. norm   :     0.0805821 α      lambda       -0.2210654E-02
   maximum displ.:     0.0381114 α      in ANC's #68, #27, #71, ...

........................................................................
.............................. CYCLE   47 ..............................
........................................................................

 iter      E             dE          RMSdq      gap      omega  full diag
   1   -397.7716837 -0.397772E+03  0.753E-02    0.08       0.0  T
   2   -397.6656256  0.106058E+00  0.534E-01    0.08       1.0  T
   3   -397.7521171 -0.864916E-01  0.253E-01    0.08       1.0  T
   4   -397.7619274 -0.981031E-02  0.140E-01    0.07       1.0  T
   5   -397.7616627  0.264699E-03  0.149E-01    0.07       1.0  T
   6   -397.7715727 -0.990993E-02  0.543E-02    0.07       1.0  T
   7   -397.7714973  0.754063E-04  0.487E-02    0.07       1.0  T
   8   -397.7724123 -0.915065E-03  0.328E-02    0.07       1.0  T
   9   -397.7723960  0.163255E-04  0.329E-02    0.07       1.0  T
  10   -397.7725840 -0.187974E-03  0.217E-02    0.07       1.0  T
  11   -397.7727299 -0.145933E-03  0.643E-03    0.07       1.0  T
  12   -397.7727352 -0.528816E-05  0.440E-03    0.07       1.5  T
  13   -397.7727408 -0.561215E-05  0.276E-03    0.07       2.3  T
  14   -397.7727432 -0.240927E-05  0.942E-04    0.07       6.8  T
  15   -397.7727433 -0.976635E-07  0.593E-04    0.07      10.8  T
  16   -397.7727434 -0.111398E-06  0.293E-04    0.07      21.9  T
     SCC iter.                  ...        0 min,  1.489 sec
     gradient                   ...        0 min,  0.570 sec
 * total energy  :  -329.4298417 Eh     change       -0.9857594E-02 Eh
   gradient norm :     0.0572643 Eh/α   predicted    -0.1113063E-02 ( -88.71%)
   displ. norm   :     0.1266173 α      lambda       -0.3167094E-02
   maximum displ.:     0.0708094 α      in ANC's #68, #27, #33, ...

........................................................................
.............................. CYCLE   48 ..............................
........................................................................

 iter      E             dE          RMSdq      gap      omega  full diag
   1   -397.7840267 -0.397784E+03  0.135E-01    0.08       0.0  T
   2   -397.3765390  0.407488E+00  0.998E-01    0.06       1.0  T
   3   -397.7314790 -0.354940E+00  0.404E-01    0.09       1.0  T
   4   -397.7526864 -0.212074E-01  0.253E-01    0.07       1.0  T
   5   -397.7678388 -0.151524E-01  0.207E-01    0.08       1.0  T
   6   -397.7851658 -0.173270E-01  0.874E-02    0.07       1.0  T
   7   -397.7848755  0.290328E-03  0.781E-02    0.08       1.0  T
   8   -397.7868537 -0.197817E-02  0.594E-02    0.07       1.0  T
   9   -397.7866938  0.159808E-03  0.587E-02    0.07       1.0  T
  10   -397.7871467 -0.452863E-03  0.447E-02    0.07       1.0  T
  11   -397.7877467 -0.599996E-03  0.162E-02    0.07       1.0  T
  12   -397.7877635 -0.168118E-04  0.126E-02    0.07       1.0  T
  13   -397.7878169 -0.533744E-04  0.617E-03    0.07       1.0  T
  14   -397.7878268 -0.990091E-05  0.230E-03    0.07       2.8  T
  15   -397.7878275 -0.744510E-06  0.159E-03    0.07       4.0  T
  16   -397.7878280 -0.497322E-06  0.108E-03    0.07       5.9  T
  17   -397.7878283 -0.283923E-06  0.549E-04    0.07      11.7  T
  18   -397.7878284 -0.547233E-07  0.342E-04    0.07      18.8  T
     SCC iter.                  ...        0 min,  1.709 sec
     gradient                   ...        0 min,  0.571 sec
 * total energy  :  -329.5106101 Eh     change       -0.8076837E-01 Eh
   gradient norm :     0.0721932 Eh/α   predicted    -0.1609299E-02 ( -98.01%)
   displ. norm   :     0.2013372 α      lambda       -0.5064407E-02
   maximum displ.:     0.1203606 α      in ANC's #68, #27, #33, ...

........................................................................
.............................. CYCLE   49 ..............................
........................................................................

 iter      E             dE          RMSdq      gap      omega  full diag
   1   -397.8048607 -0.397805E+03  0.195E-01    0.07       0.0  T
   2   -397.5315382  0.273322E+00  0.866E-01    0.10       1.0  T
   3   -397.6609051 -0.129367E+00  0.718E-01    0.13       1.0  T
   4   -397.7928312 -0.131926E+00  0.206E-01    0.08       1.0  T
   5   -397.6819553  0.110876E+00  0.474E-01    0.06       1.0  T
   6   -397.7960734 -0.114118E+00  0.209E-01    0.10       1.0  T
   7   -397.7881501  0.792328E-02  0.227E-01    0.07       1.0  T
   8   -397.8056476 -0.174975E-01  0.111E-01    0.08       1.0  T
   9   -397.8088979 -0.325030E-02  0.648E-02    0.07       1.0  T
  10   -397.8091662 -0.268290E-03  0.645E-02    0.07       1.0  T
  11   -397.8090811  0.851021E-04  0.662E-02    0.07       1.0  T
  12   -397.8092777 -0.196590E-03  0.569E-02    0.07       1.0  T
  13   -397.8101448 -0.867069E-03  0.197E-02    0.07       1.0  T
  14   -397.8102289 -0.841352E-04  0.134E-02    0.07       1.0  T
  15   -397.8102442 -0.153124E-04  0.761E-03    0.07       1.0  T
  16   -397.8102524 -0.820906E-05  0.242E-03    0.07       2.7  T
  17   -397.8102521  0.329305E-06  0.254E-03    0.07       2.5  T
  18   -397.8102534 -0.127711E-05  0.920E-04    0.07       7.0  T
  19   -397.8102535 -0.133226E-06  0.541E-04    0.07      11.9  T
  20   -397.8102535 -0.149743E-08  0.501E-04    0.07      12.8  T
     SCC iter.                  ...        0 min,  1.875 sec
     gradient                   ...        0 min,  0.562 sec
 * total energy  :  -329.8004358 Eh     change       -0.2898257E+00 Eh
   gradient norm :     0.0856421 Eh/α   predicted    -0.2634849E-02 ( -99.09%)
   displ. norm   :     0.1973857 α      lambda       -0.5445062E-02
   maximum displ.:     0.1193410 α      in ANC's #68, #27, #33, ...

........................................................................
.............................. CYCLE   50 ..............................
........................................................................

 iter      E             dE          RMSdq      gap      omega  full diag
   1   -397.8107896 -0.397811E+03  0.250E-01    0.05       0.0  T
   2   -397.3084928  0.502297E+00  0.119E+00    0.16       1.0  T
   3   -397.6925862 -0.384093E+00  0.532E-01    0.02       1.0  T
   4   -397.7702301 -0.776438E-01  0.414E-01    0.11       1.0  T
   5   -397.8126870 -0.424569E-01  0.213E-01    0.05       1.0  T
   6   -397.8189660 -0.627906E-02  0.175E-01    0.07       1.0  T
   7   -397.8253196 -0.635361E-02  0.118E-01    0.05       1.0  T
   8   -397.8284528 -0.313312E-02  0.703E-02    0.05       1.0  T
   9   -397.8294264 -0.973592E-03  0.583E-02    0.05       1.0  T
  10   -397.8300995 -0.673190E-03  0.336E-02    0.05       1.0  T
  11   -397.8303245 -0.224927E-03  0.210E-02    0.05       1.0  T
  12   -397.8304044 -0.799739E-04  0.153E-02    0.06       1.0  T
  13   -397.8304254 -0.209415E-04  0.124E-02    0.06       1.0  T
  14   -397.8304584 -0.329949E-04  0.753E-03    0.05       1.0  T
  15   -397.8304774 -0.190517E-04  0.392E-03    0.06       1.6  T
  16   -397.8304805 -0.311331E-05  0.310E-03    0.06       2.1  T
  17   -397.8304808 -0.223769E-06  0.307E-03    0.06       2.1  T
  18   -397.8304835 -0.277780E-05  0.658E-04    0.06       9.8  T
  19   -397.8304836 -0.666721E-07  0.540E-04    0.06      11.9  T
  20   -397.8304837 -0.572334E-07  0.266E-04    0.06      24.1  T
     SCC iter.                  ...        0 min,  1.874 sec
     gradient                   ...        0 min,  0.572 sec
 * total energy  :  -330.2399374 Eh     change       -0.4395016E+00 Eh
   gradient norm :     0.0846721 Eh/α   predicted    -0.2828597E-02 ( -99.36%)
   displ. norm   :     0.1366003 α      lambda       -0.4882530E-02
   maximum displ.:     0.0782633 α      in ANC's #27, #68, #33, ...

........................................................................
.............................. CYCLE   51 ..............................
........................................................................

 iter      E             dE          RMSdq      gap      omega  full diag
   1   -397.8204526 -0.397820E+03  0.235E-01    0.04       0.0  T
   2   -397.2029530  0.617500E+00  0.132E+00    0.15       1.0  T
   3   -397.7534073 -0.550454E+00  0.416E-01    0.06       1.0  T
   4   -397.8015411 -0.481338E-01  0.354E-01    0.10       1.0  T
   5   -397.8124456 -0.109045E-01  0.259E-01    0.03       1.0  T
   6   -397.8356713 -0.232258E-01  0.134E-01    0.06       1.0  T
   7   -397.8399549 -0.428359E-02  0.885E-02    0.05       1.0  T
   8   -397.8422257 -0.227076E-02  0.497E-02    0.04       1.0  T
   9   -397.8424828 -0.257097E-03  0.422E-02    0.04       1.0  T
  10   -397.8428156 -0.332845E-03  0.278E-02    0.05       1.0  T
  11   -397.8429484 -0.132739E-03  0.177E-02    0.05       1.0  T
  12   -397.8430265 -0.781715E-04  0.837E-03    0.05       1.0  T
  13   -397.8430518 -0.252723E-04  0.431E-03    0.05       1.5  T
  14   -397.8430522 -0.413281E-06  0.330E-03    0.05       1.9  T
  15   -397.8430557 -0.346712E-05  0.127E-03    0.05       5.1  T
  16   -397.8430555  0.217827E-06  0.141E-03    0.05       4.6  T
  17   -397.8430560 -0.526743E-06  0.456E-04    0.05      14.1  T
  18   -397.8430560 -0.240041E-07  0.411E-04    0.05      15.6  T
     SCC iter.                  ...        0 min,  1.725 sec
     gradient                   ...        0 min,  0.561 sec
 * total energy  :  -330.5773321 Eh     change       -0.3373947E+00 Eh
   gradient norm :     0.0714257 Eh/α   predicted    -0.2486876E-02 ( -99.26%)
   displ. norm   :     0.0427850 α      lambda       -0.2099333E-02
   maximum displ.:     0.0220320 α      in ANC's #36, #37, #71, ...

........................................................................
.............................. CYCLE   52 ..............................
........................................................................

 iter      E             dE          RMSdq      gap      omega  full diag
   1   -397.8453235 -0.397845E+03  0.469E-02    0.05       0.0  T
   2   -397.7871384  0.581851E-01  0.406E-01    0.10       1.0  T
   3   -397.8409749 -0.538365E-01  0.115E-01    0.04       1.0  T
   4   -397.8400589  0.915993E-03  0.110E-01    0.06       1.0  T
   5   -397.8419351 -0.187627E-02  0.923E-02    0.04       1.0  T
   6   -397.8454847 -0.354956E-02  0.299E-02    0.05       1.0  T
   7   -397.8454977 -0.130464E-04  0.304E-02    0.05       1.0  T
   8   -397.8457639 -0.266132E-03  0.130E-02    0.05       1.0  T
   9   -397.8457699 -0.599871E-05  0.120E-02    0.05       1.0  T
  10   -397.8458116 -0.417140E-04  0.430E-03    0.05       1.5  T
  11   -397.8458123 -0.679573E-06  0.389E-03    0.05       1.7  T
  12   -397.8458152 -0.295314E-05  0.225E-03    0.05       2.9  T
  13   -397.8458166 -0.137511E-05  0.689E-04    0.05       9.3  T
  14   -397.8458166 -0.263165E-07  0.506E-04    0.05      12.7  T
  15   -397.8458167 -0.526032E-07  0.373E-04    0.05      17.3  T
     SCC iter.                  ...        0 min,  1.379 sec
     gradient                   ...        0 min,  0.554 sec
 * total energy  :  -330.5831643 Eh     change       -0.5832200E-02 Eh
   gradient norm :     0.0587646 Eh/α   predicted    -0.1051639E-02 ( -81.97%)
   displ. norm   :     0.0412196 α      lambda       -0.1856966E-02
   maximum displ.:     0.0254985 α      in ANC's #68, #27, #36, ...

........................................................................
.............................. CYCLE   53 ..............................
........................................................................

 iter      E             dE          RMSdq      gap      omega  full diag
   1   -397.8505740 -0.397851E+03  0.429E-02    0.05       0.0  T
   2   -397.8493386  0.123544E-02  0.633E-02    0.05       1.0  T
   3   -397.8341998  0.151387E-01  0.204E-01    0.03       1.0  T
   4   -397.8482371 -0.140372E-01  0.885E-02    0.06       1.0  T
   5   -397.8476680  0.569070E-03  0.821E-02    0.05       1.0  T
   6   -397.8500442 -0.237617E-02  0.466E-02    0.05       1.0  T
   7   -397.8506551 -0.610959E-03  0.215E-02    0.05       1.0  T
   8   -397.8507512 -0.960652E-04  0.115E-02    0.05       1.0  T
   9   -397.8507661 -0.148871E-04  0.948E-03    0.05       1.0  T
  10   -397.8508062 -0.401597E-04  0.388E-03    0.05       1.7  T
  11   -397.8508018  0.441588E-05  0.512E-03    0.05       1.3  T
  12   -397.8508056 -0.376215E-05  0.399E-03    0.05       1.6  T
  13   -397.8508078 -0.225953E-05  0.254E-03    0.05       2.5  T
  14   -397.8508100 -0.220881E-05  0.437E-04    0.05      14.7  T
  15   -397.8508101 -0.533784E-07  0.238E-04    0.05      27.0  T
  16   -397.8508101  0.244443E-07  0.354E-04    0.05      18.2  T
     SCC iter.                  ...        0 min,  1.458 sec
     gradient                   ...        0 min,  0.554 sec
 * total energy  :  -330.5791840 Eh     change        0.3980299E-02 Eh
   gradient norm :     0.0453363 Eh/α   predicted    -0.9301036E-03 (-123.37%)
   displ. norm   :     0.0678956 α      lambda       -0.1793929E-02
   maximum displ.:     0.0502824 α      in ANC's #27, #33, #39, ...

........................................................................
.............................. CYCLE   54 ..............................
........................................................................

 iter      E             dE          RMSdq      gap      omega  full diag
   1   -397.8603972 -0.397860E+03  0.891E-02    0.05       0.0  T
   2   -397.6520998  0.208297E+00  0.781E-01    0.15       1.0  T
   3   -397.8432674 -0.191168E+00  0.195E-01    0.04       1.0  T
   4   -397.8488431 -0.557576E-02  0.194E-01    0.08       1.0  T
   5   -397.8554459 -0.660274E-02  0.131E-01    0.04       1.0  T
   6   -397.8618981 -0.645219E-02  0.565E-02    0.05       1.0  T
   7   -397.8614916  0.406490E-03  0.678E-02    0.04       1.0  T
   8   -397.8627118 -0.122023E-02  0.334E-02    0.05       1.0  T
   9   -397.8629472 -0.235385E-03  0.193E-02    0.05       1.0  T
  10   -397.8630334 -0.862069E-04  0.915E-03    0.05       1.0  T
  11   -397.8630553 -0.218920E-04  0.643E-03    0.05       1.0  T
  12   -397.8630681 -0.127934E-04  0.187E-03    0.05       3.4  T
  13   -397.8630683 -0.156947E-06  0.148E-03    0.05       4.3  T
  14   -397.8630688 -0.508205E-06  0.719E-04    0.05       8.9  T
  15   -397.8630688 -0.204812E-07  0.530E-04    0.05      12.1  T
     SCC iter.                  ...        0 min,  1.403 sec
     gradient                   ...        0 min,  0.574 sec
 * total energy  :  -330.7365959 Eh     change       -0.1574118E+00 Eh
   gradient norm :     0.0386921 Eh/α   predicted    -0.9020798E-03 ( -99.43%)
   displ. norm   :     0.1381404 α      lambda       -0.1905695E-02
   maximum displ.:     0.0979416 α      in ANC's #27, #33, #39, ...

........................................................................
.............................. CYCLE   55 ..............................
........................................................................

 iter      E             dE          RMSdq      gap      omega  full diag
   1   -397.8653967 -0.397865E+03  0.198E-01    0.04       0.0  T
   2   -397.3091105  0.556286E+00  0.125E+00    0.16       1.0  T
   3   -397.7948995 -0.485789E+00  0.407E-01    0.07       1.0  T
   4   -397.8433939 -0.484943E-01  0.352E-01    0.10       1.0  T
   5   -397.8456208 -0.222694E-02  0.267E-01    0.03       1.0  T
   6   -397.8751901 -0.295693E-01  0.124E-01    0.06       1.0  T
   7   -397.8792892 -0.409906E-02  0.726E-02    0.05       1.0  T
   8   -397.8808490 -0.155980E-02  0.544E-02    0.04       1.0  T
   9   -397.8811531 -0.304136E-03  0.436E-02    0.04       1.0  T
  10   -397.8815617 -0.408570E-03  0.273E-02    0.04       1.0  T
  11   -397.8813734  0.188313E-03  0.333E-02    0.04       1.0  T
  12   -397.8817349 -0.361456E-03  0.800E-03    0.05       1.0  T
  13   -397.8817473 -0.124794E-04  0.525E-03    0.05       1.2  T
  14   -397.8817502 -0.281137E-05  0.442E-03    0.05       1.5  T
  15   -397.8817539 -0.374885E-05  0.233E-03    0.05       2.8  T
  16   -397.8817549 -0.999065E-06  0.978E-04    0.05       6.6  T
  17   -397.8817551 -0.210772E-06  0.587E-04    0.05      11.0  T
     SCC iter.                  ...        0 min,  1.567 sec
     gradient                   ...        0 min,  0.561 sec
 * total energy  :  -331.1436289 Eh     change       -0.4070331E+00 Eh
   gradient norm :     0.0464683 Eh/α   predicted    -0.9711632E-03 ( -99.76%)
   displ. norm   :     0.1273566 α      lambda       -0.1270732E-02
   maximum displ.:     0.0866833 α      in ANC's #27, #68, #33, ...

........................................................................
.............................. CYCLE   56 ..............................
........................................................................

 iter      E             dE          RMSdq      gap      omega  full diag
   1   -397.8771753 -0.397877E+03  0.190E-01    0.04       0.0  T
   2   -397.2980084  0.579167E+00  0.126E+00    0.16       1.0  T
   3   -397.8060872 -0.508079E+00  0.403E-01    0.07       1.0  T
   4   -397.8556505 -0.495633E-01  0.347E-01    0.09       1.0  T
   5   -397.8701224 -0.144719E-01  0.209E-01    0.03       1.0  T
   6   -397.8857663 -0.156439E-01  0.128E-01    0.05       1.0  T
   7   -397.8909403 -0.517397E-02  0.659E-02    0.04       1.0  T
   8   -397.8922255 -0.128524E-02  0.447E-02    0.04       1.0  T
   9   -397.8922941 -0.685740E-04  0.430E-02    0.04       1.0  T
  10   -397.8927767 -0.482551E-03  0.208E-02    0.04       1.0  T
  11   -397.8926712  0.105449E-03  0.251E-02    0.04       1.0  T
  12   -397.8928714 -0.200205E-03  0.634E-03    0.04       1.0  T
  13   -397.8928783 -0.688658E-05  0.406E-03    0.04       1.6  T
  14   -397.8928808 -0.250201E-05  0.358E-03    0.04       1.8  T
  15   -397.8928829 -0.210145E-05  0.206E-03    0.04       3.1  T
  16   -397.8928839 -0.966572E-06  0.103E-03    0.04       6.3  T
  17   -397.8928841 -0.214324E-06  0.582E-04    0.04      11.0  T
  18   -397.8928842 -0.889236E-07  0.242E-04    0.04      26.6  T
     SCC iter.                  ...        0 min,  1.868 sec
     gradient                   ...        0 min,  0.565 sec
 * total energy  :  -331.5489078 Eh     change       -0.4052788E+00 Eh
   gradient norm :     0.0504550 Eh/α   predicted    -0.6457733E-03 ( -99.84%)
   displ. norm   :     0.1082172 α      lambda       -0.1313696E-02
   maximum displ.:     0.0752796 α      in ANC's #27, #68, #71, ...

........................................................................
.............................. CYCLE   57 ..............................
........................................................................

 iter      E             dE          RMSdq      gap      omega  full diag
   1   -397.8885714 -0.397889E+03  0.154E-01    0.03       0.0  T
   2   -397.4037925  0.484779E+00  0.116E+00    0.17       1.0  T
   3   -397.8186801 -0.414888E+00  0.375E-01    0.06       1.0  T
   4   -397.8684413 -0.497612E-01  0.307E-01    0.08       1.0  T
   5   -397.8903246 -0.218833E-01  0.130E-01    0.03       1.0  T
   6   -397.8916021 -0.127753E-02  0.125E-01    0.04       1.0  T
   7   -397.8972739 -0.567177E-02  0.558E-02    0.04       1.0  T
   8   -397.8981577 -0.883809E-03  0.325E-02    0.04       1.0  T
   9   -397.8980815  0.762519E-04  0.354E-02    0.04       1.0  T
  10   -397.8984516 -0.370129E-03  0.129E-02    0.04       1.0  T
  11   -397.8984111  0.404961E-04  0.155E-02    0.04       1.0  T
  12   -397.8984869 -0.758336E-04  0.432E-03    0.04       1.5  T
  13   -397.8984877 -0.751949E-06  0.323E-03    0.04       2.0  T
  14   -397.8984892 -0.146768E-05  0.248E-03    0.04       2.6  T
  15   -397.8984900 -0.816397E-06  0.160E-03    0.04       4.0  T
  16   -397.8984905 -0.525630E-06  0.961E-04    0.04       6.7  T
  17   -397.8984906 -0.122836E-06  0.825E-04    0.04       7.8  T
     SCC iter.                  ...        0 min,  1.620 sec
     gradient                   ...        0 min,  0.574 sec
 * total energy  :  -331.8917334 Eh     change       -0.3428257E+00 Eh
   gradient norm :     0.0485630 Eh/α   predicted    -0.6646072E-03 ( -99.81%)
   displ. norm   :     0.0864821 α      lambda       -0.1581431E-02
   maximum displ.:     0.0685966 α      in ANC's #27, #71, #68, ...

........................................................................
.............................. CYCLE   58 ..............................
........................................................................

 iter      E             dE          RMSdq      gap      omega  full diag
   1   -397.8985801 -0.397899E+03  0.949E-02    0.03       0.0  T
   2   -397.6148529  0.283727E+00  0.878E-01    0.17       1.0  T
   3   -397.8768552 -0.262002E+00  0.212E-01    0.03       1.0  T
   4   -397.8881604 -0.113052E-01  0.197E-01    0.06       1.0  T
   5   -397.8953480 -0.718768E-02  0.124E-01    0.03       1.0  T
   6   -397.8995114 -0.416335E-02  0.711E-02    0.04       1.0  T
   7   -397.9013705 -0.185912E-02  0.348E-02    0.04       1.0  T
   8   -397.9015712 -0.200675E-03  0.288E-02    0.04       1.0  T
   9   -397.9016989 -0.127717E-03  0.210E-02    0.04       1.0  T
  10   -397.9017867 -0.878211E-04  0.125E-02    0.04       1.0  T
  11   -397.9017885 -0.180581E-05  0.115E-02    0.04       1.0  T
  12   -397.9018280 -0.394857E-04  0.225E-03    0.04       2.9  T
  13   -397.9018283 -0.307139E-06  0.187E-03    0.04       3.4  T
  14   -397.9018287 -0.338169E-06  0.145E-03    0.04       4.4  T
  15   -397.9018288 -0.122194E-06  0.909E-04    0.04       7.1  T
  16   -397.9018287  0.521640E-07  0.910E-04    0.04       7.1  T
     SCC iter.                  ...        0 min,  1.524 sec
     gradient                   ...        0 min,  0.574 sec
 * total energy  :  -332.1366324 Eh     change       -0.2448989E+00 Eh
   gradient norm :     0.0475334 Eh/α   predicted    -0.7965446E-03 ( -99.67%)
   displ. norm   :     0.1532768 α      lambda       -0.3803310E-02
   maximum displ.:     0.1335790 α      in ANC's #27, #71, #36, ...

........................................................................
.............................. CYCLE   59 ..............................
........................................................................

 iter      E             dE          RMSdq      gap      omega  full diag
   1   -397.9048464 -0.397905E+03  0.116E-01    0.03       0.0  T
   2   -397.7161913  0.188655E+00  0.719E-01    0.13       1.0  T
   3   -397.8950667 -0.178875E+00  0.193E-01    0.02       1.0  T
   4   -397.8731147  0.219520E-01  0.286E-01    0.07       1.0  T
   5   -397.8985488 -0.254341E-01  0.143E-01    0.03       1.0  T
   6   -397.8983909  0.157868E-03  0.153E-01    0.04       1.0  T
   7   -397.9021252 -0.373425E-02  0.102E-01    0.04       1.0  T
   8   -397.9069417 -0.481656E-02  0.424E-02    0.03       1.0  T
   9   -397.9073855 -0.443770E-03  0.266E-02    0.03       1.0  T
  10   -397.9074868 -0.101319E-03  0.216E-02    0.03       1.0  T
  11   -397.9074768  0.997060E-05  0.207E-02    0.03       1.0  T
  12   -397.9075642 -0.873394E-04  0.104E-02    0.03       1.0  T
  13   -397.9075775 -0.133543E-04  0.758E-03    0.03       1.0  T
  14   -397.9075950 -0.174259E-04  0.230E-03    0.03       2.8  T
  15   -397.9075964 -0.141461E-05  0.122E-03    0.03       5.3  T
  16   -397.9075965 -0.868377E-07  0.960E-04    0.03       6.7  T
  17   -397.9075967 -0.212448E-06  0.550E-04    0.03      11.7  T
     SCC iter.                  ...        0 min,  1.659 sec
     gradient                   ...        0 min,  0.588 sec
 * total energy  :  -332.4654526 Eh     change       -0.3288202E+00 Eh
   gradient norm :     0.0552739 Eh/α   predicted    -0.1946729E-02 ( -99.41%)
   displ. norm   :     0.3078476 α      lambda       -0.8369851E-02
   maximum displ.:     0.2677521 α      in ANC's #27, #71, #39, ...

........................................................................
.............................. CYCLE   60 ..............................
........................................................................

 iter      E             dE          RMSdq      gap      omega  full diag
   1   -397.9070232 -0.397907E+03  0.226E-01    0.03       0.0  T
   2   -397.8839030  0.231202E-01  0.306E-01    0.05       1.0  T
   3   -397.3999348  0.483968E+00  0.114E+00    0.16       1.0  T
   4   -397.8917398 -0.491805E+00  0.274E-01    0.05       1.0  T
   5   -397.8354952  0.562446E-01  0.412E-01    0.02       1.0  T
   6   -397.8772832 -0.417880E-01  0.271E-01    0.05       1.0  T
   7   -397.9009624 -0.236792E-01  0.206E-01    0.05       1.0  T
   8   -397.9064873 -0.552485E-02  0.128E-01    0.04       1.0  T
   9   -397.9136359 -0.714856E-02  0.592E-02    0.03       1.0  T
  10   -397.9138152 -0.179312E-03  0.513E-02    0.03       1.0  T
  11   -397.9143980 -0.582840E-03  0.427E-02    0.03       1.0  T
  12   -397.9144221 -0.241145E-04  0.419E-02    0.03       1.0  T
  13   -397.9148802 -0.458098E-03  0.239E-02    0.03       1.0  T
  14   -397.9149762 -0.959968E-04  0.145E-02    0.03       1.0  T
  15   -397.9150322 -0.559413E-04  0.754E-03    0.03       1.0  T
  16   -397.9150484 -0.162695E-04  0.226E-03    0.03       2.8  T
  17   -397.9150462  0.219519E-05  0.328E-03    0.03       2.0  T
  18   -397.9150489 -0.262974E-05  0.114E-03    0.03       5.6  T
  19   -397.9150492 -0.345264E-06  0.797E-04    0.03       8.1  T
  20   -397.9150493 -0.909462E-07  0.486E-04    0.03      13.2  T
     SCC iter.                  ...        0 min,  1.960 sec
     gradient                   ...        0 min,  0.582 sec
 * total energy  :  -332.8573131 Eh     change       -0.3918605E+00 Eh
   gradient norm :     0.0833512 Eh/α   predicted    -0.4582648E-02 ( -98.83%)
   displ. norm   :     0.5274285 α      lambda       -0.1522330E-01
   maximum displ.:     0.4593520 α      in ANC's #27, #39, #33, ...

........................................................................
.............................. CYCLE   61 ..............................
........................................................................

 iter      E             dE          RMSdq      gap      omega  full diag
   1   -397.8745933 -0.397875E+03  0.433E-01    0.03       0.0  T
   2   -397.4687580  0.405835E+00  0.105E+00    0.09       1.0  T
   3   -397.4286061  0.401519E-01  0.125E+00    0.15       1.0  T
   4   -397.7358238 -0.307218E+00  0.622E-01    0.05       1.0  T
   5   -397.8385694 -0.102746E+00  0.420E-01    0.07       1.0  T
   6   -397.8250877  0.134816E-01  0.506E-01    0.06       1.0  T
   7   -397.8631079 -0.380202E-01  0.387E-01    0.08       1.0  T
   8   -397.8860076 -0.228996E-01  0.243E-01    0.05       1.0  T
   9   -397.9031123 -0.171047E-01  0.168E-01    0.04       1.0  T
  10   -397.9109260 -0.781368E-02  0.101E-01    0.03       1.0  T
  11   -397.9009882  0.993777E-02  0.203E-01    0.04       1.0  T
  12   -397.9112356 -0.102475E-01  0.850E-02    0.03       1.0  T
  13   -397.9126520 -0.141633E-02  0.428E-02    0.03       1.0  T
  14   -397.9120497  0.602257E-03  0.565E-02    0.03       1.0  T
  15   -397.9128056 -0.755919E-03  0.325E-02    0.03       1.0  T
  16   -397.9130057 -0.200085E-03  0.196E-02    0.03       1.0  T
  17   -397.9131099 -0.104146E-03  0.465E-03    0.03       1.4  T
  18   -397.9131085  0.141400E-05  0.561E-03    0.03       1.1  T
  19   -397.9131156 -0.713410E-05  0.364E-03    0.03       1.8  T
  20   -397.9131176 -0.197268E-05  0.288E-03    0.03       2.2  T
  21   -397.9131190 -0.139613E-05  0.169E-03    0.03       3.8  T
  22   -397.9131196 -0.656797E-06  0.513E-04    0.03      12.5  T
  23   -397.9131192  0.411739E-06  0.132E-03    0.03       4.9  T
  24   -397.9131196 -0.353303E-06  0.670E-04    0.03       9.6  T
     SCC iter.                  ...        0 min,  2.302 sec
     gradient                   ...        0 min,  0.590 sec
 * total energy  :  -333.0580922 Eh     change       -0.2007792E+00 Eh
   gradient norm :     0.1465026 Eh/α   predicted    -0.9731817E-02 ( -95.15%)
   displ. norm   :     0.7697107 α      lambda       -0.3030729E-01
   maximum displ.:     0.6508126 α      in ANC's #27, #39, #68, ...

........................................................................
.............................. CYCLE   62 ..............................
........................................................................

 iter      E             dE          RMSdq      gap      omega  full diag
   1   -397.7186934 -0.397719E+03  0.843E-01    0.04       0.0  T
   2   -396.5288828  0.118981E+01  0.180E+00    0.29       1.0  T
   3   -396.6286129 -0.997301E-01  0.173E+00    0.40       1.0  T
   4   -397.5863766 -0.957764E+00  0.104E+00    0.08       1.0  T
   5   -397.6048111 -0.184344E-01  0.781E-01    0.01       1.0  T
   6   -397.7531803 -0.148369E+00  0.572E-01    0.01       1.0  T
   7   -397.6274182  0.125762E+00  0.798E-01    0.12       1.0  T
   8   -397.7617580 -0.134340E+00  0.488E-01    0.07       1.0  T
   9   -397.8619996 -0.100242E+00  0.327E-01    0.01       1.0  T
  10   -397.8732961 -0.112966E-01  0.260E-01    0.01       1.0  T
  11   -397.8743343 -0.103815E-02  0.279E-01    0.02       1.0  T
  12   -397.8831221 -0.878786E-02  0.207E-01    0.01       1.0  T
  13   -397.8889607 -0.583855E-02  0.126E-01    0.01       1.0  T
  14   -397.8926380 -0.367727E-02  0.961E-02    0.01       1.0  T
  15   -397.8939050 -0.126709E-02  0.928E-02    0.01       1.0  T
  16   -397.8941010 -0.195920E-03  0.841E-02    0.01       1.0  T
  17   -397.8957008 -0.159984E-02  0.255E-02    0.01       1.0  T
  18   -397.8950556  0.645216E-03  0.665E-02    0.01       1.0  T
  19   -397.8956526 -0.597023E-03  0.354E-02    0.01       1.0  T
  20   -397.8959256 -0.272945E-03  0.922E-03    0.01       1.0  T
  21   -397.8959447 -0.191558E-04  0.314E-03    0.01       2.0  T
  22   -397.8959452 -0.505855E-06  0.281E-03    0.01       2.3  T
  23   -397.8959463 -0.112131E-05  0.167E-03    0.01       3.8  T
  24   -397.8959466 -0.256263E-06  0.157E-03    0.01       4.1  T
  25   -397.8959470 -0.404856E-06  0.103E-03    0.01       6.2  T
  26   -397.8959471 -0.649741E-07  0.120E-03    0.01       5.3  T
  27   -397.8959474 -0.309995E-06  0.406E-04    0.01      15.8  T
  28   -397.8959474 -0.222133E-07  0.159E-04    0.01      40.4  T
     SCC iter.                  ...        0 min,  2.705 sec
     gradient                   ...        0 min,  0.590 sec
 * total energy  :  -332.4434662 Eh     change        0.6146260E+00 Eh
   gradient norm :     0.2132517 Eh/α   predicted    -0.2413334E-01 (-103.93%)
   displ. norm   :     0.4427623 α      lambda       -0.3331085E-01
   maximum displ.:     0.3326177 α      in ANC's #27, #68, #39, ...

........................................................................
.............................. CYCLE   63 ..............................
........................................................................

 iter      E             dE          RMSdq      gap      omega  full diag
   1   -397.8528630 -0.397853E+03  0.447E-01    0.04       0.0  T
   2   -397.2605420  0.592321E+00  0.116E+00    0.23       1.0  T
   3   -397.3534391 -0.928971E-01  0.111E+00    0.24       1.0  T
   4   -397.6716690 -0.318230E+00  0.876E-01    0.13       1.0  T
   5   -397.6834454 -0.117764E-01  0.648E-01    0.05       1.0  T
   6   -397.7783462 -0.949008E-01  0.454E-01    0.02       1.0  T
   7   -397.7723094  0.603683E-02  0.613E-01    0.07       1.0  T
   8   -397.8670930 -0.947836E-01  0.299E-01    0.06       1.0  T
   9   -397.8523508  0.147422E-01  0.310E-01    0.06       1.0  T
  10   -397.8753538 -0.230030E-01  0.201E-01    0.04       1.0  T
  11   -397.8874515 -0.120977E-01  0.815E-02    0.03       1.0  T
  12   -397.8843108  0.314073E-02  0.147E-01    0.02       1.0  T
  13   -397.8850293 -0.718512E-03  0.138E-01    0.02       1.0  T
  14   -397.8864768 -0.144746E-02  0.107E-01    0.02       1.0  T
  15   -397.8893561 -0.287930E-02  0.340E-02    0.03       1.0  T
  16   -397.8872242  0.213186E-02  0.114E-01    0.04       1.0  T
  17   -397.8888779 -0.165368E-02  0.601E-02    0.03       1.0  T
  18   -397.8895738 -0.695887E-03  0.180E-02    0.03       1.0  T
  19   -397.8896088 -0.349641E-04  0.644E-03    0.03       1.0  T
  20   -397.8896121 -0.335301E-05  0.494E-03    0.03       1.3  T
  21   -397.8896080  0.410699E-05  0.733E-03    0.03       1.0  T
  22   -397.8896140 -0.594429E-05  0.314E-03    0.03       2.0  T
  23   -397.8896154 -0.139787E-05  0.265E-03    0.03       2.4  T
  24   -397.8896169 -0.149973E-05  0.102E-03    0.03       6.3  T
  25   -397.8896169 -0.916193E-07  0.851E-04    0.03       7.6  T
  26   -397.8896171 -0.140957E-06  0.274E-04    0.03      23.4  T
     SCC iter.                  ...        0 min,  2.542 sec
     gradient                   ...        0 min,  0.598 sec
 * total energy  :  -332.2626691 Eh     change        0.1807971E+00 Eh
   gradient norm :     0.1692393 Eh/α   predicted    -0.1992068E-01 (-111.02%)
   displ. norm   :     0.3221050 α      lambda       -0.2284263E-01
   maximum displ.:     0.2167115 α      in ANC's #27, #33, #39, ...

........................................................................
.............................. CYCLE   64 ..............................
........................................................................

 iter      E             dE          RMSdq      gap      omega  full diag
   1   -397.8623725 -0.397862E+03  0.348E-01    0.05       0.0  T
   2   -397.4677919  0.394581E+00  0.969E-01    0.21       1.0  T
   3   -397.5534584 -0.856665E-01  0.854E-01    0.19       1.0  T
   4   -397.6980252 -0.144567E+00  0.782E-01    0.03       1.0  T
   5   -397.7811804 -0.831552E-01  0.450E-01    0.03       1.0  T
   6   -397.8253106 -0.441301E-01  0.404E-01    0.02       1.0  T
   7   -397.8317829 -0.647233E-02  0.442E-01    0.04       1.0  T
   8   -397.8465805 -0.147976E-01  0.330E-01    0.02       1.0  T
   9   -397.8698095 -0.232290E-01  0.281E-01    0.03       1.0  T
  10   -397.8493082  0.205013E-01  0.326E-01    0.03       1.0  T
  11   -397.8297651  0.195431E-01  0.346E-01    0.03       1.0  T
  12   -397.8458689 -0.161038E-01  0.307E-01    0.02       1.0  T
  13   -397.8542614 -0.839246E-02  0.304E-01    0.02       1.0  T
  14   -397.8567543 -0.249294E-02  0.496E-01    0.03       1.0  T
  15   -397.8824092 -0.256549E-01  0.166E-01    0.03       1.0  T
  16   -397.8854628 -0.305360E-02  0.212E-01    0.04       1.0  T
  17   -397.8856586 -0.195707E-03  0.198E-01    0.03       1.0  T
  18   -397.8910555 -0.539695E-02  0.228E-01    0.03       1.0  T
  19   -397.8897465  0.130896E-02  0.258E-01    0.03       1.0  T
  20   -397.8886554  0.109114E-02  0.264E-01    0.03       1.0  T
  21   -397.8876665  0.988882E-03  0.263E-01    0.03       1.0  T
  22   -397.8877118 -0.452689E-04  0.264E-01    0.03       1.0  T
  23   -397.8875198  0.191970E-03  0.247E-01    0.03       1.0  T
  24   -397.8848649  0.265496E-02  0.194E-01    0.03       1.0  T
  25   -397.8755531  0.931179E-02  0.166E-01    0.02       1.0  T
  26   -397.8820558 -0.650278E-02  0.125E-01    0.03       1.0  T
  27   -397.8848102 -0.275437E-02  0.162E-01    0.03       1.0  T
  28   -397.8867009 -0.189067E-02  0.171E-01    0.03       1.0  T
  29   -397.8880478 -0.134695E-02  0.191E-01    0.03       1.0  T
  30   -397.8898181 -0.177026E-02  0.212E-01    0.03       1.0  T
  31   -397.8861794  0.363871E-02  0.163E-01    0.03       1.0  T
  32   -397.8830251  0.315425E-02  0.129E-01    0.03       1.0  T
  33   -397.8798265  0.319863E-02  0.106E-01    0.02       1.0  T
  34   -397.8782552  0.157133E-02  0.103E-01    0.02       1.0  T
  35   -397.8783651 -0.109919E-03  0.103E-01    0.02       1.0  T
  36   -397.8795576 -0.119256E-02  0.109E-01    0.02       1.0  T
  37   -397.8826724 -0.311480E-02  0.131E-01    0.03       1.0  T
  38   -397.8843381 -0.166562E-02  0.150E-01    0.03       1.0  T
  39   -397.8816207  0.271734E-02  0.124E-01    0.03       1.0  T
  40   -397.8771861  0.443464E-02  0.114E-01    0.02       1.0  T
  41   -397.8647707  0.124154E-01  0.510E-01    0.03       1.0  T
  42   -397.8366213  0.281494E-01  0.103E+00    0.03       1.0  T
  43   -397.8366469 -0.255585E-04  0.103E+00    0.03       1.0  T
  44   -397.8356872  0.959644E-03  0.103E+00    0.03       1.0  T
  45   -397.8346771  0.101011E-02  0.104E+00    0.03       1.0  T
  46   -397.8302500  0.442711E-02  0.105E+00    0.03       1.0  T
  47   -397.8250989  0.515111E-02  0.106E+00    0.03       1.0  T
  48   -397.8252038 -0.104907E-03  0.105E+00    0.03       1.0  T
  49   -397.8225870  0.261687E-02  0.106E+00    0.03       1.0  T
  50   -397.7502621  0.723248E-01  0.136E+00    0.02       1.0  T
  51   -397.7355721  0.146901E-01  0.141E+00    0.02       1.0  T
  52   -397.7376961 -0.212405E-02  0.140E+00    0.02       1.0  T
  53   -397.7401937 -0.249762E-02  0.140E+00    0.02       1.0  T
  54   -397.7463774 -0.618364E-02  0.137E+00    0.02       1.0  T
  55   -397.7562810 -0.990362E-02  0.133E+00    0.02       1.0  T
  56   -397.7454282  0.108528E-01  0.136E+00    0.02       1.0  T
  57   -397.7325074  0.129208E-01  0.140E+00    0.02       1.0  T
  58   -397.7544942 -0.219868E-01  0.132E+00    0.02       1.0  T
  59   -397.7899849 -0.354907E-01  0.107E+00    0.02       1.0  T
  60   -397.8161953 -0.262104E-01  0.556E-01    0.01       1.0  T
  61   -397.7865864  0.296088E-01  0.127E+00    0.02       1.0  T
  62   -397.8500192 -0.634328E-01  0.463E-01    0.02       1.0  T
  63   -397.8778000 -0.277808E-01  0.328E-01    0.03       1.0  T
  64   -397.8951271 -0.173271E-01  0.261E-01    0.03       1.0  T
  65   -397.8963323 -0.120513E-02  0.214E-01    0.04       1.0  T
  66   -397.8960445  0.287784E-03  0.226E-01    0.04       1.0  T
  67   -397.8978982 -0.185366E-02  0.864E-02    0.03       1.0  T
  68   -397.8964741  0.142404E-02  0.895E-02    0.03       1.0  T
  69   -397.8949926  0.148156E-02  0.134E-01    0.03       1.0  T
  70   -397.8948822  0.110368E-03  0.134E-01    0.03       1.0  T
  71   -397.8955965 -0.714257E-03  0.112E-01    0.03       1.0  T
  72   -397.8974730 -0.187659E-02  0.599E-02    0.03       1.0  T
  73   -397.8951097  0.236329E-02  0.138E-01    0.03       1.0  T
  74   -397.8958280 -0.718244E-03  0.140E-01    0.03       1.0  T
  75   -397.8951714  0.656626E-03  0.160E-01    0.03       1.0  T
  76   -397.8982800 -0.310864E-02  0.566E-02    0.03       1.0  T
  77   -397.8985463 -0.266281E-03  0.336E-02    0.03       1.0  T
  78   -397.8985073  0.390332E-04  0.452E-02    0.03       1.0  T
  79   -397.8985878 -0.805028E-04  0.278E-02    0.03       1.0  T
  80   -397.8985879 -0.190307E-06  0.233E-02    0.03       1.0  T
  81   -397.8986036 -0.156414E-04  0.131E-02    0.03       1.0  T
  82   -397.8985725  0.310750E-04  0.234E-02    0.03       1.0  T
  83   -397.8985555  0.170185E-04  0.252E-02    0.03       1.0  T
  84   -397.8985887 -0.332413E-04  0.159E-02    0.03       1.0  T
  85   -397.8986013 -0.125282E-04  0.873E-03    0.03       1.0  T
  86   -397.8986057 -0.445593E-05  0.533E-03    0.03       1.2  T
  87   -397.8986073 -0.156011E-05  0.310E-03    0.03       2.1  T
  88   -397.8986079 -0.662295E-06  0.192E-03    0.03       3.3  T
  89   -397.8986083 -0.391400E-06  0.578E-04    0.03      11.1  T
  90   -397.8986084 -0.235418E-07  0.463E-04    0.03      13.9  T
     SCC iter.                  ...        0 min,  9.015 sec
     gradient                   ...        0 min,  0.596 sec
 * total energy  :  -331.9878985 Eh     change        0.2747706E+00 Eh
   gradient norm :     0.1070049 Eh/α   predicted    -0.1260631E-01 (-104.59%)
   displ. norm   :     0.7486409 α      lambda       -0.4155042E-01
   maximum displ.:     0.3566794 α      in ANC's #33, #27, #39, ...

........................................................................
.............................. CYCLE   65 ..............................
........................................................................

 iter      E             dE          RMSdq      gap      omega  full diag
   1   -397.8376367 -0.397838E+03  0.751E-01    0.03       0.0  T
   2   -397.1574307  0.680206E+00  0.126E+00    0.25       1.0  T
   3   -396.6680248  0.489406E+00  0.171E+00    0.30       1.0  T
   4   -397.4889642 -0.820939E+00  0.109E+00    0.03       1.0  T
   5   -397.8316043 -0.342640E+00  0.552E-01    0.07       1.0  T
   6   -397.8289473  0.265694E-02  0.559E-01    0.12       1.0  T
   7   -397.8966872 -0.677399E-01  0.244E-01    0.03       1.0  T
   8   -397.9065521 -0.986493E-02  0.186E-01    0.04       1.0  T
   9   -397.8890789  0.174732E-01  0.302E-01    0.04       1.0  T
  10   -397.9035479 -0.144690E-01  0.246E-01    0.05       1.0  T
  11   -397.9135008 -0.995287E-02  0.121E-01    0.03       1.0  T
  12   -397.9176794 -0.417859E-02  0.344E-02    0.03       1.0  T
  13   -397.9178046 -0.125169E-03  0.308E-02    0.03       1.0  T
  14   -397.9179646 -0.160025E-03  0.208E-02    0.03       1.0  T
  15   -397.9179722 -0.760371E-05  0.163E-02    0.03       1.0  T
  16   -397.9180221 -0.498757E-04  0.120E-02    0.03       1.0  T
  17   -397.9180296 -0.751259E-05  0.853E-03    0.03       1.0  T
  18   -397.9180666 -0.370286E-04  0.310E-03    0.03       2.1  T
  19   -397.9180670 -0.354437E-06  0.334E-03    0.03       1.9  T
  20   -397.9180693 -0.226887E-05  0.123E-03    0.03       5.2  T
  21   -397.9180693 -0.909482E-07  0.119E-03    0.03       5.4  T
  22   -397.9180697 -0.357158E-06  0.521E-04    0.03      12.3  T
  23   -397.9180696  0.918364E-07  0.619E-04    0.03      10.4  T
     SCC iter.                  ...        0 min,  2.333 sec
     gradient                   ...        0 min,  0.609 sec
 * total energy  :  -334.9755847 Eh     change       -0.2987686E+01 Eh
   gradient norm :     0.1075662 Eh/α   predicted    -0.3242016E-01 ( -98.91%)
   displ. norm   :     0.7735463 α      lambda       -0.3529336E-01
   maximum displ.:     0.4108491 α      in ANC's #68, #33, #39, ...

........................................................................
.............................. CYCLE   66 ..............................
........................................................................

 iter      E             dE          RMSdq      gap      omega  full diag
   1   -397.3959987 -0.397396E+03  0.125E+00    0.14       0.0  T
   2   -394.3367241  0.305927E+01  0.258E+00    0.13       1.0  T
   3   -397.2976088 -0.296088E+01  0.119E+00    0.03       1.0  T
   4   -397.0870983  0.210511E+00  0.160E+00    0.06       1.0  T
   5   -397.8350784 -0.747980E+00  0.559E-01    0.10       1.0  T
   6   -397.7908806  0.441977E-01  0.705E-01    0.15       1.0  T
   7   -397.9052492 -0.114369E+00  0.382E-01    0.04       1.0  T
   8   -397.8630528  0.421964E-01  0.462E-01    0.04       1.0  T
   9   -397.8556101  0.744269E-02  0.469E-01    0.07       1.0  T
  10   -397.8824515 -0.268413E-01  0.339E-01    0.06       1.0  T
  11   -397.8967119 -0.142605E-01  0.267E-01    0.03       1.0  T
  12   -397.9210397 -0.243277E-01  0.127E-01    0.02       1.0  T
  13   -397.9263089 -0.526925E-02  0.523E-02    0.02       1.0  T
  14   -397.9261697  0.139238E-03  0.544E-02    0.03       1.0  T
  15   -397.9270466 -0.876921E-03  0.157E-02    0.02       1.0  T
  16   -397.9266639  0.382653E-03  0.331E-02    0.02       1.0  T
  17   -397.9267569 -0.929531E-04  0.302E-02    0.02       1.0  T
  18   -397.9270336 -0.276683E-03  0.134E-02    0.02       1.0  T
  19   -397.9270769 -0.433147E-04  0.675E-03    0.02       1.0  T
  20   -397.9270903 -0.134149E-04  0.301E-03    0.02       2.1  T
  21   -397.9270909 -0.600532E-06  0.243E-03    0.02       2.6  T
  22   -397.9270841  0.685335E-05  0.496E-03    0.02       1.3  T
  23   -397.9270897 -0.569405E-05  0.297E-03    0.02       2.2  T
  24   -397.9270922 -0.245254E-05  0.124E-03    0.02       5.2  T
  25   -397.9270920  0.205814E-06  0.127E-03    0.02       5.1  T
  26   -397.9270922 -0.222552E-06  0.105E-03    0.02       6.1  T
  27   -397.9270924 -0.136045E-06  0.867E-04    0.02       7.4  T
  28   -397.9270925 -0.165476E-06  0.329E-04    0.02      19.5  T
     SCC iter.                  ...        0 min,  2.876 sec
     gradient                   ...        0 min,  0.607 sec
 * total energy  :  -338.9696507 Eh     change       -0.3994066E+01 Eh
   gradient norm :     0.1364245 Eh/α   predicted    -0.2820648E-01 ( -99.29%)
   displ. norm   :     0.5331211 α      lambda       -0.1851372E-01
   maximum displ.:     0.3608797 α      in ANC's #27, #68, #33, ...
 * RMSD in coord.:     0.2873940 α      energy gain   0.1285155E+02 Eh

generating ANC from exact Hessian ...
Using Lindh-Hessian (1995)
 Shifting diagonal of input Hessian by    4.1985219973451198     
 Lowest  eigenvalues of input Hessian
    0.010000    4.196995    4.198481    4.198497    4.198504    0.000000
    0.000000    0.000000    0.000000    0.000000    0.000000    4.198542
    4.198555    4.198568    4.198577    4.198593    4.198608    4.198634
 Highest eigenvalues
   10.338196   10.411070   13.575240   14.175608   14.776942   76.061737


........................................................................
.............................. CYCLE   67 ..............................
........................................................................

 iter      E             dE          RMSdq      gap      omega  full diag
   1   -397.8247203 -0.397825E+03  0.609E-01    0.09       0.0  T
   2   -396.6159965  0.120872E+01  0.170E+00    0.02       1.0  T
   3   -397.5120021 -0.896006E+00  0.106E+00    0.06       1.0  T
   4   -397.6423603 -0.130358E+00  0.947E-01    0.08       1.0  T
   5   -397.8309284 -0.188568E+00  0.532E-01    0.12       1.0  T
   6   -397.8930986 -0.621702E-01  0.358E-01    0.05       1.0  T
   7   -397.9198258 -0.267272E-01  0.229E-01    0.03       1.0  T
   8   -397.9344681 -0.146423E-01  0.131E-01    0.04       1.0  T
   9   -397.9259360  0.853208E-02  0.206E-01    0.07       1.0  T
  10   -397.9257436  0.192382E-03  0.183E-01    0.06       1.0  T
  11   -397.9357844 -0.100408E-01  0.753E-02    0.04       1.0  T
  12   -397.9369377 -0.115338E-02  0.458E-02    0.03       1.0  T
  13   -397.9372242 -0.286453E-03  0.361E-02    0.03       1.0  T
  14   -397.9373482 -0.123993E-03  0.279E-02    0.04       1.0  T
  15   -397.9374273 -0.790651E-04  0.206E-02    0.04       1.0  T
  16   -397.9374820 -0.547465E-04  0.100E-02    0.03       1.0  T
  17   -397.9374849 -0.285861E-05  0.579E-03    0.04       1.1  T
  18   -397.9374732  0.116404E-04  0.777E-03    0.04       1.0  T
  19   -397.9374910 -0.177351E-04  0.230E-03    0.04       2.8  T
  20   -397.9374922 -0.119418E-05  0.115E-03    0.04       5.6  T
  21   -397.9374923 -0.135343E-06  0.798E-04    0.04       8.1  T
  22   -397.9374921  0.167993E-06  0.912E-04    0.04       7.0  T
     SCC iter.                  ...        0 min,  2.260 sec
     gradient                   ...        0 min,  0.618 sec
 * total energy  :  -340.1042601 Eh     change       -0.1134609E+01 Eh
   gradient norm :     0.3080200 Eh/α   predicted     0.0000000E+00 (-100.00%)
   displ. norm   :     0.0613719 α      lambda        0.2599644E+00
   maximum displ.:     0.0366910 α      in ANC's #20, #18, #15, ...

........................................................................
.............................. CYCLE   68 ..............................
........................................................................

 iter      E             dE          RMSdq      gap      omega  full diag
   1   -397.9355591 -0.397936E+03  0.540E-02    0.04       0.0  T
   2   -397.9339316  0.162755E-02  0.794E-02    0.04       1.0  T
   3   -397.9194815  0.144501E-01  0.227E-01    0.03       1.0  T
   4   -397.9356202 -0.161387E-01  0.392E-02    0.04       1.0  T
   5   -397.9343386  0.128154E-02  0.691E-02    0.03       1.0  T
   6   -397.9344260 -0.873485E-04  0.569E-02    0.04       1.0  T
   7   -397.9354204 -0.994416E-03  0.377E-02    0.03       1.0  T
   8   -397.9359640 -0.543589E-03  0.762E-03    0.04       1.0  T
   9   -397.9359791 -0.150978E-04  0.335E-03    0.04       1.9  T
  10   -397.9359796 -0.491570E-06  0.291E-03    0.04       2.2  T
  11   -397.9359812 -0.159072E-05  0.212E-03    0.04       3.0  T
  12   -397.9359800  0.112172E-05  0.241E-03    0.04       2.7  T
  13   -397.9359821 -0.210186E-05  0.401E-04    0.04      16.0  T
  14   -397.9359822 -0.436857E-07  0.227E-04    0.04      28.3  T
  15   -397.9359822 -0.118268E-07  0.141E-04    0.04      45.4  T
     SCC iter.                  ...        0 min,  1.566 sec
     gradient                   ...        0 min,  0.604 sec
 * total energy  :  -340.1260086 Eh     change       -0.2174849E-01 Eh
   gradient norm :     0.2417263 Eh/α   predicted    -0.9487496E-02 ( -56.38%)
   displ. norm   :     0.2173668 α      lambda       -0.5253772E-01
   maximum displ.:     0.1273050 α      in ANC's #20, #18, #26, ...

........................................................................
.............................. CYCLE   69 ..............................
........................................................................

 iter      E             dE          RMSdq      gap      omega  full diag
   1   -397.9223700 -0.397922E+03  0.196E-01    0.06       0.0  T
   2   -397.8723928  0.499771E-01  0.376E-01    0.08       1.0  T
   3   -397.7607501  0.111643E+00  0.738E-01    0.16       1.0  T
   4   -397.9022868 -0.141537E+00  0.238E-01    0.06       1.0  T
   5   -397.8894617  0.128251E-01  0.306E-01    0.05       1.0  T
   6   -397.9141493 -0.246876E-01  0.195E-01    0.04       1.0  T
   7   -397.9252347 -0.110854E-01  0.893E-02    0.05       1.0  T
   8   -397.9266058 -0.137107E-02  0.561E-02    0.05       1.0  T
   9   -397.9270674 -0.461591E-03  0.397E-02    0.05       1.0  T
  10   -397.9274356 -0.368205E-03  0.215E-02    0.05       1.0  T
  11   -397.9273050  0.130574E-03  0.230E-02    0.05       1.0  T
  12   -397.9274981 -0.193055E-03  0.810E-03    0.05       1.0  T
  13   -397.9275172 -0.191627E-04  0.359E-03    0.05       1.8  T
  14   -397.9275174 -0.162063E-06  0.320E-03    0.05       2.0  T
  15   -397.9275184 -0.978677E-06  0.303E-03    0.05       2.1  T
  16   -397.9275205 -0.210402E-05  0.117E-03    0.05       5.5  T
  17   -397.9275210 -0.480240E-06  0.417E-04    0.05      15.4  T
  18   -397.9275210 -0.375724E-08  0.362E-04    0.05      17.8  T
     SCC iter.                  ...        0 min,  1.876 sec
     gradient                   ...        0 min,  0.633 sec
 * total energy  :  -340.1538229 Eh     change       -0.2781438E-01 Eh
   gradient norm :     0.0984850 Eh/α   predicted    -0.2751253E-01 (  -1.09%)
   displ. norm   :     0.1267471 α      lambda       -0.1167450E-01
   maximum displ.:     0.0733060 α      in ANC's #20, #26, #18, ...

........................................................................
.............................. CYCLE   70 ..............................
........................................................................

 iter      E             dE          RMSdq      gap      omega  full diag
   1   -397.9194171 -0.397919E+03  0.119E-01    0.06       0.0  T
   2   -397.8771238  0.422932E-01  0.328E-01    0.07       1.0  T
   3   -397.8385384  0.385854E-01  0.508E-01    0.11       1.0  T
   4   -397.9044643 -0.659259E-01  0.187E-01    0.07       1.0  T
   5   -397.9085793 -0.411504E-02  0.191E-01    0.06       1.0  T
   6   -397.9168568 -0.827750E-02  0.110E-01    0.05       1.0  T
   7   -397.9206056 -0.374875E-02  0.464E-02    0.05       1.0  T
   8   -397.9209475 -0.341876E-03  0.310E-02    0.05       1.0  T
   9   -397.9210416 -0.941188E-04  0.223E-02    0.05       1.0  T
  10   -397.9211628 -0.121233E-03  0.112E-02    0.05       1.0  T
  11   -397.9211733 -0.105125E-04  0.833E-03    0.05       1.0  T
  12   -397.9211961 -0.227817E-04  0.342E-03    0.05       1.9  T
  13   -397.9211987 -0.260733E-05  0.188E-03    0.05       3.4  T
  14   -397.9211991 -0.376443E-06  0.147E-03    0.05       4.4  T
  15   -397.9211996 -0.492959E-06  0.124E-03    0.05       5.2  T
  16   -397.9211998 -0.272384E-06  0.650E-04    0.05       9.9  T
  17   -397.9212000 -0.121525E-06  0.150E-04    0.05      43.0  T
     SCC iter.                  ...        0 min,  1.780 sec
     gradient                   ...        0 min,  0.619 sec
 * total energy  :  -340.1485657 Eh     change        0.5257249E-02 Eh
   gradient norm :     0.0539473 Eh/α   predicted    -0.5932260E-02 (-212.84%)
   displ. norm   :     0.0832523 α      lambda       -0.3343057E-02
   maximum displ.:     0.0489799 α      in ANC's #20, #26, #18, ...

........................................................................
.............................. CYCLE   71 ..............................
........................................................................

 iter      E             dE          RMSdq      gap      omega  full diag
   1   -397.9161480 -0.397916E+03  0.761E-02    0.06       0.0  T
   2   -397.8974845  0.186635E-01  0.219E-01    0.06       1.0  T
   3   -397.8763678  0.211168E-01  0.350E-01    0.08       1.0  T
   4   -397.9089700 -0.326022E-01  0.127E-01    0.06       1.0  T
   5   -397.9121310 -0.316100E-02  0.116E-01    0.06       1.0  T
   6   -397.9152003 -0.306927E-02  0.668E-02    0.05       1.0  T
   7   -397.9165500 -0.134976E-02  0.304E-02    0.05       1.0  T
   8   -397.9167411 -0.191058E-03  0.187E-02    0.05       1.0  T
   9   -397.9167780 -0.368653E-04  0.126E-02    0.05       1.0  T
  10   -397.9168226 -0.446321E-04  0.557E-03    0.05       1.2  T
  11   -397.9168309 -0.827460E-05  0.289E-03    0.05       2.2  T
  12   -397.9168328 -0.192596E-05  0.179E-03    0.05       3.6  T
  13   -397.9168334 -0.639171E-06  0.971E-04    0.05       6.6  T
  14   -397.9168335 -0.284424E-07  0.803E-04    0.05       8.0  T
     SCC iter.                  ...        0 min,  1.468 sec
     gradient                   ...        0 min,  0.633 sec
 * total energy  :  -340.1404333 Eh     change        0.8132402E-02 Eh
   gradient norm :     0.0442359 Eh/α   predicted    -0.1683508E-02 (-120.70%)
   displ. norm   :     0.0410790 α      lambda       -0.9053205E-03
   maximum displ.:     0.0248816 α      in ANC's #20, #26, #18, ...

........................................................................
.............................. CYCLE   72 ..............................
........................................................................

 iter      E             dE          RMSdq      gap      omega  full diag
   1   -397.9146646 -0.397915E+03  0.345E-02    0.06       0.0  T
   2   -397.9118274  0.283721E-02  0.886E-02    0.05       1.0  T
   3   -397.9045930  0.723444E-02  0.172E-01    0.06       1.0  T
   4   -397.9138340 -0.924100E-02  0.460E-02    0.06       1.0  T
   5   -397.9136370  0.196958E-03  0.530E-02    0.06       1.0  T
   6   -397.9143745 -0.737443E-03  0.320E-02    0.05       1.0  T
   7   -397.9147079 -0.333450E-03  0.145E-02    0.05       1.0  T
   8   -397.9147630 -0.550432E-04  0.793E-03    0.05       1.0  T
   9   -397.9147783 -0.153037E-04  0.315E-03    0.05       2.0  T
  10   -397.9147801 -0.181809E-05  0.198E-03    0.06       3.2  T
  11   -397.9147815 -0.137116E-05  0.895E-04    0.05       7.2  T
  12   -397.9147815 -0.718608E-07  0.762E-04    0.06       8.4  T
  13   -397.9147817 -0.149185E-06  0.405E-04    0.06      15.9  T
     SCC iter.                  ...        0 min,  1.358 sec
     gradient                   ...        0 min,  0.636 sec
 * total energy  :  -340.1361931 Eh     change        0.4240234E-02 Eh
   gradient norm :     0.0444803 Eh/α   predicted    -0.4534831E-03 (-110.69%)
   displ. norm   :     0.0606798 α      lambda       -0.1394005E-02
   maximum displ.:     0.0359979 α      in ANC's #20, #26, #18, ...

........................................................................
.............................. CYCLE   73 ..............................
........................................................................

 iter      E             dE          RMSdq      gap      omega  full diag
   1   -397.9119350 -0.397912E+03  0.462E-02    0.06       0.0  T
   2   -397.9108742  0.106074E-02  0.634E-02    0.05       1.0  T
   3   -397.8952004  0.156738E-01  0.221E-01    0.07       1.0  T
   4   -397.9114099 -0.162095E-01  0.448E-02    0.06       1.0  T
   5   -397.9097440  0.166587E-02  0.732E-02    0.06       1.0  T
   6   -397.9110242 -0.128017E-02  0.504E-02    0.05       1.0  T
   7   -397.9119658 -0.941584E-03  0.191E-02    0.05       1.0  T
   8   -397.9120688 -0.103069E-03  0.940E-03    0.06       1.0  T
   9   -397.9120926 -0.237106E-04  0.323E-03    0.06       2.0  T
  10   -397.9120932 -0.652925E-06  0.256E-03    0.06       2.5  T
  11   -397.9120946 -0.140933E-05  0.158E-03    0.06       4.1  T
  12   -397.9120953 -0.693288E-06  0.796E-04    0.06       8.1  T
  13   -397.9120954 -0.369564E-07  0.681E-04    0.06       9.4  T
     SCC iter.                  ...        0 min,  1.371 sec
     gradient                   ...        0 min,  0.650 sec
 * total energy  :  -340.1313808 Eh     change        0.4812264E-02 Eh
   gradient norm :     0.0453448 Eh/α   predicted    -0.6995892E-03 (-114.54%)
   displ. norm   :     0.0857724 α      lambda       -0.2005544E-02
   maximum displ.:     0.0470186 α      in ANC's #20, #26, #18, ...

........................................................................
.............................. CYCLE   74 ..............................
........................................................................

 iter      E             dE          RMSdq      gap      omega  full diag
   1   -397.9085726 -0.397909E+03  0.631E-02    0.06       0.0  T
   2   -397.9077521  0.820456E-03  0.689E-02    0.05       1.0  T
   3   -397.8734238  0.343283E-01  0.306E-01    0.06       1.0  T
   4   -397.9055228 -0.320990E-01  0.101E-01    0.06       1.0  T
   5   -397.9074840 -0.196119E-02  0.631E-02    0.06       1.0  T
   6   -397.9072852  0.198834E-03  0.595E-02    0.05       1.0  T
   7   -397.9083995 -0.111431E-02  0.325E-02    0.06       1.0  T
   8   -397.9088007 -0.401286E-03  0.105E-02    0.06       1.0  T
   9   -397.9088176 -0.168876E-04  0.623E-03    0.06       1.0  T
  10   -397.9088288 -0.111360E-04  0.323E-03    0.06       2.0  T
  11   -397.9088269  0.185743E-05  0.329E-03    0.06       2.0  T
  12   -397.9088296 -0.264804E-05  0.174E-03    0.06       3.7  T
  13   -397.9088293  0.257195E-06  0.166E-03    0.06       3.9  T
  14   -397.9088304 -0.109023E-05  0.470E-04    0.06      13.7  T
  15   -397.9088304 -0.293061E-07  0.367E-04    0.06      17.5  T
  16   -397.9088304 -0.773372E-08  0.265E-04    0.06      24.2  T
     SCC iter.                  ...        0 min,  1.671 sec
     gradient                   ...        0 min,  0.648 sec
 * total energy  :  -340.1287858 Eh     change        0.2594983E-02 Eh
   gradient norm :     0.0467110 Eh/α   predicted    -0.1010198E-02 (-138.93%)
   displ. norm   :     0.0921203 α      lambda       -0.2034902E-02
   maximum displ.:     0.0460546 α      in ANC's #56, #20, #18, ...

........................................................................
.............................. CYCLE   75 ..............................
........................................................................

 iter      E             dE          RMSdq      gap      omega  full diag
   1   -397.9054375 -0.397905E+03  0.718E-02    0.06       0.0  T
   2   -397.8942825  0.111551E-01  0.186E-01    0.07       1.0  T
   3   -397.8699366  0.243459E-01  0.312E-01    0.06       1.0  T
   4   -397.9042771 -0.343404E-01  0.700E-02    0.06       1.0  T
   5   -397.9042850 -0.789600E-05  0.660E-02    0.05       1.0  T
   6   -397.9028826  0.140233E-02  0.810E-02    0.06       1.0  T
   7   -397.9055451 -0.266242E-02  0.255E-02    0.06       1.0  T
   8   -397.9057963 -0.251202E-03  0.904E-03    0.06       1.0  T
   9   -397.9058036 -0.737889E-05  0.797E-03    0.06       1.0  T
  10   -397.9058041 -0.461596E-06  0.631E-03    0.06       1.0  T
  11   -397.9058156 -0.115267E-04  0.378E-03    0.06       1.7  T
  12   -397.9058207 -0.510464E-05  0.150E-03    0.06       4.3  T
  13   -397.9058211 -0.361561E-06  0.937E-04    0.06       6.9  T
  14   -397.9058213 -0.196812E-06  0.529E-04    0.06      12.1  T
     SCC iter.                  ...        0 min,  1.519 sec
     gradient                   ...        0 min,  0.627 sec
 * total energy  :  -340.1328131 Eh     change       -0.4027250E-02 Eh
   gradient norm :     0.0509627 Eh/α   predicted    -0.1026429E-02 ( -74.51%)
   displ. norm   :     0.0766484 α      lambda       -0.1644438E-02
   maximum displ.:     0.0468670 α      in ANC's #56, #41, #20, ...

........................................................................
.............................. CYCLE   76 ..............................
........................................................................

 iter      E             dE          RMSdq      gap      omega  full diag
   1   -397.9035028 -0.397904E+03  0.666E-02    0.06       0.0  T
   2   -397.8814127  0.220900E-01  0.258E-01    0.08       1.0  T
   3   -397.8843885 -0.297577E-02  0.232E-01    0.06       1.0  T
   4   -397.9022022 -0.178137E-01  0.680E-02    0.06       1.0  T
   5   -397.8994128  0.278935E-02  0.101E-01    0.06       1.0  T
   6   -397.9025055 -0.309264E-02  0.552E-02    0.06       1.0  T
   7   -397.9036588 -0.115335E-02  0.252E-02    0.06       1.0  T
   8   -397.9038724 -0.213568E-03  0.107E-02    0.06       1.0  T
   9   -397.9038947 -0.223349E-04  0.698E-03    0.06       1.0  T
  10   -397.9039028 -0.809586E-05  0.443E-03    0.06       1.5  T
  11   -397.9039062 -0.341816E-05  0.317E-03    0.06       2.0  T
  12   -397.9039090 -0.270286E-05  0.181E-03    0.06       3.6  T
  13   -397.9039095 -0.586706E-06  0.106E-03    0.06       6.1  T
  14   -397.9039098 -0.293754E-06  0.479E-04    0.06      13.4  T
  15   -397.9039099 -0.235613E-07  0.409E-04    0.06      15.7  T
     SCC iter.                  ...        0 min,  1.606 sec
     gradient                   ...        0 min,  0.648 sec
 * total energy  :  -340.1429078 Eh     change       -0.1009474E-01 Eh
   gradient norm :     0.0561037 Eh/α   predicted    -0.8277455E-03 ( -91.80%)
   displ. norm   :     0.0858507 α      lambda       -0.1995973E-02
   maximum displ.:     0.0529294 α      in ANC's #56, #41, #25, ...

........................................................................
.............................. CYCLE   77 ..............................
........................................................................

 iter      E             dE          RMSdq      gap      omega  full diag
   1   -397.9018630 -0.397902E+03  0.812E-02    0.06       0.0  T
   2   -397.8567446  0.451184E-01  0.372E-01    0.09       1.0  T
   3   -397.8737024 -0.169578E-01  0.279E-01    0.07       1.0  T
   4   -397.8981951 -0.244927E-01  0.101E-01    0.06       1.0  T
   5   -397.8975792  0.615870E-03  0.107E-01    0.06       1.0  T
   6   -397.9013481 -0.376892E-02  0.521E-02    0.06       1.0  T
   7   -397.9023471 -0.998957E-03  0.244E-02    0.06       1.0  T
   8   -397.9024886 -0.141502E-03  0.134E-02    0.06       1.0  T
   9   -397.9025105 -0.218577E-04  0.970E-03    0.06       1.0  T
  10   -397.9025207 -0.102945E-04  0.718E-03    0.06       1.0  T
  11   -397.9025363 -0.155568E-04  0.366E-03    0.06       1.8  T
  12   -397.9025401 -0.378528E-05  0.238E-03    0.06       2.7  T
  13   -397.9025415 -0.136900E-05  0.114E-03    0.06       5.6  T
  14   -397.9025417 -0.281401E-06  0.597E-04    0.06      10.8  T
  15   -397.9025418 -0.391712E-07  0.503E-04    0.06      12.8  T
     SCC iter.                  ...        0 min,  1.613 sec
     gradient                   ...        0 min,  0.651 sec
 * total energy  :  -340.1607758 Eh     change       -0.1786803E-01 Eh
   gradient norm :     0.0601718 Eh/α   predicted    -0.1005960E-02 ( -94.37%)
   displ. norm   :     0.1004796 α      lambda       -0.2345887E-02
   maximum displ.:     0.0600553 α      in ANC's #41, #56, #25, ...

........................................................................
.............................. CYCLE   78 ..............................
........................................................................

 iter      E             dE          RMSdq      gap      omega  full diag
   1   -397.9002987 -0.397900E+03  0.968E-02    0.06       0.0  T
   2   -397.8269720  0.733267E-01  0.480E-01    0.10       1.0  T
   3   -397.8578918 -0.309198E-01  0.339E-01    0.08       1.0  T
   4   -397.8922386 -0.343468E-01  0.140E-01    0.07       1.0  T
   5   -397.8976806 -0.544198E-02  0.965E-02    0.06       1.0  T
   6   -397.9001938 -0.251320E-02  0.526E-02    0.06       1.0  T
   7   -397.9011903 -0.996487E-03  0.228E-02    0.06       1.0  T
   8   -397.9012017 -0.113891E-04  0.202E-02    0.06       1.0  T
   9   -397.9012487 -0.470108E-04  0.152E-02    0.06       1.0  T
  10   -397.9012898 -0.411743E-04  0.897E-03    0.06       1.0  T
  11   -397.9013144 -0.245990E-04  0.416E-03    0.06       1.5  T
  12   -397.9013196 -0.511983E-05  0.279E-03    0.06       2.3  T
  13   -397.9013219 -0.234662E-05  0.131E-03    0.06       4.9  T
  14   -397.9013221 -0.206996E-06  0.795E-04    0.06       8.1  T
  15   -397.9013222 -0.100926E-06  0.595E-04    0.06      10.8  T
     SCC iter.                  ...        0 min,  1.622 sec
     gradient                   ...        0 min,  0.651 sec
 * total energy  :  -340.1869999 Eh     change       -0.2622407E-01 Eh
   gradient norm :     0.0625346 Eh/α   predicted    -0.1184881E-02 ( -95.48%)
   displ. norm   :     0.1089377 α      lambda       -0.2247900E-02
   maximum displ.:     0.0711506 α      in ANC's #41, #56, #20, ...

........................................................................
.............................. CYCLE   79 ..............................
........................................................................

 iter      E             dE          RMSdq      gap      omega  full diag
   1   -397.8977788 -0.397898E+03  0.102E-01    0.06       0.0  T
   2   -397.8090883  0.886905E-01  0.532E-01    0.10       1.0  T
   3   -397.8514835 -0.423952E-01  0.352E-01    0.08       1.0  T
   4   -397.8862540 -0.347705E-01  0.163E-01    0.07       1.0  T
   5   -397.8962793 -0.100253E-01  0.880E-02    0.06       1.0  T
   6   -397.8983029 -0.202352E-02  0.456E-02    0.06       1.0  T
   7   -397.8989175 -0.614612E-03  0.214E-02    0.06       1.0  T
   8   -397.8987985  0.118968E-03  0.266E-02    0.06       1.0  T
   9   -397.8989282 -0.129671E-03  0.177E-02    0.06       1.0  T
  10   -397.8990056 -0.774627E-04  0.713E-03    0.06       1.0  T
  11   -397.8990117 -0.600400E-05  0.499E-03    0.06       1.3  T
  12   -397.8990194 -0.773566E-05  0.239E-03    0.06       2.7  T
  13   -397.8990211 -0.169587E-05  0.932E-04    0.06       6.9  T
  14   -397.8990209  0.178260E-06  0.105E-03    0.06       6.1  T
  15   -397.8990212 -0.309455E-06  0.651E-04    0.06       9.9  T
  16   -397.8990213 -0.510449E-07  0.384E-04    0.06      16.8  T
     SCC iter.                  ...        0 min,  1.764 sec
     gradient                   ...        0 min,  0.673 sec
 * total energy  :  -340.2199597 Eh     change       -0.3295985E-01 Eh
   gradient norm :     0.0652442 Eh/α   predicted    -0.1137574E-02 ( -96.55%)
   displ. norm   :     0.1502651 α      lambda       -0.2701760E-02
   maximum displ.:     0.0963845 α      in ANC's #41, #20, #25, ...

........................................................................
.............................. CYCLE   80 ..............................
........................................................................

 iter      E             dE          RMSdq      gap      omega  full diag
   1   -397.8911824 -0.397891E+03  0.138E-01    0.06       0.0  T
   2   -397.7492619  0.141920E+00  0.683E-01    0.11       1.0  T
   3   -397.8082917 -0.590298E-01  0.467E-01    0.09       1.0  T
   4   -397.8718863 -0.635946E-01  0.212E-01    0.07       1.0  T
   5   -397.8875103 -0.156240E-01  0.131E-01    0.06       1.0  T
   6   -397.8925177 -0.500741E-02  0.616E-02    0.06       1.0  T
   7   -397.8931296 -0.611855E-03  0.425E-02    0.06       1.0  T
   8   -397.8930277  0.101903E-03  0.471E-02    0.06       1.0  T
   9   -397.8935573 -0.529655E-03  0.222E-02    0.06       1.0  T
  10   -397.8936768 -0.119462E-03  0.922E-03    0.06       1.0  T
  11   -397.8936809 -0.407824E-05  0.722E-03    0.06       1.0  T
  12   -397.8936923 -0.114564E-04  0.419E-03    0.06       1.5  T
  13   -397.8936979 -0.555001E-05  0.171E-03    0.06       3.8  T
  14   -397.8936976  0.249161E-06  0.181E-03    0.06       3.6  T
  15   -397.8936986 -0.925419E-06  0.106E-03    0.06       6.1  T
  16   -397.8936985  0.170253E-07  0.813E-04    0.06       7.9  T
  17   -397.8936987 -0.134527E-06  0.534E-04    0.06      12.0  T
     SCC iter.                  ...        0 min,  2.004 sec
     gradient                   ...        0 min,  0.645 sec
 * total energy  :  -340.2724259 Eh     change       -0.5246613E-01 Eh
   gradient norm :     0.0665583 Eh/α   predicted    -0.1384708E-02 ( -97.36%)
   displ. norm   :     0.2162508 α      lambda       -0.3411128E-02
   maximum displ.:     0.1239363 α      in ANC's #41, #20, #18, ...

........................................................................
.............................. CYCLE   81 ..............................
........................................................................

 iter      E             dE          RMSdq      gap      omega  full diag
   1   -397.8798405 -0.397880E+03  0.210E-01    0.07       0.0  T
   2   -397.6294202  0.250420E+00  0.919E-01    0.12       1.0  T
   3   -397.7315580 -0.102138E+00  0.631E-01    0.10       1.0  T
   4   -397.8412754 -0.109717E+00  0.294E-01    0.09       1.0  T
   5   -397.8542044 -0.129291E-01  0.275E-01    0.07       1.0  T
   6   -397.8776746 -0.234702E-01  0.164E-01    0.05       1.0  T
   7   -397.8819600 -0.428535E-02  0.113E-01    0.07       1.0  T
   8   -397.8833072 -0.134722E-02  0.912E-02    0.06       1.0  T
   9   -397.8852043 -0.189706E-02  0.505E-02    0.07       1.0  T
  10   -397.8857817 -0.577442E-03  0.352E-02    0.07       1.0  T
  11   -397.8859013 -0.119538E-03  0.244E-02    0.07       1.0  T
  12   -397.8859640 -0.627651E-04  0.197E-02    0.07       1.0  T
  13   -397.8860633 -0.992943E-04  0.110E-02    0.07       1.0  T
  14   -397.8860745 -0.112292E-04  0.891E-03    0.07       1.0  T
  15   -397.8860951 -0.205899E-04  0.450E-03    0.07       1.4  T
  16   -397.8860997 -0.452662E-05  0.274E-03    0.07       2.3  T
  17   -397.8861014 -0.170589E-05  0.153E-03    0.07       4.2  T
  18   -397.8861017 -0.383156E-06  0.107E-03    0.07       6.0  T
  19   -397.8861018 -0.226640E-07  0.780E-04    0.07       8.2  T
  20   -397.8861019 -0.123768E-06  0.559E-04    0.07      11.5  T
     SCC iter.                  ...        0 min,  2.193 sec
     gradient                   ...        0 min,  0.655 sec
 * total energy  :  -340.3625317 Eh     change       -0.9010586E-01 Eh
   gradient norm :     0.0603025 Eh/α   predicted    -0.1785265E-02 ( -98.02%)
   displ. norm   :     0.3446921 α      lambda       -0.4737377E-02
   maximum displ.:     0.2001031 α      in ANC's #20, #41, #18, ...

........................................................................
.............................. CYCLE   82 ..............................
........................................................................

 iter      E             dE          RMSdq      gap      omega  full diag
   1   -397.8642556 -0.397864E+03  0.399E-01    0.08       0.0  T
   2   -397.1558039  0.708452E+00  0.136E+00    0.01       1.0  T
   3   -397.3442409 -0.188437E+00  0.116E+00    0.04       1.0  T
   4   -397.8091998 -0.464959E+00  0.499E-01    0.07       1.0  T
   5   -397.6202231  0.188977E+00  0.744E-01    0.11       1.0  T
   6   -397.7957571 -0.175534E+00  0.443E-01    0.08       1.0  T
   7   -397.8538463 -0.580892E-01  0.340E-01    0.06       1.0  T
   8   -397.8666190 -0.127727E-01  0.261E-01    0.07       1.0  T
   9   -397.8819970 -0.153780E-01  0.155E-01    0.06       1.0  T
  10   -397.8857757 -0.377873E-02  0.105E-01    0.07       1.0  T
  11   -397.8867023 -0.926581E-03  0.879E-02    0.07       1.0  T
  12   -397.8866917  0.105397E-04  0.742E-02    0.07       1.0  T
  13   -397.8868376 -0.145902E-03  0.644E-02    0.07       1.0  T
  14   -397.8878327 -0.995114E-03  0.360E-02    0.07       1.0  T
  15   -397.8882435 -0.410780E-03  0.211E-02    0.07       1.0  T
  16   -397.8883026 -0.591165E-04  0.147E-02    0.07       1.0  T
  17   -397.8883376 -0.349522E-04  0.983E-03    0.07       1.0  T
  18   -397.8883504 -0.127858E-04  0.643E-03    0.07       1.0  T
  19   -397.8883582 -0.783067E-05  0.373E-03    0.07       1.7  T
  20   -397.8883600 -0.182089E-05  0.273E-03    0.07       2.4  T
  21   -397.8883606 -0.586198E-06  0.218E-03    0.07       3.0  T
  22   -397.8883610 -0.371226E-06  0.140E-03    0.07       4.6  T
  23   -397.8883612 -0.192783E-06  0.127E-03    0.07       5.1  T
  24   -397.8883617 -0.493577E-06  0.517E-04    0.07      12.4  T
  25   -397.8883617 -0.603433E-08  0.509E-04    0.07      12.6  T
     SCC iter.                  ...        0 min,  2.757 sec
     gradient                   ...        0 min,  0.651 sec
 * total energy  :  -340.5463773 Eh     change       -0.1838456E+00 Eh
   gradient norm :     0.0546128 Eh/α   predicted    -0.2650161E-02 ( -98.56%)
   displ. norm   :     0.4187803 α      lambda       -0.5053258E-02
   maximum displ.:     0.2495031 α      in ANC's #20, #18, #41, ...

........................................................................
.............................. CYCLE   83 ..............................
........................................................................

 iter      E             dE          RMSdq      gap      omega  full diag
   1   -397.8770198 -0.397877E+03  0.462E-01    0.08       0.0  T
   2   -397.1527158  0.724304E+00  0.133E+00    0.08       1.0  T
   3   -397.5645237 -0.411808E+00  0.958E-01    0.07       1.0  T
   4   -397.6851378 -0.120614E+00  0.839E-01    0.16       1.0  T
   5   -397.6021549  0.829829E-01  0.870E-01    0.06       1.0  T
   6   -397.6365036 -0.343487E-01  0.705E-01    0.12       1.0  T
   7   -397.8187829 -0.182279E+00  0.417E-01    0.11       1.0  T
   8   -397.8566997 -0.379168E-01  0.371E-01    0.07       1.0  T
   9   -397.8719573 -0.152576E-01  0.288E-01    0.09       1.0  T
  10   -397.8900030 -0.180457E-01  0.187E-01    0.08       1.0  T
  11   -397.8930554 -0.305240E-02  0.160E-01    0.08       1.0  T
  12   -397.8948377 -0.178231E-02  0.134E-01    0.08       1.0  T
  13   -397.8980904 -0.325269E-02  0.769E-02    0.08       1.0  T
  14   -397.8993923 -0.130192E-02  0.353E-02    0.08       1.0  T
  15   -397.8996418 -0.249457E-03  0.296E-02    0.08       1.0  T
  16   -397.8997188 -0.770813E-04  0.228E-02    0.08       1.0  T
  17   -397.8998205 -0.101696E-03  0.127E-02    0.08       1.0  T
  18   -397.8998563 -0.357279E-04  0.885E-03    0.08       1.0  T
  19   -397.8998665 -0.102811E-04  0.555E-03    0.08       1.2  T
  20   -397.8998750 -0.845608E-05  0.379E-03    0.08       1.7  T
  21   -397.8998788 -0.382794E-05  0.201E-03    0.08       3.2  T
  22   -397.8998793 -0.475922E-06  0.141E-03    0.08       4.6  T
  23   -397.8998792  0.910385E-07  0.129E-03    0.08       5.0  T
  24   -397.8998795 -0.333490E-06  0.910E-04    0.08       7.1  T
  25   -397.8998792  0.297506E-06  0.114E-03    0.08       5.6  T
  26   -397.8998797 -0.476982E-06  0.534E-04    0.08      12.0  T
     SCC iter.                  ...        0 min,  2.861 sec
     gradient                   ...        0 min,  0.673 sec
 * total energy  :  -340.7937345 Eh     change       -0.2473572E+00 Eh
   gradient norm :     0.0592641 Eh/α   predicted    -0.2970539E-02 ( -98.80%)
   displ. norm   :     0.2572262 α      lambda       -0.4400462E-02
   maximum displ.:     0.1505378 α      in ANC's #20, #41, #18, ...

........................................................................
.............................. CYCLE   84 ..............................
........................................................................

 iter      E             dE          RMSdq      gap      omega  full diag
   1   -397.8855710 -0.397886E+03  0.285E-01    0.08       0.0  T
   2   -397.8141788  0.713922E-01  0.490E-01    0.06       1.0  T
   3   -397.7362630  0.779158E-01  0.681E-01    0.09       1.0  T
   4   -397.7554414 -0.191784E-01  0.622E-01    0.08       1.0  T
   5   -397.8547895 -0.993481E-01  0.309E-01    0.07       1.0  T
   6   -397.8366879  0.181016E-01  0.339E-01    0.09       1.0  T
   7   -397.8797831 -0.430951E-01  0.201E-01    0.08       1.0  T
   8   -397.8829477 -0.316466E-02  0.176E-01    0.08       1.0  T
   9   -397.8900330 -0.708528E-02  0.116E-01    0.07       1.0  T
  10   -397.8923726 -0.233955E-02  0.817E-02    0.08       1.0  T
  11   -397.8939017 -0.152912E-02  0.406E-02    0.08       1.0  T
  12   -397.8937207  0.181029E-03  0.345E-02    0.08       1.0  T
  13   -397.8941147 -0.394076E-03  0.189E-02    0.08       1.0  T
  14   -397.8942115 -0.967678E-04  0.924E-03    0.08       1.0  T
  15   -397.8942226 -0.110749E-04  0.819E-03    0.08       1.0  T
  16   -397.8942319 -0.929575E-05  0.590E-03    0.08       1.1  T
  17   -397.8942365 -0.458272E-05  0.460E-03    0.08       1.4  T
  18   -397.8942429 -0.648535E-05  0.195E-03    0.08       3.3  T
  19   -397.8942442 -0.125509E-05  0.129E-03    0.08       5.0  T
  20   -397.8942447 -0.495301E-06  0.755E-04    0.08       8.5  T
  21   -397.8942447  0.261393E-07  0.612E-04    0.08      10.5  T
     SCC iter.                  ...        0 min,  2.307 sec
     gradient                   ...        0 min,  0.662 sec
 * total energy  :  -340.6443565 Eh     change        0.1493780E+00 Eh
   gradient norm :     0.0372976 Eh/α   predicted    -0.2346152E-02 (-101.57%)
   displ. norm   :     0.0935868 α      lambda       -0.7589197E-03
   maximum displ.:     0.0522865 α      in ANC's #41, #20, #18, ...

........................................................................
.............................. CYCLE   85 ..............................
........................................................................

 iter      E             dE          RMSdq      gap      omega  full diag
   1   -397.8901691 -0.397890E+03  0.108E-01    0.07       0.0  T
   2   -397.8389108  0.512583E-01  0.382E-01    0.08       1.0  T
   3   -397.8335270  0.538374E-02  0.422E-01    0.09       1.0  T
   4   -397.8827774 -0.492504E-01  0.137E-01    0.08       1.0  T
   5   -397.8642629  0.185145E-01  0.227E-01    0.09       1.0  T
   6   -397.8865883 -0.223254E-01  0.115E-01    0.07       1.0  T
   7   -397.8898519 -0.326359E-02  0.685E-02    0.08       1.0  T
   8   -397.8909566 -0.110471E-02  0.408E-02    0.07       1.0  T
   9   -397.8913882 -0.431604E-03  0.209E-02    0.08       1.0  T
  10   -397.8914015 -0.133088E-04  0.175E-02    0.07       1.0  T
  11   -397.8914722 -0.707233E-04  0.110E-02    0.08       1.0  T
  12   -397.8915142 -0.420039E-04  0.413E-03    0.07       1.6  T
  13   -397.8915151 -0.869836E-06  0.339E-03    0.07       1.9  T
  14   -397.8915179 -0.281654E-05  0.194E-03    0.07       3.3  T
  15   -397.8915186 -0.648304E-06  0.135E-03    0.07       4.8  T
  16   -397.8915190 -0.400138E-06  0.749E-04    0.07       8.6  T
  17   -397.8915191 -0.924169E-07  0.470E-04    0.07      13.7  T
     SCC iter.                  ...        0 min,  1.863 sec
     gradient                   ...        0 min,  0.693 sec
 * total energy  :  -340.5911787 Eh     change        0.5317780E-01 Eh
   gradient norm :     0.0291612 Eh/α   predicted    -0.3828213E-03 (-100.72%)
   displ. norm   :     0.0826538 α      lambda       -0.5615351E-03
   maximum displ.:     0.0435844 α      in ANC's #41, #20, #25, ...

........................................................................
.............................. CYCLE   86 ..............................
........................................................................

 iter      E             dE          RMSdq      gap      omega  full diag
   1   -397.8883849 -0.397888E+03  0.995E-02    0.07       0.0  T
   2   -397.8310255  0.573594E-01  0.402E-01    0.08       1.0  T
   3   -397.8454567 -0.144312E-01  0.364E-01    0.09       1.0  T
   4   -397.8768816 -0.314249E-01  0.160E-01    0.07       1.0  T
   5   -397.8734875  0.339418E-02  0.179E-01    0.09       1.0  T
   6   -397.8855370 -0.120496E-01  0.104E-01    0.07       1.0  T
   7   -397.8883312 -0.279416E-02  0.625E-02    0.07       1.0  T
   8   -397.8893791 -0.104788E-02  0.346E-02    0.07       1.0  T
   9   -397.8896219 -0.242770E-03  0.219E-02    0.07       1.0  T
  10   -397.8896966 -0.747031E-04  0.141E-02    0.07       1.0  T
  11   -397.8897394 -0.428617E-04  0.103E-02    0.07       1.0  T
  12   -397.8897693 -0.298528E-04  0.403E-03    0.07       1.6  T
  13   -397.8897727 -0.347805E-05  0.265E-03    0.07       2.4  T
  14   -397.8897744 -0.168557E-05  0.145E-03    0.07       4.4  T
  15   -397.8897749 -0.478958E-06  0.969E-04    0.07       6.6  T
  16   -397.8897751 -0.161988E-06  0.519E-04    0.07      12.4  T
     SCC iter.                  ...        0 min,  1.770 sec
     gradient                   ...        0 min,  0.669 sec
 * total energy  :  -340.5512479 Eh     change        0.3993075E-01 Eh
   gradient norm :     0.0260754 Eh/α   predicted    -0.2828604E-03 (-100.71%)
   displ. norm   :     0.0529250 α      lambda       -0.4734437E-03
   maximum displ.:     0.0274064 α      in ANC's #25, #20, #41, ...

........................................................................
.............................. CYCLE   87 ..............................
........................................................................

 iter      E             dE          RMSdq      gap      omega  full diag
   1   -397.8887311 -0.397889E+03  0.672E-02    0.07       0.0  T
   2   -397.8630214  0.257097E-01  0.272E-01    0.08       1.0  T
   3   -397.8651854 -0.216399E-02  0.267E-01    0.08       1.0  T
   4   -397.8821794 -0.169940E-01  0.121E-01    0.07       1.0  T
   5   -397.8837910 -0.161161E-02  0.108E-01    0.08       1.0  T
   6   -397.8876992 -0.390820E-02  0.667E-02    0.07       1.0  T
   7   -397.8890308 -0.133163E-02  0.364E-02    0.07       1.0  T
   8   -397.8894409 -0.410131E-03  0.170E-02    0.07       1.0  T
   9   -397.8894626 -0.216443E-04  0.144E-02    0.07       1.0  T
  10   -397.8895118 -0.492257E-04  0.670E-03    0.07       1.0  T
  11   -397.8895240 -0.122311E-04  0.490E-03    0.07       1.3  T
  12   -397.8895294 -0.537876E-05  0.236E-03    0.07       2.7  T
  13   -397.8895312 -0.182003E-05  0.121E-03    0.07       5.3  T
  14   -397.8895314 -0.216273E-06  0.800E-04    0.07       8.0  T
  15   -397.8895316 -0.167102E-06  0.468E-04    0.07      13.7  T
     SCC iter.                  ...        0 min,  1.672 sec
     gradient                   ...        0 min,  0.663 sec
 * total energy  :  -340.5375938 Eh     change        0.1365414E-01 Eh
   gradient norm :     0.0266858 Eh/α   predicted    -0.2374352E-03 (-101.74%)
   displ. norm   :     0.0975485 α      lambda       -0.1499386E-02
   maximum displ.:     0.0623516 α      in ANC's #25, #44, #20, ...

........................................................................
.............................. CYCLE   88 ..............................
........................................................................

 iter      E             dE          RMSdq      gap      omega  full diag
   1   -397.8881293 -0.397888E+03  0.126E-01    0.07       0.0  T
   2   -397.8033120  0.848173E-01  0.484E-01    0.07       1.0  T
   3   -397.8084999 -0.518791E-02  0.504E-01    0.09       1.0  T
   4   -397.8683705 -0.598706E-01  0.223E-01    0.07       1.0  T
   5   -397.8789946 -0.106241E-01  0.165E-01    0.07       1.0  T
   6   -397.8877935 -0.879883E-02  0.998E-02    0.07       1.0  T
   7   -397.8900399 -0.224640E-02  0.612E-02    0.07       1.0  T
   8   -397.8912445 -0.120466E-02  0.360E-02    0.06       1.0  T
   9   -397.8911506  0.939591E-04  0.375E-02    0.07       1.0  T
  10   -397.8915594 -0.408803E-03  0.155E-02    0.07       1.0  T
  11   -397.8916308 -0.714084E-04  0.979E-03    0.07       1.0  T
  12   -397.8916495 -0.186872E-04  0.445E-03    0.07       1.4  T
  13   -397.8916548 -0.532079E-05  0.231E-03    0.07       2.8  T
  14   -397.8916543  0.536013E-06  0.233E-03    0.07       2.8  T
  15   -397.8916563 -0.199681E-05  0.703E-04    0.07       9.1  T
  16   -397.8916563 -0.360387E-07  0.505E-04    0.07      12.7  T
  17   -397.8916563 -0.482471E-07  0.306E-04    0.07      21.0  T
     SCC iter.                  ...        0 min,  1.889 sec
     gradient                   ...        0 min,  0.669 sec
 * total energy  :  -340.5516621 Eh     change       -0.1406826E-01 Eh
   gradient norm :     0.0319387 Eh/α   predicted    -0.7564498E-03 ( -94.62%)
   displ. norm   :     0.2162258 α      lambda       -0.3835219E-02
   maximum displ.:     0.1254870 α      in ANC's #25, #44, #24, ...

........................................................................
.............................. CYCLE   89 ..............................
........................................................................

 iter      E             dE          RMSdq      gap      omega  full diag
   1   -397.8863909 -0.397886E+03  0.266E-01    0.06       0.0  T
   2   -397.7469954  0.139396E+00  0.623E-01    0.07       1.0  T
   3   -397.7157930  0.312023E-01  0.789E-01    0.09       1.0  T
   4   -397.7842135 -0.684204E-01  0.537E-01    0.11       1.0  T
   5   -397.8759640 -0.917506E-01  0.244E-01    0.07       1.0  T
   6   -397.8771216 -0.115761E-02  0.238E-01    0.06       1.0  T
   7   -397.8907874 -0.136657E-01  0.169E-01    0.06       1.0  T
   8   -397.8987317 -0.794438E-02  0.101E-01    0.05       1.0  T
   9   -397.8992267 -0.494977E-03  0.905E-02    0.06       1.0  T
  10   -397.9016782 -0.245152E-02  0.396E-02    0.05       1.0  T
  11   -397.9018284 -0.150150E-03  0.304E-02    0.06       1.0  T
  12   -397.9017937  0.346977E-04  0.277E-02    0.06       1.0  T
  13   -397.9020021 -0.208408E-03  0.132E-02    0.06       1.0  T
  14   -397.9020688 -0.667052E-04  0.495E-03    0.06       1.3  T
  15   -397.9020702 -0.140848E-05  0.403E-03    0.06       1.6  T
  16   -397.9020717 -0.152912E-05  0.284E-03    0.06       2.3  T
  17   -397.9020738 -0.205924E-05  0.181E-03    0.06       3.5  T
  18   -397.9020743 -0.497547E-06  0.110E-03    0.06       5.8  T
  19   -397.9020745 -0.170538E-06  0.772E-04    0.06       8.3  T
  20   -397.9020745 -0.126271E-07  0.684E-04    0.06       9.4  T
     SCC iter.                  ...        0 min,  2.226 sec
     gradient                   ...        0 min,  0.678 sec
 * total energy  :  -340.6367129 Eh     change       -0.8505082E-01 Eh
   gradient norm :     0.0454667 Eh/α   predicted    -0.2007385E-02 ( -97.64%)
   displ. norm   :     0.5967738 α      lambda       -0.9965847E-02
   maximum displ.:     0.3216317 α      in ANC's #44, #25, #41, ...

........................................................................
.............................. CYCLE   90 ..............................
........................................................................

 iter      E             dE          RMSdq      gap      omega  full diag
   1   -397.8516123 -0.397852E+03  0.699E-01    0.05       0.0  T
   2   -397.3275910  0.524021E+00  0.121E+00    0.06       1.0  T
   3   -396.4592179  0.868373E+00  0.183E+00    0.12       1.0  T
   4   -397.6830962 -0.122388E+01  0.812E-01    0.07       1.0  T
   5   -397.8634529 -0.180357E+00  0.502E-01    0.09       1.0  T
   6   -397.8601490  0.330388E-02  0.497E-01    0.06       1.0  T
   7   -397.7972303  0.629187E-01  0.508E-01    0.07       1.0  T
   8   -397.8886403 -0.914100E-01  0.335E-01    0.07       1.0  T
   9   -397.9202253 -0.315850E-01  0.250E-01    0.04       1.0  T
  10   -397.9324384 -0.122131E-01  0.138E-01    0.05       1.0  T
  11   -397.9374072 -0.496878E-02  0.886E-02    0.04       1.0  T
  12   -397.9350338  0.237339E-02  0.119E-01    0.04       1.0  T
  13   -397.9381435 -0.310973E-02  0.673E-02    0.04       1.0  T
  14   -397.9384384 -0.294900E-03  0.396E-02    0.04       1.0  T
  15   -397.9388526 -0.414156E-03  0.268E-02    0.04       1.0  T
  16   -397.9390749 -0.222334E-03  0.128E-02    0.04       1.0  T
  17   -397.9390887 -0.137639E-04  0.102E-02    0.04       1.0  T
  18   -397.9390960 -0.730603E-05  0.705E-03    0.04       1.0  T
  19   -397.9391017 -0.576127E-05  0.582E-03    0.04       1.1  T
  20   -397.9391093 -0.754376E-05  0.331E-03    0.04       1.9  T
  21   -397.9391099 -0.602250E-06  0.193E-03    0.04       3.3  T
  22   -397.9391097  0.225533E-06  0.240E-03    0.04       2.7  T
  23   -397.9391105 -0.832923E-06  0.199E-03    0.04       3.2  T
  24   -397.9391111 -0.601373E-06  0.118E-03    0.04       5.4  T
  25   -397.9391113 -0.255634E-06  0.773E-04    0.04       8.3  T
  26   -397.9391115 -0.152183E-06  0.294E-04    0.04      21.9  T
     SCC iter.                  ...        0 min,  2.884 sec
     gradient                   ...        0 min,  0.667 sec
 * total energy  :  -340.4094797 Eh     change        0.2272332E+00 Eh
   gradient norm :     0.0674953 Eh/α   predicted    -0.6758803E-02 (-102.97%)
   displ. norm   :     0.7240644 α      lambda       -0.1208211E-01
   maximum displ.:     0.3626862 α      in ANC's #44, #41, #24, ...

........................................................................
.............................. CYCLE   91 ..............................
........................................................................

 iter      E             dE          RMSdq      gap      omega  full diag
   1   -397.8691347 -0.397869E+03  0.876E-01    0.03       0.0  T
   2   -396.8759927  0.993142E+00  0.165E+00    0.06       1.0  T
   3   -396.6419568  0.234036E+00  0.176E+00    0.04       1.0  T
   4   -397.6311848 -0.989228E+00  0.984E-01    0.12       1.0  T
   5   -397.9084576 -0.277273E+00  0.482E-01    0.03       1.0  T
   6   -397.7768773  0.131580E+00  0.670E-01    0.11       1.0  T
   7   -397.8087919 -0.319146E-01  0.587E-01    0.11       1.0  T
   8   -397.9105066 -0.101715E+00  0.500E-01    0.04       1.0  T
   9   -397.9631805 -0.526739E-01  0.270E-01    0.04       1.0  T
  10   -397.9741417 -0.109612E-01  0.185E-01    0.03       1.0  T
  11   -397.9773698 -0.322817E-02  0.104E-01    0.03       1.0  T
  12   -397.9759175  0.145233E-02  0.124E-01    0.03       1.0  T
  13   -397.9802436 -0.432613E-02  0.349E-02    0.03       1.0  T
  14   -397.9795183  0.725288E-03  0.525E-02    0.03       1.0  T
  15   -397.9805820 -0.106363E-02  0.127E-02    0.03       1.0  T
  16   -397.9805921 -0.100988E-04  0.102E-02    0.03       1.0  T
  17   -397.9806090 -0.168907E-04  0.719E-03    0.03       1.0  T
  18   -397.9806193 -0.103883E-04  0.336E-03    0.03       1.9  T
  19   -397.9806215 -0.215824E-05  0.178E-03    0.03       3.6  T
  20   -397.9806203  0.124061E-05  0.221E-03    0.03       2.9  T
  21   -397.9806221 -0.183620E-05  0.121E-03    0.03       5.3  T
  22   -397.9806223 -0.185369E-06  0.900E-04    0.03       7.1  T
  23   -397.9806223  0.295633E-07  0.805E-04    0.03       8.0  T
     SCC iter.                  ...        0 min,  2.549 sec
     gradient                   ...        0 min,  0.668 sec
 * total energy  :  -339.7378957 Eh     change        0.6715840E+00 Eh
   gradient norm :     0.0813389 Eh/α   predicted    -0.9208971E-02 (-101.37%)
   displ. norm   :     0.7759036 α      lambda       -0.1342661E-01
   maximum displ.:     0.4013868 α      in ANC's #41, #44, #20, ...

........................................................................
.............................. CYCLE   92 ..............................
........................................................................

 iter      E             dE          RMSdq      gap      omega  full diag
   1   -397.9757716 -0.397976E+03  0.637E-01    0.03       0.0  T
   2   -397.7015792  0.274192E+00  0.886E-01    0.05       1.0  T
   3   -396.9957084  0.705871E+00  0.157E+00    0.15       1.0  T
   4   -397.8292278 -0.833519E+00  0.749E-01    0.07       1.0  T
   5   -397.8640232 -0.347954E-01  0.614E-01    0.02       1.0  T
   6   -397.6471927  0.216830E+00  0.823E-01    0.07       1.0  T
   7   -397.9570819 -0.309889E+00  0.459E-01    0.12       1.0  T
   8   -397.9587905 -0.170855E-02  0.390E-01    0.10       1.0  T
   9   -397.9518566  0.693381E-02  0.372E-01    0.11       1.0  T
  10   -397.9900008 -0.381442E-01  0.264E-01    0.04       1.0  T
  11   -398.0023582 -0.123573E-01  0.149E-01    0.01       1.0  T
  12   -398.0053380 -0.297980E-02  0.106E-01    0.01       1.0  T
  13   -398.0052860  0.519437E-04  0.110E-01    0.01       1.0  T
  14   -398.0065004 -0.121439E-02  0.671E-02    0.01       1.0  T
  15   -398.0069248 -0.424404E-03  0.629E-02    0.01       1.0  T
  16   -398.0072155 -0.290702E-03  0.500E-02    0.01       1.0  T
  17   -398.0078520 -0.636440E-03  0.179E-02    0.01       1.0  T
  18   -398.0078725 -0.205555E-04  0.129E-02    0.01       1.0  T
  19   -398.0078746 -0.206391E-05  0.122E-02    0.01       1.0  T
  20   -398.0079074 -0.328146E-04  0.445E-03    0.01       1.4  T
  21   -398.0079102 -0.279124E-05  0.195E-03    0.01       3.3  T
  22   -398.0079109 -0.745835E-06  0.900E-04    0.01       7.1  T
  23   -398.0079106  0.349357E-06  0.122E-03    0.01       5.3  T
  24   -398.0079106  0.402572E-07  0.157E-03    0.01       4.1  T
  25   -398.0079110 -0.453431E-06  0.612E-04    0.01      10.5  T
     SCC iter.                  ...        0 min,  2.764 sec
     gradient                   ...        0 min,  0.664 sec
 * total energy  :  -339.6250000 Eh     change        0.1128958E+00 Eh
   gradient norm :     0.0805365 Eh/α   predicted    -0.1075791E-01 (-109.53%)
   displ. norm   :     0.8084599 α      lambda       -0.1467189E-01
   maximum displ.:     0.4524781 α      in ANC's #41, #44, #20, ...
 * RMSD in coord.:     0.2568316 α      energy gain  -0.6553493E+00 Eh

generating ANC from exact Hessian ...
Using Lindh-Hessian (1995)
 Shifting diagonal of input Hessian by    3.9706397952873891     
 Lowest  eigenvalues of input Hessian
    0.010000    3.970562    3.970603    3.970615    0.000000    0.000000
    0.000000    0.000000    0.000000    0.000000    3.970661    3.970671
    3.970681    3.970692    3.970704    3.970719    3.970748    3.970765
 Highest eigenvalues
   10.114484   11.340562   12.815298   13.925455   14.331786   75.391006


........................................................................
.............................. CYCLE   93 ..............................
........................................................................

 iter      E             dE          RMSdq      gap      omega  full diag
   1   -397.7908246 -0.397791E+03  0.953E-01    0.02       0.0  T
   2   -396.0546129  0.173621E+01  0.175E+00    0.02       1.0  T
   3   -396.6830718 -0.628459E+00  0.182E+00    0.08       1.0  T
   4   -397.6368690 -0.953797E+00  0.999E-01    0.06       1.0  T
   5   -397.3752015  0.261668E+00  0.123E+00    0.06       1.0  T
   6   -397.6717440 -0.296543E+00  0.844E-01    0.06       1.0  T
   7   -397.8440361 -0.172292E+00  0.497E-01    0.10       1.0  T
   8   -397.7644462  0.795899E-01  0.614E-01    0.07       1.0  T
   9   -397.9375403 -0.173094E+00  0.284E-01    0.07       1.0  T
  10   -397.9511477 -0.136074E-01  0.260E-01    0.03       1.0  T
  11   -397.9605134 -0.936577E-02  0.236E-01    0.01       1.0  T
  12   -397.9714497 -0.109363E-01  0.142E-01    0.01       1.0  T
  13   -397.9568220  0.146277E-01  0.223E-01    0.03       1.0  T
  14   -397.9742723 -0.174503E-01  0.119E-01    0.01       1.0  T
  15   -397.9742707  0.167476E-05  0.113E-01    0.00       1.0  T
  16   -397.9772095 -0.293881E-02  0.537E-02    0.01       1.0  T
  17   -397.9780171 -0.807636E-03  0.144E-02    0.01       1.0  T
  18   -397.9780283 -0.111865E-04  0.142E-02    0.01       1.0  T
  19   -397.9779516  0.766764E-04  0.154E-02    0.01       1.0  T
  20   -397.9780785 -0.126932E-03  0.371E-03    0.01       1.7  T
  21   -397.9780783  0.259723E-06  0.344E-03    0.01       1.9  T
  22   -397.9780797 -0.137599E-05  0.285E-03    0.01       2.3  T
  23   -397.9780818 -0.212425E-05  0.176E-03    0.01       3.6  T
  24   -397.9780817  0.115574E-06  0.196E-03    0.01       3.3  T
  25   -397.9780822 -0.537331E-06  0.120E-03    0.01       5.4  T
  26   -397.9780825 -0.260098E-06  0.667E-04    0.01       9.6  T
  27   -397.9780825 -0.601443E-08  0.719E-04    0.01       8.9  T
     SCC iter.                  ...        0 min,  2.997 sec
     gradient                   ...        0 min,  0.647 sec
 * total energy  :  -340.1822351 Eh     change       -0.5572351E+00 Eh
   gradient norm :     0.3323926 Eh/α   predicted     0.0000000E+00 (-100.00%)
   displ. norm   :     0.0661872 α      lambda        0.2984773E+00
   maximum displ.:     0.0610788 α      in ANC's #51, #74, #5, ...

........................................................................
.............................. CYCLE   94 ..............................
........................................................................

 iter      E             dE          RMSdq      gap      omega  full diag
   1   -397.9835195 -0.397984E+03  0.758E-02    0.01       0.0  T
   2   -397.8385328  0.144987E+00  0.596E-01    0.06       1.0  T
   3   -397.9694547 -0.130922E+00  0.163E-01    0.03       1.0  T
   4   -397.9267675  0.426872E-01  0.338E-01    0.04       1.0  T
   5   -397.9823501 -0.555826E-01  0.953E-02    0.01       1.0  T
   6   -397.9821327  0.217421E-03  0.827E-02    0.01       1.0  T
   7   -397.9835439 -0.141127E-02  0.597E-02    0.01       1.0  T
   8   -397.9834969  0.470213E-04  0.504E-02    0.01       1.0  T
   9   -397.9840717 -0.574806E-03  0.354E-02    0.01       1.0  T
  10   -397.9846397 -0.567943E-03  0.717E-03    0.01       1.0  T
  11   -397.9846228  0.168166E-04  0.110E-02    0.01       1.0  T
  12   -397.9846343 -0.114933E-04  0.931E-03    0.01       1.0  T
  13   -397.9846398 -0.544549E-05  0.693E-03    0.01       1.0  T
  14   -397.9846552 -0.153989E-04  0.187E-03    0.01       3.4  T
  15   -397.9846557 -0.556678E-06  0.133E-03    0.01       4.8  T
  16   -397.9846562 -0.421408E-06  0.101E-03    0.01       6.3  T
  17   -397.9846558  0.318541E-06  0.117E-03    0.01       5.5  T
  18   -397.9846561 -0.267903E-06  0.780E-04    0.01       8.2  T
  19   -397.9846563 -0.221967E-06  0.333E-04    0.01      19.3  T
     SCC iter.                  ...        0 min,  2.084 sec
     gradient                   ...        0 min,  0.666 sec
 * total energy  :  -340.1989182 Eh     change       -0.1668315E-01 Eh
   gradient norm :     0.2412822 Eh/α   predicted    -0.1104827E-01 ( -33.78%)
   displ. norm   :     0.1714721 α      lambda       -0.4136930E-01
   maximum displ.:     0.1533492 α      in ANC's #51, #74, #5, ...

........................................................................
.............................. CYCLE   95 ..............................
........................................................................

 iter      E             dE          RMSdq      gap      omega  full diag
   1   -397.9895734 -0.397990E+03  0.204E-01    0.01       0.0  T
   2   -397.6444914  0.345082E+00  0.970E-01    0.11       1.0  T
   3   -397.8689219 -0.224430E+00  0.496E-01    0.07       1.0  T
   4   -397.8198468  0.490751E-01  0.569E-01    0.06       1.0  T
   5   -397.9770899 -0.157243E+00  0.272E-01    0.03       1.0  T
   6   -397.9771489 -0.590394E-04  0.220E-01    0.01       1.0  T
   7   -397.9807015 -0.355251E-02  0.232E-01    0.02       1.0  T
   8   -397.9850263 -0.432482E-02  0.189E-01    0.04       1.0  T
   9   -397.9883956 -0.336936E-02  0.143E-01    0.02       1.0  T
  10   -397.9963148 -0.791917E-02  0.408E-02    0.01       1.0  T
  11   -397.9965675 -0.252673E-03  0.365E-02    0.01       1.0  T
  12   -397.9967812 -0.213777E-03  0.252E-02    0.01       1.0  T
  13   -397.9969523 -0.171049E-03  0.154E-02    0.01       1.0  T
  14   -397.9969647 -0.123976E-04  0.139E-02    0.01       1.0  T
  15   -397.9970017 -0.370014E-04  0.899E-03    0.01       1.0  T
  16   -397.9970211 -0.193715E-04  0.477E-03    0.01       1.3  T
  17   -397.9970227 -0.159973E-05  0.367E-03    0.01       1.8  T
  18   -397.9970255 -0.283908E-05  0.190E-03    0.01       3.4  T
  19   -397.9970261 -0.545030E-06  0.133E-03    0.01       4.8  T
  20   -397.9970260  0.632016E-07  0.130E-03    0.01       4.9  T
  21   -397.9970266 -0.620866E-06  0.478E-04    0.01      13.5  T
  22   -397.9970266 -0.297162E-07  0.379E-04    0.01      17.0  T
     SCC iter.                  ...        0 min,  2.425 sec
     gradient                   ...        0 min,  0.678 sec
 * total energy  :  -340.2076596 Eh     change       -0.8741395E-02 Eh
   gradient norm :     0.0821774 Eh/α   predicted    -0.2129484E-01 ( 143.61%)
   displ. norm   :     0.0571455 α      lambda       -0.3956302E-02
   maximum displ.:     0.0430811 α      in ANC's #51, #74, #60, ...

........................................................................
.............................. CYCLE   96 ..............................
........................................................................

 iter      E             dE          RMSdq      gap      omega  full diag
   1   -397.9997397 -0.398000E+03  0.696E-02    0.02       0.0  T
   2   -397.9117252  0.880145E-01  0.511E-01    0.01       1.0  T
   3   -397.9860003 -0.742751E-01  0.159E-01    0.03       1.0  T
   4   -397.9364992  0.495011E-01  0.336E-01    0.03       1.0  T
   5   -397.9920562 -0.555570E-01  0.157E-01    0.03       1.0  T
   6   -397.9972633 -0.520709E-02  0.973E-02    0.01       1.0  T
   7   -397.9988218 -0.155854E-02  0.717E-02    0.02       1.0  T
   8   -397.9996611 -0.839228E-03  0.534E-02    0.02       1.0  T
   9   -398.0004347 -0.773648E-03  0.214E-02    0.02       1.0  T
  10   -398.0005627 -0.127934E-03  0.171E-02    0.01       1.0  T
  11   -398.0005605  0.212728E-05  0.162E-02    0.02       1.0  T
  12   -398.0006009 -0.404246E-04  0.114E-02    0.01       1.0  T
  13   -398.0006272 -0.262496E-04  0.431E-03    0.01       1.5  T
  14   -398.0006318 -0.458865E-05  0.371E-03    0.02       1.7  T
  15   -398.0006333 -0.152252E-05  0.259E-03    0.02       2.5  T
  16   -398.0006340 -0.695761E-06  0.151E-03    0.02       4.3  T
  17   -398.0006335  0.503108E-06  0.150E-03    0.02       4.3  T
  18   -398.0006340 -0.531346E-06  0.905E-04    0.02       7.1  T
  19   -398.0006343 -0.274650E-06  0.465E-04    0.02      13.8  T
     SCC iter.                  ...        0 min,  2.088 sec
     gradient                   ...        0 min,  0.661 sec
 * total energy  :  -340.1984044 Eh     change        0.9255218E-02 Eh
   gradient norm :     0.0763353 Eh/α   predicted    -0.1984749E-02 (-121.44%)
   displ. norm   :     0.0619640 α      lambda       -0.3186030E-02
   maximum displ.:     0.0475802 α      in ANC's #74, #51, #1, ...

........................................................................
.............................. CYCLE   97 ..............................
........................................................................

 iter      E             dE          RMSdq      gap      omega  full diag
   1   -398.0034906 -0.398003E+03  0.749E-02    0.02       0.0  T
   2   -397.8467650  0.156726E+00  0.645E-01    0.04       1.0  T
   3   -397.9868658 -0.140101E+00  0.179E-01    0.04       1.0  T
   4   -397.9733098  0.135559E-01  0.236E-01    0.02       1.0  T
   5   -397.9946163 -0.213065E-01  0.174E-01    0.03       1.0  T
   6   -398.0018078 -0.719145E-02  0.975E-02    0.02       1.0  T
   7   -398.0015344  0.273382E-03  0.911E-02    0.03       1.0  T
   8   -398.0031213 -0.158692E-02  0.660E-02    0.03       1.0  T
   9   -398.0043261 -0.120478E-02  0.360E-02    0.02       1.0  T
  10   -398.0045857 -0.259617E-03  0.222E-02    0.02       1.0  T
  11   -398.0046048 -0.190696E-04  0.193E-02    0.02       1.0  T
  12   -398.0046524 -0.476165E-04  0.115E-02    0.02       1.0  T
  13   -398.0046811 -0.287264E-04  0.673E-03    0.02       1.0  T
  14   -398.0046926 -0.114773E-04  0.437E-03    0.02       1.5  T
  15   -398.0046945 -0.192248E-05  0.294E-03    0.02       2.2  T
  16   -398.0046954 -0.852829E-06  0.164E-03    0.02       3.9  T
  17   -398.0046954  0.159827E-08  0.954E-04    0.02       6.7  T
  18   -398.0046956 -0.179532E-06  0.819E-04    0.02       7.9  T
     SCC iter.                  ...        0 min,  1.985 sec
     gradient                   ...        0 min,  0.658 sec
 * total energy  :  -340.1833558 Eh     change        0.1504861E-01 Eh
   gradient norm :     0.0838916 Eh/α   predicted    -0.1599470E-02 (-110.63%)
   displ. norm   :     0.1102974 α      lambda       -0.5326930E-02
   maximum displ.:     0.0960106 α      in ANC's #74, #51, #1, ...

........................................................................
.............................. CYCLE   98 ..............................
........................................................................

 iter      E             dE          RMSdq      gap      omega  full diag
   1   -398.0064762 -0.398006E+03  0.133E-01    0.02       0.0  T
   2   -397.6372017  0.369274E+00  0.963E-01    0.14       1.0  T
   3   -397.9790679 -0.341866E+00  0.249E-01    0.07       1.0  T
   4   -397.9617446  0.173232E-01  0.298E-01    0.02       1.0  T
   5   -397.9994672 -0.377226E-01  0.184E-01    0.04       1.0  T
   6   -398.0057260 -0.625873E-02  0.112E-01    0.04       1.0  T
   7   -398.0011957  0.453022E-02  0.146E-01    0.05       1.0  T
   8   -398.0061037 -0.490799E-02  0.103E-01    0.03       1.0  T
   9   -398.0096450 -0.354130E-02  0.583E-02    0.02       1.0  T
  10   -398.0106265 -0.981505E-03  0.267E-02    0.02       1.0  T
  11   -398.0107778 -0.151281E-03  0.129E-02    0.03       1.0  T
  12   -398.0107970 -0.192221E-04  0.906E-03    0.03       1.0  T
  13   -398.0108006 -0.360008E-05  0.635E-03    0.03       1.0  T
  14   -398.0108147 -0.140839E-04  0.421E-03    0.03       1.5  T
  15   -398.0108170 -0.224834E-05  0.297E-03    0.03       2.2  T
  16   -398.0108186 -0.166553E-05  0.192E-03    0.03       3.3  T
  17   -398.0108193 -0.688511E-06  0.995E-04    0.03       6.5  T
  18   -398.0108195 -0.169380E-06  0.678E-04    0.03       9.5  T
     SCC iter.                  ...        0 min,  1.988 sec
     gradient                   ...        0 min,  0.656 sec
 * total energy  :  -340.1628529 Eh     change        0.2050288E-01 Eh
   gradient norm :     0.0920567 Eh/α   predicted    -0.2696289E-02 (-113.15%)
   displ. norm   :     0.1533111 α      lambda       -0.6819207E-02
   maximum displ.:     0.1394912 α      in ANC's #74, #1, #15, ...

........................................................................
.............................. CYCLE   99 ..............................
........................................................................

 iter      E             dE          RMSdq      gap      omega  full diag
   1   -398.0071116 -0.398007E+03  0.179E-01    0.02       0.0  T
   2   -397.4937033  0.513408E+00  0.113E+00    0.24       1.0  T
   3   -397.9971089 -0.503406E+00  0.233E-01    0.07       1.0  T
   4   -397.9463121  0.507968E-01  0.359E-01    0.02       1.0  T
   5   -397.9813452 -0.350331E-01  0.257E-01    0.06       1.0  T
   6   -397.9958093 -0.144642E-01  0.257E-01    0.04       1.0  T
   7   -398.0007906 -0.498124E-02  0.184E-01    0.06       1.0  T
   8   -398.0028118 -0.202118E-02  0.171E-01    0.04       1.0  T
   9   -398.0151070 -0.122952E-01  0.479E-02    0.03       1.0  T
  10   -398.0157639 -0.656914E-03  0.154E-02    0.03       1.0  T
  11   -398.0158499 -0.860012E-04  0.996E-03    0.03       1.0  T
  12   -398.0158288  0.211331E-04  0.124E-02    0.03       1.0  T
  13   -398.0158293 -0.499691E-06  0.950E-03    0.03       1.0  T
  14   -398.0158547 -0.253887E-04  0.650E-03    0.03       1.0  T
  15   -398.0158697 -0.150267E-04  0.378E-03    0.03       1.7  T
  16   -398.0158710 -0.133411E-05  0.353E-03    0.03       1.8  T
  17   -398.0158737 -0.261712E-05  0.155E-03    0.03       4.1  T
  18   -398.0158737 -0.370068E-07  0.126E-03    0.03       5.1  T
  19   -398.0158738 -0.796469E-07  0.117E-03    0.03       5.5  T
  20   -398.0158741 -0.342185E-06  0.482E-04    0.03      13.3  T
  21   -398.0158741 -0.206736E-07  0.362E-04    0.03      17.8  T
     SCC iter.                  ...        0 min,  2.310 sec
     gradient                   ...        0 min,  0.669 sec
 * total energy  :  -340.1667142 Eh     change       -0.3861262E-02 Eh
   gradient norm :     0.0888516 Eh/α   predicted    -0.3491324E-02 (  -9.58%)
   displ. norm   :     0.1234770 α      lambda       -0.5186181E-02
   maximum displ.:     0.1100631 α      in ANC's #74, #1, #15, ...

........................................................................
.............................. CYCLE  100 ..............................
........................................................................

 iter      E             dE          RMSdq      gap      omega  full diag
   1   -398.0103950 -0.398010E+03  0.137E-01    0.03       0.0  T
   2   -397.5895843  0.420811E+00  0.974E-01    0.22       1.0  T
   3   -398.0013203 -0.411736E+00  0.202E-01    0.06       1.0  T
   4   -397.9742878  0.270326E-01  0.290E-01    0.02       1.0  T
   5   -397.9862023 -0.119145E-01  0.245E-01    0.06       1.0  T
   6   -398.0087624 -0.225601E-01  0.164E-01    0.04       1.0  T
   7   -398.0079139  0.848581E-03  0.131E-01    0.05       1.0  T
   8   -398.0150901 -0.717626E-02  0.559E-02    0.03       1.0  T
   9   -398.0155469 -0.456752E-03  0.341E-02    0.03       1.0  T
  10   -398.0159714 -0.424485E-03  0.194E-02    0.03       1.0  T
  11   -398.0161146 -0.143231E-03  0.125E-02    0.03       1.0  T
  12   -398.0161185 -0.394505E-05  0.110E-02    0.03       1.0  T
  13   -398.0161453 -0.268036E-04  0.597E-03    0.03       1.1  T
  14   -398.0161523 -0.693656E-05  0.268E-03    0.03       2.4  T
  15   -398.0161541 -0.178978E-05  0.174E-03    0.03       3.7  T
  16   -398.0161537  0.343185E-06  0.210E-03    0.03       3.1  T
  17   -398.0161544 -0.710073E-06  0.119E-03    0.03       5.4  T
  18   -398.0161547 -0.232531E-06  0.747E-04    0.03       8.6  T
  19   -398.0161548 -0.114079E-06  0.508E-04    0.03      12.7  T
     SCC iter.                  ...        0 min,  2.079 sec
     gradient                   ...        0 min,  0.671 sec
 * total energy  :  -340.2002831 Eh     change       -0.3356893E-01 Eh
   gradient norm :     0.0775401 Eh/α   predicted    -0.2633077E-02 ( -92.16%)
   displ. norm   :     0.0911204 α      lambda       -0.4328958E-02
   maximum displ.:     0.0643671 α      in ANC's #74, #51, #1, ...

........................................................................
.............................. CYCLE  101 ..............................
........................................................................

 iter      E             dE          RMSdq      gap      omega  full diag
   1   -398.0102857 -0.398010E+03  0.987E-02    0.03       0.0  T
   2   -397.7517693  0.258516E+00  0.713E-01    0.15       1.0  T
   3   -397.9914013 -0.239632E+00  0.210E-01    0.05       1.0  T
   4   -397.9798204  0.115809E-01  0.280E-01    0.02       1.0  T
   5   -398.0048984 -0.250780E-01  0.150E-01    0.05       1.0  T
   6   -398.0104255 -0.552706E-02  0.894E-02    0.04       1.0  T
   7   -398.0110587 -0.633245E-03  0.710E-02    0.04       1.0  T
   8   -398.0125903 -0.153158E-02  0.467E-02    0.04       1.0  T
   9   -398.0125881  0.218107E-05  0.373E-02    0.03       1.0  T
  10   -398.0131000 -0.511925E-03  0.149E-02    0.03       1.0  T
  11   -398.0132031 -0.103032E-03  0.534E-03    0.03       1.2  T
  12   -398.0132038 -0.718180E-06  0.488E-03    0.03       1.3  T
  13   -398.0132111 -0.735983E-05  0.272E-03    0.03       2.4  T
  14   -398.0132116 -0.427028E-06  0.195E-03    0.03       3.3  T
  15   -398.0132127 -0.109819E-05  0.851E-04    0.03       7.5  T
  16   -398.0132126  0.771024E-07  0.900E-04    0.03       7.1  T
  17   -398.0132127 -0.153673E-06  0.641E-04    0.03      10.0  T
     SCC iter.                  ...        0 min,  1.864 sec
     gradient                   ...        0 min,  0.678 sec
 * total energy  :  -340.2316610 Eh     change       -0.3137794E-01 Eh
   gradient norm :     0.0616359 Eh/α   predicted    -0.2182478E-02 ( -93.04%)
   displ. norm   :     0.0636211 α      lambda       -0.2786245E-02
   maximum displ.:     0.0477115 α      in ANC's #51, #60, #1, ...

........................................................................
.............................. CYCLE  102 ..............................
........................................................................

 iter      E             dE          RMSdq      gap      omega  full diag
   1   -398.0086816 -0.398009E+03  0.719E-02    0.04       0.0  T
   2   -397.9904210  0.182606E-01  0.205E-01    0.03       1.0  T
   3   -397.9690773  0.213437E-01  0.279E-01    0.08       1.0  T
   4   -397.9948461 -0.257688E-01  0.182E-01    0.03       1.0  T
   5   -398.0040543 -0.920822E-02  0.120E-01    0.03       1.0  T
   6   -398.0029699  0.108441E-02  0.120E-01    0.05       1.0  T
   7   -398.0090235 -0.605361E-02  0.445E-02    0.03       1.0  T
   8   -398.0093777 -0.354177E-03  0.285E-02    0.03       1.0  T
   9   -398.0095683 -0.190606E-03  0.178E-02    0.03       1.0  T
  10   -398.0096722 -0.103860E-03  0.805E-03    0.03       1.0  T
  11   -398.0096748 -0.266131E-05  0.773E-03    0.03       1.0  T
  12   -398.0096838 -0.901481E-05  0.505E-03    0.03       1.3  T
  13   -398.0096887 -0.483797E-05  0.306E-03    0.03       2.1  T
  14   -398.0096914 -0.273047E-05  0.138E-03    0.03       4.7  T
  15   -398.0096921 -0.725884E-06  0.553E-04    0.03      11.6  T
  16   -398.0096921  0.236588E-07  0.581E-04    0.03      11.1  T
     SCC iter.                  ...        0 min,  1.765 sec
     gradient                   ...        0 min,  0.669 sec
 * total energy  :  -340.2348269 Eh     change       -0.3165835E-02 Eh
   gradient norm :     0.0480539 Eh/α   predicted    -0.1398824E-02 ( -55.82%)
   displ. norm   :     0.0316081 α      lambda       -0.9508419E-03
   maximum displ.:     0.0176024 α      in ANC's #60, #51, #74, ...

........................................................................
.............................. CYCLE  103 ..............................
........................................................................

 iter      E             dE          RMSdq      gap      omega  full diag
   1   -398.0075883 -0.398008E+03  0.374E-02    0.03       0.0  T
   2   -397.9675089  0.400794E-01  0.317E-01    0.01       1.0  T
   3   -398.0050080 -0.374992E-01  0.759E-02    0.03       1.0  T
   4   -398.0000973  0.491070E-02  0.120E-01    0.05       1.0  T
   5   -398.0066680 -0.657064E-02  0.569E-02    0.03       1.0  T
   6   -398.0069330 -0.265049E-03  0.453E-02    0.04       1.0  T
   7   -398.0076143 -0.681228E-03  0.224E-02    0.03       1.0  T
   8   -398.0078307 -0.216435E-03  0.986E-03    0.03       1.0  T
   9   -398.0078314 -0.728629E-06  0.865E-03    0.03       1.0  T
  10   -398.0078503 -0.188441E-04  0.538E-03    0.03       1.2  T
  11   -398.0078564 -0.614703E-05  0.316E-03    0.03       2.0  T
  12   -398.0078579 -0.148143E-05  0.197E-03    0.03       3.3  T
  13   -398.0078592 -0.132996E-05  0.847E-04    0.03       7.6  T
  14   -398.0078594 -0.182079E-06  0.526E-04    0.03      12.2  T
  15   -398.0078595 -0.495796E-07  0.318E-04    0.03      20.2  T
     SCC iter.                  ...        0 min,  1.673 sec
     gradient                   ...        0 min,  0.664 sec
 * total energy  :  -340.2226051 Eh     change        0.1222181E-01 Eh
   gradient norm :     0.0423130 Eh/α   predicted    -0.4760482E-03 (-103.90%)
   displ. norm   :     0.0368246 α      lambda       -0.1157309E-02
   maximum displ.:     0.0206329 α      in ANC's #60, #1, #74, ...

........................................................................
.............................. CYCLE  104 ..............................
........................................................................

 iter      E             dE          RMSdq      gap      omega  full diag
   1   -398.0051211 -0.398005E+03  0.413E-02    0.03       0.0  T
   2   -397.9420576  0.630635E-01  0.378E-01    0.02       1.0  T
   3   -398.0039476 -0.618899E-01  0.601E-02    0.03       1.0  T
   4   -398.0024417  0.150585E-02  0.833E-02    0.04       1.0  T
   5   -398.0021418  0.299939E-03  0.811E-02    0.02       1.0  T
   6   -398.0044581 -0.231630E-02  0.487E-02    0.04       1.0  T
   7   -398.0050611 -0.603080E-03  0.304E-02    0.03       1.0  T
   8   -398.0054592 -0.398084E-03  0.837E-03    0.03       1.0  T
   9   -398.0054561  0.311170E-05  0.917E-03    0.03       1.0  T
  10   -398.0054740 -0.179218E-04  0.519E-03    0.03       1.2  T
  11   -398.0054826 -0.852624E-05  0.192E-03    0.03       3.4  T
  12   -398.0054824  0.207976E-06  0.182E-03    0.03       3.5  T
  13   -398.0054835 -0.118692E-05  0.684E-04    0.03       9.4  T
  14   -398.0054836 -0.584679E-07  0.485E-04    0.03      13.2  T
  15   -398.0054837 -0.711457E-07  0.217E-04    0.03      29.6  T
     SCC iter.                  ...        0 min,  1.667 sec
     gradient                   ...        0 min,  0.676 sec
 * total energy  :  -340.2038671 Eh     change        0.1873797E-01 Eh
   gradient norm :     0.0379804 Eh/α   predicted    -0.5798854E-03 (-103.09%)
   displ. norm   :     0.0540043 α      lambda       -0.1477159E-02
   maximum displ.:     0.0314565 α      in ANC's #1, #23, #60, ...

........................................................................
.............................. CYCLE  105 ..............................
........................................................................

 iter      E             dE          RMSdq      gap      omega  full diag
   1   -398.0015035 -0.398002E+03  0.504E-02    0.03       0.0  T
   2   -397.9586172  0.428863E-01  0.290E-01    0.03       1.0  T
   3   -397.9908711 -0.322539E-01  0.152E-01    0.02       1.0  T
   4   -397.9998723 -0.900125E-02  0.807E-02    0.04       1.0  T
   5   -397.9940043  0.586802E-02  0.129E-01    0.02       1.0  T
   6   -398.0003510 -0.634667E-02  0.632E-02    0.04       1.0  T
   7   -398.0004859 -0.134919E-03  0.557E-02    0.03       1.0  T
   8   -398.0015942 -0.110827E-02  0.219E-02    0.03       1.0  T
   9   -398.0017834 -0.189183E-03  0.130E-02    0.03       1.0  T
  10   -398.0018318 -0.484757E-04  0.810E-03    0.03       1.0  T
  11   -398.0018476 -0.157381E-04  0.446E-03    0.03       1.4  T
  12   -398.0018549 -0.736215E-05  0.237E-03    0.03       2.7  T
  13   -398.0018564 -0.150513E-05  0.140E-03    0.03       4.6  T
  14   -398.0018571 -0.695239E-06  0.601E-04    0.03      10.7  T
  15   -398.0018572 -0.541746E-07  0.418E-04    0.03      15.4  T
     SCC iter.                  ...        0 min,  1.664 sec
     gradient                   ...        0 min,  0.671 sec
 * total energy  :  -340.1837972 Eh     change        0.2006989E-01 Eh
   gradient norm :     0.0399359 Eh/α   predicted    -0.7408248E-03 (-103.69%)
   displ. norm   :     0.0651281 α      lambda       -0.1254256E-02
   maximum displ.:     0.0401658 α      in ANC's #1, #23, #21, ...

........................................................................
.............................. CYCLE  106 ..............................
........................................................................

 iter      E             dE          RMSdq      gap      omega  full diag
   1   -397.9972666 -0.397997E+03  0.538E-02    0.03       0.0  T
   2   -397.9928281  0.443857E-02  0.112E-01    0.04       1.0  T
   3   -397.9722071  0.206210E-01  0.249E-01    0.01       1.0  T
   4   -397.9895688 -0.173617E-01  0.129E-01    0.04       1.0  T
   5   -397.9827038  0.686498E-02  0.182E-01    0.03       1.0  T
   6   -397.9959306 -0.132267E-01  0.624E-02    0.03       1.0  T
   7   -397.9960584 -0.127777E-03  0.553E-02    0.04       1.0  T
   8   -397.9973536 -0.129525E-02  0.160E-02    0.03       1.0  T
   9   -397.9974272 -0.735989E-04  0.117E-02    0.03       1.0  T
  10   -397.9974723 -0.450682E-04  0.638E-03    0.03       1.0  T
  11   -397.9974781 -0.584866E-05  0.480E-03    0.03       1.3  T
  12   -397.9974855 -0.742813E-05  0.189E-03    0.03       3.4  T
  13   -397.9974849  0.605516E-06  0.202E-03    0.03       3.2  T
  14   -397.9974860 -0.108653E-05  0.999E-04    0.03       6.4  T
  15   -397.9974861 -0.767170E-07  0.800E-04    0.03       8.0  T
  16   -397.9974863 -0.158734E-06  0.464E-04    0.03      13.8  T
     SCC iter.                  ...        0 min,  1.794 sec
     gradient                   ...        0 min,  0.685 sec
 * total energy  :  -340.1734220 Eh     change        0.1037523E-01 Eh
   gradient norm :     0.0461030 Eh/α   predicted    -0.6309164E-03 (-106.08%)
   displ. norm   :     0.0779203 α      lambda       -0.1232132E-02
   maximum displ.:     0.0495794 α      in ANC's #1, #23, #74, ...

........................................................................
.............................. CYCLE  107 ..............................
........................................................................

 iter      E             dE          RMSdq      gap      omega  full diag
   1   -397.9914391 -0.397991E+03  0.639E-02    0.03       0.0  T
   2   -397.9590594  0.323797E-01  0.285E-01    0.03       1.0  T
   3   -397.9800437 -0.209843E-01  0.159E-01    0.03       1.0  T
   4   -397.9606657  0.193780E-01  0.242E-01    0.03       1.0  T
   5   -397.9842527 -0.235870E-01  0.145E-01    0.06       1.0  T
   6   -397.9904902 -0.623754E-02  0.619E-02    0.03       1.0  T
   7   -397.9906047 -0.114531E-03  0.565E-02    0.04       1.0  T
   8   -397.9916318 -0.102703E-02  0.247E-02    0.04       1.0  T
   9   -397.9917701 -0.138386E-03  0.139E-02    0.04       1.0  T
  10   -397.9917776 -0.745495E-05  0.111E-02    0.04       1.0  T
  11   -397.9918051 -0.275056E-04  0.644E-03    0.03       1.0  T
  12   -397.9918188 -0.136654E-04  0.289E-03    0.03       2.2  T
  13   -397.9918186  0.131575E-06  0.251E-03    0.03       2.6  T
  14   -397.9918205 -0.182997E-05  0.196E-03    0.03       3.3  T
  15   -397.9918213 -0.857670E-06  0.920E-04    0.03       7.0  T
  16   -397.9918214 -0.907011E-07  0.743E-04    0.03       8.6  T
     SCC iter.                  ...        0 min,  1.770 sec
     gradient                   ...        0 min,  0.663 sec
 * total energy  :  -340.1692256 Eh     change        0.4196411E-02 Eh
   gradient norm :     0.0498262 Eh/α   predicted    -0.6198688E-03 (-114.77%)
   displ. norm   :     0.1047703 α      lambda       -0.1652399E-02
   maximum displ.:     0.0707433 α      in ANC's #1, #23, #21, ...

........................................................................
.............................. CYCLE  108 ..............................
........................................................................

 iter      E             dE          RMSdq      gap      omega  full diag
   1   -397.9820202 -0.397982E+03  0.862E-02    0.04       0.0  T
   2   -397.8851748  0.968455E-01  0.454E-01    0.05       1.0  T
   3   -397.9604724 -0.752976E-01  0.209E-01    0.04       1.0  T
   4   -397.9514654  0.900695E-02  0.257E-01    0.03       1.0  T
   5   -397.9685713 -0.171059E-01  0.201E-01    0.08       1.0  T
   6   -397.9808198 -0.122485E-01  0.788E-02    0.03       1.0  T
   7   -397.9815538 -0.734038E-03  0.669E-02    0.05       1.0  T
   8   -397.9823673 -0.813434E-03  0.399E-02    0.04       1.0  T
   9   -397.9826290 -0.261724E-03  0.268E-02    0.04       1.0  T
  10   -397.9827625 -0.133503E-03  0.189E-02    0.04       1.0  T
  11   -397.9828593 -0.968302E-04  0.102E-02    0.04       1.0  T
  12   -397.9828798 -0.205233E-04  0.491E-03    0.04       1.3  T
  13   -397.9828755  0.438022E-05  0.477E-03    0.04       1.3  T
  14   -397.9828867 -0.112345E-04  0.196E-03    0.04       3.3  T
  15   -397.9828873 -0.560888E-06  0.153E-03    0.04       4.2  T
  16   -397.9828879 -0.593145E-06  0.897E-04    0.04       7.2  T
  17   -397.9828880 -0.151004E-06  0.593E-04    0.04      10.8  T
     SCC iter.                  ...        0 min,  1.894 sec
     gradient                   ...        0 min,  0.660 sec
 * total energy  :  -340.1628841 Eh     change        0.6341462E-02 Eh
   gradient norm :     0.0480745 Eh/α   predicted    -0.8353499E-03 (-113.17%)
   displ. norm   :     0.1227598 α      lambda       -0.2026064E-02
   maximum displ.:     0.0880709 α      in ANC's #1, #23, #21, ...

........................................................................
.............................. CYCLE  109 ..............................
........................................................................

 iter      E             dE          RMSdq      gap      omega  full diag
   1   -397.9691115 -0.397969E+03  0.102E-01    0.05       0.0  T
   2   -397.8099973  0.159114E+00  0.556E-01    0.06       1.0  T
   3   -397.9390164 -0.129019E+00  0.246E-01    0.05       1.0  T
   4   -397.9482206 -0.920416E-02  0.221E-01    0.04       1.0  T
   5   -397.9521324 -0.391184E-02  0.225E-01    0.09       1.0  T
   6   -397.9664400 -0.143075E-01  0.114E-01    0.03       1.0  T
   7   -397.9684781 -0.203816E-02  0.808E-02    0.05       1.0  T
   8   -397.9697978 -0.131971E-02  0.439E-02    0.05       1.0  T
   9   -397.9701206 -0.322780E-03  0.302E-02    0.05       1.0  T
  10   -397.9704241 -0.303491E-03  0.172E-02    0.05       1.0  T
  11   -397.9704945 -0.704190E-04  0.112E-02    0.04       1.0  T
  12   -397.9705251 -0.305859E-04  0.461E-03    0.04       1.4  T
  13   -397.9705169  0.815622E-05  0.502E-03    0.04       1.3  T
  14   -397.9705272 -0.102209E-04  0.307E-03    0.04       2.1  T
  15   -397.9705287 -0.154509E-05  0.205E-03    0.04       3.1  T
  16   -397.9705302 -0.152123E-05  0.103E-03    0.04       6.3  T
  17   -397.9705305 -0.223581E-06  0.626E-04    0.04      10.3  T
  18   -397.9705303  0.166080E-06  0.783E-04    0.04       8.2  T
     SCC iter.                  ...        0 min,  2.006 sec
     gradient                   ...        0 min,  0.651 sec
 * total energy  :  -340.1415597 Eh     change        0.2132435E-01 Eh
   gradient norm :     0.0394158 Eh/α   predicted    -0.1028380E-02 (-104.82%)
   displ. norm   :     0.1091215 α      lambda       -0.1857315E-02
   maximum displ.:     0.0784216 α      in ANC's #1, #23, #21, ...

........................................................................
.............................. CYCLE  110 ..............................
........................................................................

 iter      E             dE          RMSdq      gap      omega  full diag
   1   -397.9577139 -0.397958E+03  0.913E-02    0.05       0.0  T
   2   -397.8522480  0.105466E+00  0.442E-01    0.04       1.0  T
   3   -397.9242401 -0.719920E-01  0.255E-01    0.06       1.0  T
   4   -397.9453933 -0.211532E-01  0.179E-01    0.05       1.0  T
   5   -397.9546186 -0.922531E-02  0.104E-01    0.05       1.0  T
   6   -397.9531975  0.142114E-02  0.125E-01    0.07       1.0  T
   7   -397.9510376  0.215984E-02  0.148E-01    0.03       1.0  T
   8   -397.9582016 -0.716392E-02  0.413E-02    0.05       1.0  T
   9   -397.9586575 -0.455965E-03  0.205E-02    0.05       1.0  T
  10   -397.9588157 -0.158174E-03  0.126E-02    0.05       1.0  T
  11   -397.9588346 -0.189215E-04  0.105E-02    0.05       1.0  T
  12   -397.9588678 -0.331765E-04  0.370E-03    0.05       1.7  T
  13   -397.9588687 -0.882539E-06  0.224E-03    0.05       2.9  T
  14   -397.9588700 -0.136646E-05  0.168E-03    0.05       3.8  T
  15   -397.9588706 -0.527041E-06  0.102E-03    0.05       6.3  T
  16   -397.9588709 -0.290229E-06  0.685E-04    0.05       9.4  T
  17   -397.9588710 -0.108285E-06  0.402E-04    0.05      16.0  T
     SCC iter.                  ...        0 min,  1.898 sec
     gradient                   ...        0 min,  0.669 sec
 * total energy  :  -340.0931586 Eh     change        0.4840115E-01 Eh
   gradient norm :     0.0289141 Eh/α   predicted    -0.9397356E-03 (-101.94%)
   displ. norm   :     0.0746030 α      lambda       -0.1212545E-02
   maximum displ.:     0.0452957 α      in ANC's #74, #1, #51, ...

........................................................................
.............................. CYCLE  111 ..............................
........................................................................

 iter      E             dE          RMSdq      gap      omega  full diag
   1   -397.9524056 -0.397952E+03  0.689E-02    0.06       0.0  T
   2   -397.9332634  0.191422E-01  0.255E-01    0.02       1.0  T
   3   -397.9432902 -0.100268E-01  0.178E-01    0.06       1.0  T
   4   -397.9401909  0.309923E-02  0.178E-01    0.04       1.0  T
   5   -397.9461559 -0.596500E-02  0.116E-01    0.04       1.0  T
   6   -397.9408944  0.526148E-02  0.143E-01    0.06       1.0  T
   7   -397.9523220 -0.114275E-01  0.400E-02    0.05       1.0  T
   8   -397.9525389 -0.216904E-03  0.340E-02    0.05       1.0  T
   9   -397.9528216 -0.282691E-03  0.191E-02    0.05       1.0  T
  10   -397.9529960 -0.174382E-03  0.947E-03    0.05       1.0  T
  11   -397.9529986 -0.267599E-05  0.810E-03    0.05       1.0  T
  12   -397.9530108 -0.121835E-04  0.489E-03    0.05       1.3  T
  13   -397.9530162 -0.542259E-05  0.183E-03    0.05       3.5  T
  14   -397.9530170 -0.747976E-06  0.113E-03    0.05       5.7  T
  15   -397.9530172 -0.221258E-06  0.837E-04    0.05       7.7  T
  16   -397.9530173 -0.109464E-06  0.530E-04    0.05      12.1  T
     SCC iter.                  ...        0 min,  1.796 sec
     gradient                   ...        0 min,  0.673 sec
 * total energy  :  -340.0261289 Eh     change        0.6702965E-01 Eh
   gradient norm :     0.0229234 Eh/α   predicted    -0.6096863E-03 (-100.91%)
   displ. norm   :     0.0436250 α      lambda       -0.4745299E-03
   maximum displ.:     0.0367388 α      in ANC's #74, #51, #23, ...

........................................................................
.............................. CYCLE  112 ..............................
........................................................................

 iter      E             dE          RMSdq      gap      omega  full diag
   1   -397.9526121 -0.397953E+03  0.513E-02    0.05       0.0  T
   2   -397.8835098  0.691023E-01  0.412E-01    0.02       1.0  T
   3   -397.9481785 -0.646688E-01  0.102E-01    0.04       1.0  T
   4   -397.9478599  0.318621E-03  0.106E-01    0.06       1.0  T
   5   -397.9483076 -0.447728E-03  0.105E-01    0.04       1.0  T
   6   -397.9520282 -0.372060E-02  0.491E-02    0.05       1.0  T
   7   -397.9529300 -0.901783E-03  0.235E-02    0.05       1.0  T
   8   -397.9529825 -0.525086E-04  0.215E-02    0.05       1.0  T
   9   -397.9531452 -0.162689E-03  0.748E-03    0.05       1.0  T
  10   -397.9531541 -0.888246E-05  0.483E-03    0.05       1.3  T
  11   -397.9531573 -0.316052E-05  0.340E-03    0.05       1.9  T
  12   -397.9531593 -0.206223E-05  0.240E-03    0.05       2.7  T
  13   -397.9531604 -0.102779E-05  0.189E-03    0.05       3.4  T
  14   -397.9531611 -0.771685E-06  0.125E-03    0.05       5.1  T
  15   -397.9531614 -0.309527E-06  0.713E-04    0.05       9.0  T
  16   -397.9531616 -0.122017E-06  0.338E-04    0.05      19.0  T
     SCC iter.                  ...        0 min,  1.813 sec
     gradient                   ...        0 min,  0.669 sec
 * total energy  :  -339.9770249 Eh     change        0.4910407E-01 Eh
   gradient norm :     0.0204473 Eh/α   predicted    -0.2380091E-03 (-100.48%)
   displ. norm   :     0.0227896 α      lambda       -0.1678701E-03
   maximum displ.:     0.0141292 α      in ANC's #74, #23, #51, ...

........................................................................
.............................. CYCLE  113 ..............................
........................................................................

 iter      E             dE          RMSdq      gap      omega  full diag
   1   -397.9538645 -0.397954E+03  0.261E-02    0.05       0.0  T
   2   -397.9185041  0.353604E-01  0.280E-01    0.04       1.0  T
   3   -397.9536340 -0.351300E-01  0.308E-02    0.05       1.0  T
   4   -397.9519461  0.168790E-02  0.661E-02    0.06       1.0  T
   5   -397.9535086 -0.156249E-02  0.362E-02    0.05       1.0  T
   6   -397.9538936 -0.384995E-03  0.186E-02    0.05       1.0  T
   7   -397.9540009 -0.107259E-03  0.103E-02    0.05       1.0  T
   8   -397.9539974  0.340925E-05  0.997E-03    0.05       1.0  T
   9   -397.9540312 -0.337064E-04  0.547E-03    0.05       1.2  T
  10   -397.9540394 -0.825184E-05  0.340E-03    0.05       1.9  T
  11   -397.9540426 -0.322234E-05  0.159E-03    0.05       4.0  T
  12   -397.9540430 -0.339184E-06  0.107E-03    0.05       6.0  T
  13   -397.9540432 -0.213198E-06  0.911E-04    0.05       7.1  T
  14   -397.9540434 -0.234214E-06  0.509E-04    0.05      12.6  T
     SCC iter.                  ...        0 min,  1.577 sec
     gradient                   ...        0 min,  0.676 sec
 * total energy  :  -339.9556068 Eh     change        0.2141810E-01 Eh
   gradient norm :     0.0185280 Eh/α   predicted    -0.8408189E-04 (-100.39%)
   displ. norm   :     0.0248976 α      lambda       -0.2503486E-03
   maximum displ.:     0.0147952 α      in ANC's #23, #74, #21, ...

........................................................................
.............................. CYCLE  114 ..............................
........................................................................

 iter      E             dE          RMSdq      gap      omega  full diag
   1   -397.9534471 -0.397953E+03  0.254E-02    0.05       0.0  T
   2   -397.9193991  0.340479E-01  0.274E-01    0.04       1.0  T
   3   -397.9531395 -0.337403E-01  0.341E-02    0.05       1.0  T
   4   -397.9518764  0.126310E-02  0.583E-02    0.05       1.0  T
   5   -397.9525516 -0.675181E-03  0.507E-02    0.04       1.0  T
   6   -397.9534555 -0.903952E-03  0.214E-02    0.05       1.0  T
   7   -397.9535119 -0.564106E-04  0.155E-02    0.05       1.0  T
   8   -397.9535956 -0.836776E-04  0.926E-03    0.05       1.0  T
   9   -397.9536039 -0.830018E-05  0.668E-03    0.05       1.0  T
  10   -397.9536227 -0.187831E-04  0.300E-03    0.05       2.1  T
  11   -397.9536250 -0.234620E-05  0.116E-03    0.05       5.5  T
  12   -397.9536251 -0.960270E-07  0.831E-04    0.05       7.7  T
  13   -397.9536252 -0.349635E-07  0.811E-04    0.05       7.9  T
     SCC iter.                  ...        0 min,  1.452 sec
     gradient                   ...        0 min,  0.677 sec
 * total energy  :  -339.9276324 Eh     change        0.2797440E-01 Eh
   gradient norm :     0.0165712 Eh/α   predicted    -0.1253083E-03 (-100.45%)
   displ. norm   :     0.0317337 α      lambda       -0.4146593E-03
   maximum displ.:     0.0160583 α      in ANC's #23, #15, #1, ...

........................................................................
.............................. CYCLE  115 ..............................
........................................................................

 iter      E             dE          RMSdq      gap      omega  full diag
   1   -397.9483775 -0.397948E+03  0.285E-02    0.05       0.0  T
   2   -397.9346849  0.136926E-01  0.179E-01    0.04       1.0  T
   3   -397.9446109 -0.992600E-02  0.917E-02    0.04       1.0  T
   4   -397.9462095 -0.159857E-02  0.664E-02    0.05       1.0  T
   5   -397.9468121 -0.602642E-03  0.669E-02    0.04       1.0  T
   6   -397.9482880 -0.147587E-02  0.257E-02    0.05       1.0  T
   7   -397.9483020 -0.140089E-04  0.221E-02    0.05       1.0  T
   8   -397.9485053 -0.203329E-03  0.105E-02    0.05       1.0  T
   9   -397.9485123 -0.700274E-05  0.933E-03    0.05       1.0  T
  10   -397.9485423 -0.299849E-04  0.412E-03    0.05       1.6  T
  11   -397.9485469 -0.454338E-05  0.169E-03    0.05       3.8  T
  12   -397.9485469 -0.520332E-07  0.152E-03    0.05       4.2  T
  13   -397.9485474 -0.525934E-06  0.106E-03    0.05       6.1  T
  14   -397.9485477 -0.282757E-06  0.439E-04    0.05      14.6  T
  15   -397.9485478 -0.428406E-07  0.256E-04    0.05      25.1  T
     SCC iter.                  ...        0 min,  1.688 sec
     gradient                   ...        0 min,  0.672 sec
 * total energy  :  -339.8795326 Eh     change        0.4809977E-01 Eh
   gradient norm :     0.0181459 Eh/α   predicted    -0.2074531E-03 (-100.43%)
   displ. norm   :     0.0651564 α      lambda       -0.6583439E-03
   maximum displ.:     0.0443633 α      in ANC's #1, #15, #6, ...

........................................................................
.............................. CYCLE  116 ..............................
........................................................................

 iter      E             dE          RMSdq      gap      omega  full diag
   1   -397.9341773 -0.397934E+03  0.622E-02    0.05       0.0  T
   2   -397.9056262  0.285511E-01  0.248E-01    0.04       1.0  T
   3   -397.8996073  0.601887E-02  0.251E-01    0.06       1.0  T
   4   -397.9291472 -0.295399E-01  0.118E-01    0.04       1.0  T
   5   -397.9321554 -0.300822E-02  0.914E-02    0.04       1.0  T
   6   -397.9291758  0.297958E-02  0.120E-01    0.07       1.0  T
   7   -397.9339767 -0.480087E-02  0.448E-02    0.04       1.0  T
   8   -397.9346718 -0.695120E-03  0.183E-02    0.05       1.0  T
   9   -397.9347190 -0.471414E-04  0.130E-02    0.05       1.0  T
  10   -397.9347585 -0.395304E-04  0.654E-03    0.05       1.0  T
  11   -397.9347611 -0.266004E-05  0.538E-03    0.05       1.2  T
  12   -397.9347706 -0.949298E-05  0.297E-03    0.05       2.2  T
  13   -397.9347707 -0.672710E-07  0.280E-03    0.05       2.3  T
  14   -397.9347732 -0.251182E-05  0.112E-03    0.05       5.7  T
  15   -397.9347732  0.637696E-07  0.885E-04    0.05       7.3  T
  16   -397.9347735 -0.362280E-06  0.387E-04    0.05      16.6  T
     SCC iter.                  ...        0 min,  1.804 sec
     gradient                   ...        0 min,  0.679 sec
 * total energy  :  -339.7992499 Eh     change        0.8028269E-01 Eh
   gradient norm :     0.0259482 Eh/α   predicted    -0.3308837E-03 (-100.41%)
   displ. norm   :     0.0939217 α      lambda       -0.6889458E-03
   maximum displ.:     0.0718322 α      in ANC's #1, #15, #81, ...

........................................................................
.............................. CYCLE  117 ..............................
........................................................................

 iter      E             dE          RMSdq      gap      omega  full diag
   1   -397.9130167 -0.397913E+03  0.104E-01    0.04       0.0  T
   2   -397.7355157  0.177501E+00  0.596E-01    0.11       1.0  T
   3   -397.8571497 -0.121634E+00  0.326E-01    0.07       1.0  T
   4   -397.9039178 -0.467681E-01  0.168E-01    0.03       1.0  T
   5   -397.9083999 -0.448213E-02  0.143E-01    0.04       1.0  T
   6   -397.9030621  0.533788E-02  0.177E-01    0.08       1.0  T
   7   -397.9138127 -0.107506E-01  0.579E-02    0.04       1.0  T
   8   -397.9145646 -0.751922E-03  0.385E-02    0.05       1.0  T
   9   -397.9146660 -0.101429E-03  0.317E-02    0.05       1.0  T
  10   -397.9149413 -0.275288E-03  0.164E-02    0.05       1.0  T
  11   -397.9149796 -0.382941E-04  0.112E-02    0.05       1.0  T
  12   -397.9149958 -0.161876E-04  0.843E-03    0.05       1.0  T
  13   -397.9150159 -0.201118E-04  0.452E-03    0.05       1.4  T
  14   -397.9150207 -0.480211E-05  0.200E-03    0.05       3.2  T
  15   -397.9150213 -0.623757E-06  0.162E-03    0.05       4.0  T
  16   -397.9150221 -0.787510E-06  0.103E-03    0.05       6.3  T
  17   -397.9150224 -0.268362E-06  0.725E-04    0.05       8.9  T
  18   -397.9150224  0.104777E-07  0.612E-04    0.05      10.5  T
     SCC iter.                  ...        0 min,  2.035 sec
     gradient                   ...        0 min,  0.678 sec
 * total energy  :  -339.7166384 Eh     change        0.8261152E-01 Eh
   gradient norm :     0.0328475 Eh/α   predicted    -0.3475976E-03 (-100.42%)
   displ. norm   :     0.1051871 α      lambda       -0.6828674E-03
   maximum displ.:     0.0811580 α      in ANC's #1, #15, #81, ...

........................................................................
.............................. CYCLE  118 ..............................
........................................................................

 iter      E             dE          RMSdq      gap      omega  full diag
   1   -397.8901652 -0.397890E+03  0.134E-01    0.04       0.0  T
   2   -397.6230859  0.267079E+00  0.740E-01    0.14       1.0  T
   3   -397.8032365 -0.180151E+00  0.414E-01    0.07       1.0  T
   4   -397.8760439 -0.728074E-01  0.215E-01    0.04       1.0  T
   5   -397.8710880  0.495591E-02  0.259E-01    0.03       1.0  T
   6   -397.8826409 -0.115530E-01  0.164E-01    0.07       1.0  T
   7   -397.8922891 -0.964811E-02  0.668E-02    0.04       1.0  T
   8   -397.8924105 -0.121458E-03  0.603E-02    0.05       1.0  T
   9   -397.8932530 -0.842522E-03  0.460E-02    0.05       1.0  T
  10   -397.8937693 -0.516271E-03  0.261E-02    0.05       1.0  T
  11   -397.8937565  0.127943E-04  0.212E-02    0.05       1.0  T
  12   -397.8939318 -0.175314E-03  0.999E-03    0.05       1.0  T
  13   -397.8939511 -0.192963E-04  0.491E-03    0.05       1.3  T
  14   -397.8939559 -0.480701E-05  0.258E-03    0.04       2.5  T
  15   -397.8939583 -0.236114E-05  0.164E-03    0.04       3.9  T
  16   -397.8939583  0.224362E-07  0.171E-03    0.04       3.8  T
  17   -397.8939589 -0.679225E-06  0.101E-03    0.04       6.4  T
  18   -397.8939591 -0.107430E-06  0.744E-04    0.04       8.6  T
  19   -397.8939592 -0.122447E-06  0.419E-04    0.04      15.4  T
     SCC iter.                  ...        0 min,  2.162 sec
     gradient                   ...        0 min,  0.689 sec
 * total energy  :  -339.6542621 Eh     change        0.6237629E-01 Eh
   gradient norm :     0.0340324 Eh/α   predicted    -0.3453412E-03 (-100.55%)
   displ. norm   :     0.1024260 α      lambda       -0.7057156E-03
   maximum displ.:     0.0758945 α      in ANC's #1, #15, #74, ...

........................................................................
.............................. CYCLE  119 ..............................
........................................................................

 iter      E             dE          RMSdq      gap      omega  full diag
   1   -397.8705881 -0.397871E+03  0.145E-01    0.04       0.0  T
   2   -397.6264711  0.244117E+00  0.734E-01    0.12       1.0  T
   3   -397.7706347 -0.144164E+00  0.448E-01    0.06       1.0  T
   4   -397.8444706 -0.738359E-01  0.277E-01    0.04       1.0  T
   5   -397.8592147 -0.147441E-01  0.227E-01    0.02       1.0  T
   6   -397.8585776  0.637033E-03  0.188E-01    0.07       1.0  T
   7   -397.8733445 -0.147669E-01  0.694E-02    0.04       1.0  T
   8   -397.8728226  0.521865E-03  0.687E-02    0.05       1.0  T
   9   -397.8745492 -0.172657E-02  0.446E-02    0.05       1.0  T
  10   -397.8748439 -0.294686E-03  0.275E-02    0.04       1.0  T
  11   -397.8749280 -0.840738E-04  0.187E-02    0.04       1.0  T
  12   -397.8750494 -0.121453E-03  0.905E-03    0.04       1.0  T
  13   -397.8750744 -0.250050E-04  0.326E-03    0.04       2.0  T
  14   -397.8750723  0.211855E-05  0.375E-03    0.04       1.7  T
  15   -397.8750758 -0.350803E-05  0.254E-03    0.04       2.5  T
  16   -397.8750770 -0.118380E-05  0.167E-03    0.04       3.9  T
  17   -397.8750774 -0.364008E-06  0.118E-03    0.04       5.5  T
  18   -397.8750777 -0.301775E-06  0.731E-04    0.04       8.8  T
  19   -397.8750778 -0.107798E-06  0.482E-04    0.04      13.3  T
     SCC iter.                  ...        0 min,  2.137 sec
     gradient                   ...        0 min,  0.677 sec
 * total energy  :  -339.6183524 Eh     change        0.3590973E-01 Eh
   gradient norm :     0.0284488 Eh/α   predicted    -0.3566647E-03 (-100.99%)
   displ. norm   :     0.0759381 α      lambda       -0.5837405E-03
   maximum displ.:     0.0497656 α      in ANC's #1, #15, #74, ...

........................................................................
.............................. CYCLE  120 ..............................
........................................................................

 iter      E             dE          RMSdq      gap      omega  full diag
   1   -397.8600109 -0.397860E+03  0.115E-01    0.03       0.0  T
   2   -397.7223343  0.137677E+00  0.583E-01    0.05       1.0  T
   3   -397.8174992 -0.951648E-01  0.292E-01    0.05       1.0  T
   4   -397.8270135 -0.951434E-02  0.273E-01    0.03       1.0  T
   5   -397.8595331 -0.325196E-01  0.106E-01    0.04       1.0  T
   6   -397.8600638 -0.530666E-03  0.852E-02    0.05       1.0  T
   7   -397.8560898  0.397403E-02  0.142E-01    0.02       1.0  T
   8   -397.8614993 -0.540951E-02  0.509E-02    0.04       1.0  T
   9   -397.8626054 -0.110614E-02  0.279E-02    0.04       1.0  T
  10   -397.8627256 -0.120171E-03  0.167E-02    0.04       1.0  T
  11   -397.8627826 -0.569916E-04  0.113E-02    0.04       1.0  T
  12   -397.8628327 -0.501190E-04  0.636E-03    0.04       1.0  T
  13   -397.8628375 -0.474028E-05  0.443E-03    0.04       1.5  T
  14   -397.8628411 -0.362714E-05  0.299E-03    0.04       2.1  T
  15   -397.8628419 -0.851704E-06  0.277E-03    0.04       2.3  T
  16   -397.8628441 -0.221476E-05  0.154E-03    0.04       4.2  T
  17   -397.8628447 -0.533464E-06  0.907E-04    0.04       7.1  T
  18   -397.8628448 -0.150705E-06  0.591E-04    0.04      10.9  T
     SCC iter.                  ...        0 min,  2.040 sec
     gradient                   ...        0 min,  0.726 sec
 * total energy  :  -339.6013838 Eh     change        0.1696857E-01 Eh
   gradient norm :     0.0188879 Eh/α   predicted    -0.2934458E-03 (-101.73%)
   displ. norm   :     0.0357728 α      lambda       -0.2894420E-03
   maximum displ.:     0.0154544 α      in ANC's #1, #15, #23, ...
 * RMSD in coord.:     0.0863683 α      energy gain   0.2361618E-01 Eh

generating ANC from exact Hessian ...
Using Lindh-Hessian (1995)
 Shifting diagonal of input Hessian by    3.5551984674463490     
 Lowest  eigenvalues of input Hessian
    0.010000    3.555143    3.555162    3.555174    0.000000    0.000000
    0.000000    0.000000    0.000000    0.000000    3.555220    3.555230
    3.555243    3.555254    3.555270    3.555284    3.555309    3.555327
 Highest eigenvalues
   10.084206   10.170555   12.771120   13.460087   15.763734   74.211686


........................................................................
.............................. CYCLE  121 ..............................
........................................................................

 iter      E             dE          RMSdq      gap      omega  full diag
   1   -397.8576895 -0.397858E+03  0.553E-02    0.03       0.0  T
   2   -397.8093972  0.482923E-01  0.335E-01    0.05       1.0  T
   3   -397.8382489 -0.288516E-01  0.207E-01    0.04       1.0  T
   4   -397.8548087 -0.165598E-01  0.888E-02    0.03       1.0  T
   5   -397.8566978 -0.188907E-02  0.690E-02    0.03       1.0  T
   6   -397.8564364  0.261328E-03  0.680E-02    0.05       1.0  T
   7   -397.8582007 -0.176429E-02  0.270E-02    0.03       1.0  T
   8   -397.8583238 -0.123060E-03  0.160E-02    0.04       1.0  T
   9   -397.8583918 -0.680280E-04  0.990E-03    0.04       1.0  T
  10   -397.8584218 -0.299473E-04  0.515E-03    0.04       1.2  T
  11   -397.8584259 -0.411975E-05  0.416E-03    0.04       1.5  T
  12   -397.8584209  0.500429E-05  0.479E-03    0.04       1.3  T
  13   -397.8584309 -0.996736E-05  0.148E-03    0.04       4.3  T
  14   -397.8584304  0.453421E-06  0.157E-03    0.04       4.1  T
  15   -397.8584312 -0.779587E-06  0.113E-03    0.04       5.7  T
  16   -397.8584315 -0.299813E-06  0.772E-04    0.04       8.3  T
  17   -397.8584316 -0.158182E-06  0.349E-04    0.04      18.4  T
     SCC iter.                  ...        0 min,  1.842 sec
     gradient                   ...        0 min,  0.557 sec
 * total energy  :  -339.5843950 Eh     change        0.1698882E-01 Eh
   gradient norm :     0.0170450 Eh/α   predicted     0.0000000E+00 (-100.00%)
   displ. norm   :     0.0034090 α      lambda        0.8713439E-03
   maximum displ.:     0.0016177 α      in ANC's #75, #38, #81, ...

........................................................................
.............................. CYCLE  122 ..............................
........................................................................

 iter      E             dE          RMSdq      gap      omega  full diag
   1   -397.8583859 -0.397858E+03  0.346E-03    0.04       0.0  T
   2   -397.8583578  0.281547E-04  0.884E-03    0.04       1.0  T
   3   -397.8582067  0.151123E-03  0.200E-02    0.04       1.0  T
   4   -397.8583805 -0.173830E-03  0.442E-03    0.04       1.5  T
   5   -397.8583734  0.705013E-05  0.570E-03    0.04       1.1  T
   6   -397.8583760 -0.253403E-05  0.532E-03    0.04       1.2  T
   7   -397.8583823 -0.635351E-05  0.336E-03    0.04       1.9  T
   8   -397.8583870 -0.471089E-05  0.108E-03    0.04       6.0  T
   9   -397.8583873 -0.297737E-06  0.695E-04    0.04       9.3  T
  10   -397.8583875 -0.181980E-06  0.245E-04    0.04      26.2  T
     SCC iter.                  ...        0 min,  0.922 sec
     gradient                   ...        0 min,  0.564 sec
 * total energy  :  -339.5848091 Eh     change       -0.4141446E-03 Eh
   gradient norm :     0.0154353 Eh/α   predicted    -0.2905324E-04 ( -92.98%)
   displ. norm   :     0.0337095 α      lambda       -0.5202493E-03
   maximum displ.:     0.0155868 α      in ANC's #38, #75, #81, ...

........................................................................
.............................. CYCLE  123 ..............................
........................................................................

 iter      E             dE          RMSdq      gap      omega  full diag
   1   -397.8576931 -0.397858E+03  0.349E-02    0.04       0.0  T
   2   -397.8559191  0.177401E-02  0.778E-02    0.04       1.0  T
   3   -397.8511838  0.473531E-02  0.133E-01    0.03       1.0  T
   4   -397.8558704 -0.468662E-02  0.701E-02    0.04       1.0  T
   5   -397.8569338 -0.106341E-02  0.435E-02    0.04       1.0  T
   6   -397.8550604  0.187338E-02  0.757E-02    0.03       1.0  T
   7   -397.8572808 -0.222030E-02  0.355E-02    0.04       1.0  T
   8   -397.8578115 -0.530770E-03  0.117E-02    0.04       1.0  T
   9   -397.8578351 -0.235438E-04  0.774E-03    0.04       1.0  T
  10   -397.8578543 -0.192111E-04  0.301E-03    0.04       2.1  T
  11   -397.8578537  0.557593E-06  0.313E-03    0.04       2.1  T
  12   -397.8578559 -0.217886E-05  0.172E-03    0.04       3.7  T
  13   -397.8578566 -0.663735E-06  0.102E-03    0.04       6.3  T
  14   -397.8578568 -0.276213E-06  0.577E-04    0.04      11.1  T
  15   -397.8578569 -0.102713E-06  0.329E-04    0.04      19.5  T
     SCC iter.                  ...        0 min,  1.409 sec
     gradient                   ...        0 min,  0.564 sec
 * total energy  :  -339.5896051 Eh     change       -0.4796003E-02 Eh
   gradient norm :     0.0133129 Eh/α   predicted    -0.2604515E-03 ( -94.57%)
   displ. norm   :     0.0054821 α      lambda       -0.3674416E-04
   maximum displ.:     0.0034367 α      in ANC's #38, #61, #50, ...

........................................................................
.............................. CYCLE  124 ..............................
........................................................................

 iter      E             dE          RMSdq      gap      omega  full diag
   1   -397.8577145 -0.397858E+03  0.563E-03    0.04       0.0  T
   2   -397.8576105  0.104034E-03  0.179E-02    0.04       1.0  T
   3   -397.8576224 -0.119103E-04  0.144E-02    0.03       1.0  T
   4   -397.8575636  0.587612E-04  0.165E-02    0.04       1.0  T
   5   -397.8576976 -0.133956E-03  0.765E-03    0.04       1.0  T
   6   -397.8576864  0.111956E-04  0.104E-02    0.04       1.0  T
   7   -397.8577018 -0.153978E-04  0.661E-03    0.04       1.0  T
   8   -397.8577185 -0.167252E-04  0.144E-03    0.04       4.5  T
   9   -397.8577190 -0.549536E-06  0.915E-04    0.04       7.0  T
  10   -397.8577193 -0.270075E-06  0.379E-04    0.04      17.0  T
     SCC iter.                  ...        0 min,  0.951 sec
     gradient                   ...        0 min,  0.562 sec
 * total energy  :  -339.5907921 Eh     change       -0.1186959E-02 Eh
   gradient norm :     0.0137086 Eh/α   predicted    -0.2004803E-04 ( -98.31%)
   displ. norm   :     0.0713005 α      lambda       -0.6101566E-03
   maximum displ.:     0.0463055 α      in ANC's #38, #61, #50, ...

........................................................................
.............................. CYCLE  125 ..............................
........................................................................

 iter      E             dE          RMSdq      gap      omega  full diag
   1   -397.8547334 -0.397855E+03  0.711E-02    0.04       0.0  T
   2   -397.8323518  0.223816E-01  0.253E-01    0.04       1.0  T
   3   -397.8489113 -0.165595E-01  0.127E-01    0.02       1.0  T
   4   -397.8394213  0.948996E-02  0.174E-01    0.05       1.0  T
   5   -397.8500409 -0.106196E-01  0.111E-01    0.04       1.0  T
   6   -397.8525270 -0.248609E-02  0.103E-01    0.02       1.0  T
   7   -397.8501617  0.236536E-02  0.111E-01    0.05       1.0  T
   8   -397.8554627 -0.530103E-02  0.151E-02    0.04       1.0  T
   9   -397.8554694 -0.675791E-05  0.135E-02    0.04       1.0  T
  10   -397.8555167 -0.472275E-04  0.702E-03    0.04       1.0  T
  11   -397.8555222 -0.548013E-05  0.646E-03    0.04       1.0  T
  12   -397.8555297 -0.752180E-05  0.451E-03    0.04       1.4  T
  13   -397.8555346 -0.491489E-05  0.276E-03    0.04       2.3  T
  14   -397.8555346 -0.146093E-07  0.230E-03    0.04       2.8  T
  15   -397.8555370 -0.239326E-05  0.783E-04    0.04       8.2  T
  16   -397.8555372 -0.198591E-06  0.445E-04    0.04      14.4  T
  17   -397.8555372 -0.117697E-07  0.349E-04    0.04      18.4  T
     SCC iter.                  ...        0 min,  1.605 sec
     gradient                   ...        0 min,  0.568 sec
 * total energy  :  -339.6117984 Eh     change       -0.2100635E-01 Eh
   gradient norm :     0.0161989 Eh/α   predicted    -0.3066514E-03 ( -98.54%)
   displ. norm   :     0.0358801 α      lambda       -0.2071378E-03
   maximum displ.:     0.0234615 α      in ANC's #38, #61, #50, ...

........................................................................
.............................. CYCLE  126 ..............................
........................................................................

 iter      E             dE          RMSdq      gap      omega  full diag
   1   -397.8539385 -0.397854E+03  0.353E-02    0.04       0.0  T
   2   -397.8461609  0.777752E-02  0.146E-01    0.04       1.0  T
   3   -397.8509955 -0.483453E-02  0.827E-02    0.03       1.0  T
   4   -397.8492318  0.176363E-02  0.101E-01    0.03       1.0  T
   5   -397.8538027 -0.457088E-02  0.309E-02    0.04       1.0  T
   6   -397.8536317  0.170981E-03  0.332E-02    0.04       1.0  T
   7   -397.8521022  0.152954E-02  0.731E-02    0.02       1.0  T
   8   -397.8541296 -0.202741E-02  0.937E-03    0.04       1.0  T
   9   -397.8541515 -0.219444E-04  0.502E-03    0.04       1.3  T
  10   -397.8541567 -0.520234E-05  0.287E-03    0.04       2.2  T
  11   -397.8541575 -0.711063E-06  0.209E-03    0.04       3.1  T
  12   -397.8541580 -0.500781E-06  0.168E-03    0.04       3.8  T
  13   -397.8541585 -0.505881E-06  0.136E-03    0.04       4.7  T
  14   -397.8541588 -0.298500E-06  0.867E-04    0.04       7.4  T
  15   -397.8541590 -0.261153E-06  0.438E-04    0.04      14.7  T
     SCC iter.                  ...        0 min,  1.405 sec
     gradient                   ...        0 min,  0.569 sec
 * total energy  :  -339.6260403 Eh     change       -0.1424189E-01 Eh
   gradient norm :     0.0154044 Eh/α   predicted    -0.1044126E-03 ( -99.27%)
   displ. norm   :     0.0270743 α      lambda       -0.1528730E-03
   maximum displ.:     0.0170153 α      in ANC's #38, #50, #61, ...

........................................................................
.............................. CYCLE  127 ..............................
........................................................................

 iter      E             dE          RMSdq      gap      omega  full diag
   1   -397.8528690 -0.397853E+03  0.269E-02    0.03       0.0  T
   2   -397.8477073  0.516171E-02  0.118E-01    0.04       1.0  T
   3   -397.8511386 -0.343132E-02  0.655E-02    0.03       1.0  T
   4   -397.8508209  0.317702E-03  0.699E-02    0.03       1.0  T
   5   -397.8527177 -0.189677E-02  0.256E-02    0.03       1.0  T
   6   -397.8517988  0.918893E-03  0.496E-02    0.04       1.0  T
   7   -397.8527530 -0.954262E-03  0.281E-02    0.03       1.0  T
   8   -397.8529930 -0.239929E-03  0.604E-03    0.04       1.1  T
   9   -397.8529967 -0.375678E-05  0.479E-03    0.04       1.3  T
  10   -397.8530035 -0.680783E-05  0.220E-03    0.04       2.9  T
  11   -397.8530042 -0.711079E-06  0.145E-03    0.04       4.4  T
  12   -397.8530043 -0.804668E-07  0.133E-03    0.04       4.8  T
  13   -397.8530047 -0.386229E-06  0.849E-04    0.04       7.6  T
  14   -397.8530048 -0.911797E-07  0.631E-04    0.03      10.2  T
     SCC iter.                  ...        0 min,  1.311 sec
     gradient                   ...        0 min,  0.569 sec
 * total energy  :  -339.6382065 Eh     change       -0.1216613E-01 Eh
   gradient norm :     0.0140753 Eh/α   predicted    -0.7686736E-04 ( -99.37%)
   displ. norm   :     0.0159052 α      lambda       -0.8625029E-04
   maximum displ.:     0.0092346 α      in ANC's #38, #50, #61, ...

........................................................................
.............................. CYCLE  128 ..............................
........................................................................

 iter      E             dE          RMSdq      gap      omega  full diag
   1   -397.8522660 -0.397852E+03  0.167E-02    0.03       0.0  T
   2   -397.8502743  0.199168E-02  0.732E-02    0.04       1.0  T
   3   -397.8517126 -0.143829E-02  0.396E-02    0.04       1.0  T
   4   -397.8515553  0.157264E-03  0.440E-02    0.03       1.0  T
   5   -397.8521753 -0.619981E-03  0.172E-02    0.03       1.0  T
   6   -397.8517197  0.455580E-03  0.340E-02    0.04       1.0  T
   7   -397.8522500 -0.530244E-03  0.146E-02    0.03       1.0  T
   8   -397.8523159 -0.659508E-04  0.393E-03    0.04       1.6  T
   9   -397.8523162 -0.274297E-06  0.327E-03    0.03       2.0  T
  10   -397.8523198 -0.359370E-05  0.129E-03    0.03       5.0  T
  11   -397.8523201 -0.276890E-06  0.983E-04    0.03       6.5  T
  12   -397.8523203 -0.205892E-06  0.624E-04    0.03      10.3  T
     SCC iter.                  ...        0 min,  1.145 sec
     gradient                   ...        0 min,  0.566 sec
 * total energy  :  -339.6459895 Eh     change       -0.7783010E-02 Eh
   gradient norm :     0.0121687 Eh/α   predicted    -0.4315637E-04 ( -99.45%)
   displ. norm   :     0.0174238 α      lambda       -0.9637642E-04
   maximum displ.:     0.0093230 α      in ANC's #38, #50, #66, ...

........................................................................
.............................. CYCLE  129 ..............................
........................................................................

 iter      E             dE          RMSdq      gap      omega  full diag
   1   -397.8515587 -0.397852E+03  0.186E-02    0.03       0.0  T
   2   -397.8490121  0.254662E-02  0.826E-02    0.04       1.0  T
   3   -397.8508795 -0.186742E-02  0.451E-02    0.04       1.0  T
   4   -397.8507956  0.839445E-04  0.473E-02    0.03       1.0  T
   5   -397.8514195 -0.623955E-03  0.202E-02    0.03       1.0  T
   6   -397.8508254  0.594110E-03  0.386E-02    0.04       1.0  T
   7   -397.8515501 -0.724710E-03  0.151E-02    0.03       1.0  T
   8   -397.8516209 -0.708000E-04  0.440E-03    0.04       1.5  T
   9   -397.8516217 -0.806399E-06  0.346E-03    0.03       1.9  T
  10   -397.8516257 -0.396980E-05  0.148E-03    0.03       4.3  T
  11   -397.8516261 -0.402613E-06  0.107E-03    0.03       6.0  T
  12   -397.8516264 -0.255802E-06  0.668E-04    0.03       9.6  T
  13   -397.8516264 -0.356765E-07  0.510E-04    0.03      12.6  T
     SCC iter.                  ...        0 min,  1.300 sec
     gradient                   ...        0 min,  0.591 sec
 * total energy  :  -339.6551895 Eh     change       -0.9200032E-02 Eh
   gradient norm :     0.0082071 Eh/α   predicted    -0.4822971E-04 ( -99.48%)
   displ. norm   :     0.0103063 α      lambda       -0.4710426E-04
   maximum displ.:     0.0052195 α      in ANC's #50, #38, #52, ...

........................................................................
.............................. CYCLE  130 ..............................
........................................................................

 iter      E             dE          RMSdq      gap      omega  full diag
   1   -397.8513066 -0.397851E+03  0.105E-02    0.03       0.0  T
   2   -397.8504409  0.865700E-03  0.480E-02    0.04       1.0  T
   3   -397.8510364 -0.595472E-03  0.263E-02    0.04       1.0  T
   4   -397.8510450 -0.863410E-05  0.253E-02    0.03       1.0  T
   5   -397.8512613 -0.216286E-03  0.118E-02    0.03       1.0  T
   6   -397.8511138  0.147452E-03  0.215E-02    0.04       1.0  T
   7   -397.8513059 -0.192075E-03  0.849E-03    0.03       1.0  T
   8   -397.8513268 -0.208658E-04  0.242E-03    0.03       2.7  T
   9   -397.8513273 -0.505568E-06  0.174E-03    0.03       3.7  T
  10   -397.8513283 -0.994552E-06  0.783E-04    0.03       8.2  T
  11   -397.8513284 -0.117950E-06  0.562E-04    0.03      11.4  T
     SCC iter.                  ...        0 min,  1.050 sec
     gradient                   ...        0 min,  0.554 sec
 * total energy  :  -339.6609280 Eh     change       -0.5738473E-02 Eh
   gradient norm :     0.0048183 Eh/α   predicted    -0.2357348E-04 ( -99.59%)
   displ. norm   :     0.0044617 α      lambda       -0.1271645E-04
   maximum displ.:     0.0022187 α      in ANC's #50, #58, #38, ...

........................................................................
.............................. CYCLE  131 ..............................
........................................................................

 iter      E             dE          RMSdq      gap      omega  full diag
   1   -397.8513027 -0.397851E+03  0.451E-03    0.03       0.0  T
   2   -397.8510963  0.206356E-03  0.228E-02    0.04       1.0  T
   3   -397.8511832 -0.868514E-04  0.164E-02    0.03       1.0  T
   4   -397.8512796 -0.964315E-04  0.765E-03    0.03       1.0  T
   5   -397.8512895 -0.991223E-05  0.606E-03    0.03       1.1  T
   6   -397.8512701  0.194383E-04  0.941E-03    0.04       1.0  T
   7   -397.8513046 -0.345052E-04  0.263E-03    0.03       2.4  T
   8   -397.8513060 -0.146121E-05  0.117E-03    0.03       5.5  T
   9   -397.8513066 -0.546662E-06  0.551E-04    0.03      11.7  T
  10   -397.8513067 -0.830246E-07  0.295E-04    0.03      21.8  T
     SCC iter.                  ...        0 min,  0.917 sec
     gradient                   ...        0 min,  0.556 sec
 * total energy  :  -339.6635241 Eh     change       -0.2596101E-02 Eh
   gradient norm :     0.0039539 Eh/α   predicted    -0.6648025E-05 ( -99.74%)
   displ. norm   :     0.0028576 α      lambda       -0.6190632E-05
   maximum displ.:     0.0017140 α      in ANC's #50, #58, #15, ...

........................................................................
.............................. CYCLE  132 ..............................
........................................................................

 iter      E             dE          RMSdq      gap      omega  full diag
   1   -397.8513864 -0.397851E+03  0.339E-03    0.03       0.0  T
   2   -397.8512177  0.168695E-03  0.196E-02    0.04       1.0  T
   3   -397.8512809 -0.632480E-04  0.143E-02    0.03       1.0  T
   4   -397.8513815 -0.100559E-03  0.417E-03    0.03       1.5  T
   5   -397.8513845 -0.295403E-05  0.326E-03    0.03       2.0  T
   6   -397.8513837  0.743963E-06  0.359E-03    0.04       1.8  T
   7   -397.8513822  0.154515E-05  0.443E-03    0.03       1.5  T
   8   -397.8513885 -0.629288E-05  0.849E-04    0.03       7.6  T
   9   -397.8513887 -0.256829E-06  0.438E-04    0.03      14.7  T
  10   -397.8513887 -0.308858E-07  0.282E-04    0.03      22.8  T
     SCC iter.                  ...        0 min,  0.923 sec
     gradient                   ...        0 min,  0.571 sec
 * total energy  :  -339.6655583 Eh     change       -0.2034232E-02 Eh
   gradient norm :     0.0040578 Eh/α   predicted    -0.3171854E-05 ( -99.84%)
   displ. norm   :     0.0061754 α      lambda       -0.1510555E-04
   maximum displ.:     0.0040300 α      in ANC's #50, #15, #58, ...

........................................................................
.............................. CYCLE  133 ..............................
........................................................................

 iter      E             dE          RMSdq      gap      omega  full diag
   1   -397.8517381 -0.397852E+03  0.791E-03    0.03       0.0  T
   2   -397.8506560  0.108209E-02  0.487E-02    0.04       1.0  T
   3   -397.8511248 -0.468743E-03  0.344E-02    0.03       1.0  T
   4   -397.8517235 -0.598729E-03  0.856E-03    0.03       1.0  T
   5   -397.8517184  0.512745E-05  0.871E-03    0.03       1.0  T
   6   -397.8517342 -0.158006E-04  0.672E-03    0.04       1.0  T
   7   -397.8517021  0.320461E-04  0.119E-02    0.03       1.0  T
   8   -397.8517490 -0.469220E-04  0.223E-03    0.03       2.9  T
   9   -397.8517507 -0.163141E-05  0.125E-03    0.03       5.1  T
  10   -397.8517509 -0.259109E-06  0.899E-04    0.03       7.2  T
  11   -397.8517511 -0.174870E-06  0.506E-04    0.03      12.7  T
     SCC iter.                  ...        0 min,  1.038 sec
     gradient                   ...        0 min,  0.570 sec
 * total energy  :  -339.6702351 Eh     change       -0.4676760E-02 Eh
   gradient norm :     0.0049542 Eh/α   predicted    -0.7581712E-05 ( -99.84%)
   displ. norm   :     0.0111352 α      lambda       -0.2493187E-04
   maximum displ.:     0.0076428 α      in ANC's #50, #15, #13, ...

........................................................................
.............................. CYCLE  134 ..............................
........................................................................

 iter      E             dE          RMSdq      gap      omega  full diag
   1   -397.8524768 -0.397852E+03  0.151E-02    0.03       0.0  T
   2   -397.8478299  0.464692E-02  0.997E-02    0.04       1.0  T
   3   -397.8502210 -0.239117E-02  0.665E-02    0.03       1.0  T
   4   -397.8524445 -0.222346E-02  0.150E-02    0.03       1.0  T
   5   -397.8523444  0.100049E-03  0.192E-02    0.03       1.0  T
   6   -397.8522983  0.460829E-04  0.254E-02    0.04       1.0  T
   7   -397.8525106 -0.212211E-03  0.743E-03    0.03       1.0  T
   8   -397.8525152 -0.467150E-05  0.529E-03    0.03       1.2  T
   9   -397.8525248 -0.951919E-05  0.255E-03    0.03       2.5  T
  10   -397.8525255 -0.727259E-06  0.191E-03    0.03       3.4  T
  11   -397.8525262 -0.755779E-06  0.112E-03    0.03       5.7  T
  12   -397.8525265 -0.258261E-06  0.509E-04    0.03      12.6  T
  13   -397.8525265 -0.562870E-07  0.273E-04    0.03      23.5  T
     SCC iter.                  ...        0 min,  1.327 sec
     gradient                   ...        0 min,  0.571 sec
 * total energy  :  -339.6789035 Eh     change       -0.8668440E-02 Eh
   gradient norm :     0.0067653 Eh/α   predicted    -0.1255375E-04 ( -99.86%)
   displ. norm   :     0.0222995 α      lambda       -0.4825962E-04
   maximum displ.:     0.0155995 α      in ANC's #50, #15, #13, ...

........................................................................
.............................. CYCLE  135 ..............................
........................................................................

 iter      E             dE          RMSdq      gap      omega  full diag
   1   -397.8538718 -0.397854E+03  0.316E-02    0.03       0.0  T
   2   -397.8317469  0.221248E-01  0.217E-01    0.04       1.0  T
   3   -397.8443959 -0.126489E-01  0.139E-01    0.03       1.0  T
   4   -397.8537515 -0.935568E-02  0.305E-02    0.03       1.0  T
   5   -397.8524821  0.126945E-02  0.547E-02    0.03       1.0  T
   6   -397.8527933 -0.311171E-03  0.645E-02    0.04       1.0  T
   7   -397.8540565 -0.126320E-02  0.117E-02    0.03       1.0  T
   8   -397.8540548  0.166478E-05  0.110E-02    0.03       1.0  T
   9   -397.8540910 -0.362509E-04  0.579E-03    0.03       1.1  T
  10   -397.8540954 -0.435352E-05  0.418E-03    0.03       1.5  T
  11   -397.8540988 -0.339630E-05  0.256E-03    0.03       2.5  T
  12   -397.8541002 -0.142185E-05  0.107E-03    0.03       6.0  T
  13   -397.8541004 -0.185823E-06  0.759E-04    0.03       8.5  T
  14   -397.8541005 -0.938338E-07  0.522E-04    0.03      12.3  T
     SCC iter.                  ...        0 min,  1.316 sec
     gradient                   ...        0 min,  0.559 sec
 * total energy  :  -339.6962702 Eh     change       -0.1736667E-01 Eh
   gradient norm :     0.0094996 Eh/α   predicted    -0.2416498E-04 ( -99.86%)
   displ. norm   :     0.0340381 α      lambda       -0.6999506E-04
   maximum displ.:     0.0240011 α      in ANC's #50, #15, #13, ...

........................................................................
.............................. CYCLE  136 ..............................
........................................................................

 iter      E             dE          RMSdq      gap      omega  full diag
   1   -397.8557210 -0.397856E+03  0.507E-02    0.03       0.0  T
   2   -397.7977762  0.579448E-01  0.351E-01    0.05       1.0  T
   3   -397.8323870 -0.346107E-01  0.225E-01    0.03       1.0  T
   4   -397.8554563 -0.230694E-01  0.480E-02    0.03       1.0  T
   5   -397.8500666  0.538976E-02  0.109E-01    0.02       1.0  T
   6   -397.8543715 -0.430498E-02  0.823E-02    0.05       1.0  T
   7   -397.8562330 -0.186146E-02  0.193E-02    0.03       1.0  T
   8   -397.8562563 -0.233019E-04  0.155E-02    0.03       1.0  T
   9   -397.8563285 -0.721809E-04  0.935E-03    0.03       1.0  T
  10   -397.8563434 -0.149527E-04  0.661E-03    0.03       1.0  T
  11   -397.8563496 -0.613075E-05  0.463E-03    0.03       1.4  T
  12   -397.8563548 -0.526605E-05  0.165E-03    0.03       3.9  T
  13   -397.8563555 -0.655875E-06  0.120E-03    0.03       5.4  T
  14   -397.8563558 -0.257365E-06  0.869E-04    0.03       7.4  T
  15   -397.8563557  0.576704E-07  0.875E-04    0.03       7.3  T
     SCC iter.                  ...        0 min,  1.414 sec
     gradient                   ...        0 min,  0.559 sec
 * total energy  :  -339.7225381 Eh     change       -0.2626794E-01 Eh
   gradient norm :     0.0119339 Eh/α   predicted    -0.3508749E-04 ( -99.87%)
   displ. norm   :     0.0376239 α      lambda       -0.7984720E-04
   maximum displ.:     0.0265432 α      in ANC's #50, #15, #13, ...

........................................................................
.............................. CYCLE  137 ..............................
........................................................................

 iter      E             dE          RMSdq      gap      omega  full diag
   1   -397.8576250 -0.397858E+03  0.588E-02    0.03       0.0  T
   2   -397.7731718  0.844531E-01  0.423E-01    0.05       1.0  T
   3   -397.8268621 -0.536902E-01  0.262E-01    0.03       1.0  T
   4   -397.8572992 -0.304371E-01  0.554E-02    0.03       1.0  T
   5   -397.8493984  0.790078E-02  0.132E-01    0.02       1.0  T
   6   -397.8567690 -0.737061E-02  0.789E-02    0.04       1.0  T
   7   -397.8583864 -0.161734E-02  0.221E-02    0.03       1.0  T
   8   -397.8584169 -0.305649E-04  0.166E-02    0.03       1.0  T
   9   -397.8585100 -0.930463E-04  0.995E-03    0.03       1.0  T
  10   -397.8585288 -0.188320E-04  0.710E-03    0.03       1.0  T
  11   -397.8585353 -0.650361E-05  0.497E-03    0.03       1.3  T
  12   -397.8585413 -0.598765E-05  0.205E-03    0.03       3.1  T
  13   -397.8585425 -0.115229E-05  0.160E-03    0.03       4.0  T
  14   -397.8585429 -0.475677E-06  0.130E-03    0.03       4.9  T
  15   -397.8585432 -0.235832E-06  0.970E-04    0.03       6.6  T
  16   -397.8585434 -0.173630E-06  0.515E-04    0.03      12.5  T
     SCC iter.                  ...        0 min,  1.521 sec
     gradient                   ...        0 min,  0.554 sec
 * total energy  :  -339.7510397 Eh     change       -0.2850157E-01 Eh
   gradient norm :     0.0125518 Eh/α   predicted    -0.4003581E-04 ( -99.86%)
   displ. norm   :     0.0308674 α      lambda       -0.7685199E-04
   maximum displ.:     0.0214544 α      in ANC's #50, #15, #13, ...

........................................................................
.............................. CYCLE  138 ..............................
........................................................................

 iter      E             dE          RMSdq      gap      omega  full diag
   1   -397.8592290 -0.397859E+03  0.501E-02    0.03       0.0  T
   2   -397.7816917  0.775373E-01  0.405E-01    0.05       1.0  T
   3   -397.8370807 -0.553890E-01  0.223E-01    0.03       1.0  T
   4   -397.8590015 -0.219208E-01  0.480E-02    0.03       1.0  T
   5   -397.8541840  0.481751E-02  0.104E-01    0.02       1.0  T
   6   -397.8587733 -0.458932E-02  0.633E-02    0.04       1.0  T
   7   -397.8598310 -0.105762E-02  0.182E-02    0.03       1.0  T
   8   -397.8598580 -0.270283E-04  0.131E-02    0.03       1.0  T
   9   -397.8599127 -0.546900E-04  0.806E-03    0.03       1.0  T
  10   -397.8599249 -0.122383E-04  0.582E-03    0.03       1.1  T
  11   -397.8599302 -0.527207E-05  0.371E-03    0.03       1.7  T
  12   -397.8599331 -0.292347E-05  0.185E-03    0.03       3.5  T
  13   -397.8599340 -0.856406E-06  0.150E-03    0.03       4.3  T
  14   -397.8599345 -0.522006E-06  0.106E-03    0.03       6.1  T
  15   -397.8599346 -0.154777E-06  0.764E-04    0.03       8.4  T
  16   -397.8599347 -0.809418E-07  0.490E-04    0.03      13.1  T
     SCC iter.                  ...        0 min,  1.500 sec
     gradient                   ...        0 min,  0.565 sec
 * total energy  :  -339.7738241 Eh     change       -0.2278441E-01 Eh
   gradient norm :     0.0107784 Eh/α   predicted    -0.3851557E-04 ( -99.83%)
   displ. norm   :     0.0229502 α      lambda       -0.6184727E-04
   maximum displ.:     0.0156399 α      in ANC's #50, #15, #13, ...

........................................................................
.............................. CYCLE  139 ..............................
........................................................................

 iter      E             dE          RMSdq      gap      omega  full diag
   1   -397.8599531 -0.397860E+03  0.382E-02    0.03       0.0  T
   2   -397.8044590  0.554941E-01  0.343E-01    0.04       1.0  T
   3   -397.8467905 -0.423315E-01  0.171E-01    0.03       1.0  T
   4   -397.8597542 -0.129638E-01  0.384E-02    0.03       1.0  T
   5   -397.8576612  0.209307E-02  0.735E-02    0.02       1.0  T
   6   -397.8598579 -0.219679E-02  0.426E-02    0.03       1.0  T
   7   -397.8603251 -0.467128E-03  0.134E-02    0.03       1.0  T
   8   -397.8603403 -0.152255E-04  0.989E-03    0.03       1.0  T
   9   -397.8603615 -0.211926E-04  0.722E-03    0.03       1.0  T
  10   -397.8603777 -0.162387E-04  0.381E-03    0.03       1.7  T
  11   -397.8603804 -0.266733E-05  0.195E-03    0.03       3.3  T
  12   -397.8603813 -0.924257E-06  0.116E-03    0.03       5.5  T
  13   -397.8603814 -0.826419E-07  0.112E-03    0.03       5.7  T
  14   -397.8603817 -0.296282E-06  0.715E-04    0.03       9.0  T
  15   -397.8603817 -0.503416E-07  0.556E-04    0.03      11.6  T
     SCC iter.                  ...        0 min,  1.414 sec
     gradient                   ...        0 min,  0.575 sec
 * total energy  :  -339.7908166 Eh     change       -0.1699253E-01 Eh
   gradient norm :     0.0076320 Eh/α   predicted    -0.3101498E-04 ( -99.82%)
   displ. norm   :     0.0141668 α      lambda       -0.3596227E-04
   maximum displ.:     0.0089984 α      in ANC's #50, #15, #13, ...

........................................................................
.............................. CYCLE  140 ..............................
........................................................................

 iter      E             dE          RMSdq      gap      omega  full diag
   1   -397.8603374 -0.397860E+03  0.244E-02    0.03       0.0  T
   2   -397.8324045  0.279329E-01  0.242E-01    0.04       1.0  T
   3   -397.8549729 -0.225684E-01  0.107E-01    0.02       1.0  T
