31

N      2.037918    1.543206    1.536429
C      2.577454    0.355515    0.960205
C      3.961362    0.146307    0.997950
C      4.515937   -1.001140    0.426010
C      3.690846   -1.943369   -0.191116
C      2.308402   -1.743445   -0.233630
C      1.735799   -0.600620    0.351937
C      0.244115   -0.388696    0.265511
C     -0.111063    0.423334   -0.994118
C     -1.600431    0.834429   -1.104859
C     -2.569208   -0.350297   -1.047774
C     -3.173188   -0.330003    0.345258
C     -3.160200    1.126467    0.780335
C     -2.043117    1.810871   -0.003347
H      4.609113    0.876036    1.467549
H      5.586522   -1.157410    0.456565
H      4.123093   -2.828210   -0.640267
H      1.683625   -2.479473   -0.724604
H     -0.114027    0.122585    1.182788
H     -0.263224   -1.376092    0.234170
H      0.507734    1.347438   -1.023872
H      0.158068   -0.176450   -1.891459
H     -1.722333    1.336594   -2.091434
H     -2.083288   -1.324767   -1.269791
H     -3.381851   -0.195092   -1.792153
H     -2.547497   -0.933494    1.037868
H     -4.205672   -0.741970    0.342889
H     -4.136575    1.596334    0.528050
H     -2.993206    1.210898    1.876217
H     -1.208751    2.089128    0.675976
H     -2.426359    2.751385   -0.457284
