31

N      1.861601   -0.359354    2.626052
C      2.660363    0.048219    1.517202
C      4.034303   -0.221153    1.530135
C      4.835714    0.154361    0.449384
C      4.267491    0.796998   -0.652230
C      2.897167    1.070330   -0.674219
C      2.081868    0.711268    0.413437
C      0.599284    0.986598    0.353834
C     -0.151607   -0.224806   -0.214957
C     -1.665373    0.039500   -0.332209
C     -2.393321   -1.108563   -1.019243
C     -3.834364   -1.013718   -0.540940
C     -3.802243   -0.276280    0.796722
C     -2.363923    0.182263    1.018343
H      4.481604   -0.725978    2.377300
H      5.897045   -0.057485    0.463675
H      4.888810    1.080770   -1.491847
H      2.470859    1.561016   -1.540582
H      0.220739    1.231167    1.369275
H      0.406160    1.876764   -0.284629
H      0.030394   -1.114551    0.427911
H      0.249516   -0.449485   -1.228232
H     -1.835185    0.966329   -0.927109
H     -2.327680   -1.024486   -2.125952
H     -1.968171   -2.087221   -0.701373
H     -4.282043   -2.025573   -0.431710
H     -4.434013   -0.432782   -1.276157
H     -4.483810    0.602047    0.763405
H     -4.125977   -0.947335    1.622309
H     -2.330596    1.234534    1.375747
H     -1.884610   -0.473392    1.779419
