31

N      1.795553    2.429383   -0.630043
C      2.641476    1.311107   -0.370125
C      3.975144    1.534054   -0.006720
C      4.819864    0.455909    0.267772
C      4.334974   -0.850786    0.185075
C      3.005398   -1.083342   -0.177043
C      2.148744   -0.007875   -0.470553
C      0.708076   -0.281060   -0.827286
C     -0.174553   -0.243200    0.427463
C     -1.647177   -0.563449    0.105111
C     -2.499131   -0.658075    1.364154
C     -3.922012   -0.371327    0.908569
C     -3.811794    0.448111   -0.376169
C     -2.331345    0.508529   -0.740541
H      4.357068    2.544644    0.067137
H      5.849632    0.633698    0.549689
H      4.989030   -1.684640    0.405120
H      2.642794   -2.102702   -0.227253
H      0.621990   -1.278459   -1.312168
H      0.355179    0.467946   -1.568019
H     -0.099495    0.757191    0.908749
H      0.203057   -0.998485    1.152074
H     -1.706094   -1.538904   -0.430396
H     -2.418717   -1.663334    1.832309
H     -2.191185    0.115043    2.103764
H     -4.483870    0.182603    1.691943
H     -4.447023   -1.329562    0.699382
H     -4.387485   -0.043079   -1.191285
H     -4.214753    1.473259   -0.223182
H     -1.934545    1.518001   -0.490785
H     -2.178799    0.318800   -1.825371
