31

N      1.859924    1.794445    1.992779
C      2.519654    0.752460    1.276778
C      3.916691    0.671246    1.323189
C      4.587669   -0.330925    0.618407
C      3.866335   -1.254593   -0.140451
C      2.471764   -1.181839   -0.192740
C      1.783036   -0.187598    0.524132
C      0.279127   -0.108836    0.425467
C     -0.135432    0.847892   -0.708219
C     -1.656952    0.897918   -0.994824
C     -2.499698    1.263032    0.230772
C     -3.131446   -0.033687    0.705366
C     -3.277588   -0.900250   -0.534875
C     -2.218236   -0.429944   -1.528260
H      4.484182    1.388332    1.903152
H      5.667836   -0.388390    0.656427
H      4.388407   -2.025940   -0.691795
H      1.927992   -1.900191   -0.793980
H     -0.136185    0.237660    1.394384
H     -0.132475   -1.124768    0.249016
H      0.386591    0.553145   -1.645604
H      0.208802    1.874407   -0.453752
H     -1.811786    1.682680   -1.769783
H     -1.911608    1.751780    1.037209
H     -3.308326    1.963393   -0.076135
H     -2.461488   -0.535964    1.436283
H     -4.115727    0.150517    1.188066
H     -4.290653   -0.753777   -0.970754
H     -3.145901   -1.975437   -0.284681
H     -1.430657   -1.204553   -1.648952
H     -2.683851   -0.275069   -2.526620
