31

N      2.768288   -1.087436   -1.779830
C      2.500735   -0.191935   -0.702929
C      3.160723    1.042058   -0.663270
C      2.922599    1.934749    0.383923
C      2.028589    1.596289    1.400909
C      1.365921    0.366688    1.371318
C      1.585419   -0.536722    0.315951
C      0.837860   -1.848467    0.284705
C     -0.297526   -1.898016   -0.763181
C     -1.502494   -0.934472   -0.588289
C     -2.122487   -0.882305    0.809066
C     -2.768412    0.488095    0.894036
C     -1.886212    1.401784    0.057243
C     -1.241361    0.519449   -1.008457
H      3.859979    1.310134   -1.445404
H      3.434462    2.888060    0.409068
H      1.847967    2.287847    2.213648
H      0.679053    0.124191    2.171356
H      0.457088   -2.117340    1.291243
H      1.563611   -2.653700    0.038557
H     -0.699312   -2.934882   -0.751740
H      0.131377   -1.749348   -1.777424
H     -2.299942   -1.315590   -1.267950
H     -2.873228   -1.689936    0.950941
H     -1.365428   -0.954287    1.611605
H     -3.788723    0.447146    0.452122
H     -2.837615    0.841696    1.945713
H     -2.482152    2.220842   -0.400701
H     -1.097773    1.847812    0.702315
H     -1.715395    0.717093   -1.995476
H     -0.165613    0.760502   -1.108839
