31

N      2.794288   -2.134324   -0.099476
C      2.527574   -0.737426    0.004262
C      3.299804    0.040585    0.875043
C      3.064468    1.412265    0.990455
C      2.060462    2.015229    0.231197
C      1.285169    1.247886   -0.641747
C      1.501663   -0.136906   -0.758417
C      0.634290   -0.955548   -1.684694
C     -0.409787   -1.831283   -0.954892
C     -1.524811   -1.121414   -0.140178
C     -2.250239    0.022376   -0.850959
C     -2.763560    0.908868    0.268445
C     -1.729845    0.795374    1.378349
C     -1.088514   -0.581841    1.229901
H      4.084323   -0.418376    1.463634
H      3.663492    2.008936    1.666172
H      1.881855    3.079078    0.319217
H      0.513976    1.736626   -1.222305
H      1.295494   -1.630780   -2.269992
H      0.146945   -0.315350   -2.448266
H      0.114133   -2.549535   -0.288279
H     -0.910849   -2.448071   -1.732813
H     -2.296769   -1.899532    0.064095
H     -1.572919    0.626224   -1.482617
H     -3.085668   -0.354950   -1.480001
H     -3.742880    0.523516    0.629605
H     -2.884582    1.961484   -0.068008
H     -2.202701    0.916948    2.377019
H     -0.957632    1.584826    1.247395
H      0.010283   -0.509283    1.343031
H     -1.457462   -1.255602    2.034824
