31

N     -2.195923   -2.184080    0.034015
C     -2.835171   -0.909728    0.066820
C     -4.175066   -0.807950   -0.326577
C     -4.819341    0.431456   -0.317817
C     -4.126588    1.576643    0.079739
C     -2.789085    1.485046    0.474301
C     -2.133212    0.241519    0.484514
C     -0.679290    0.171233    0.882738
C      0.224283    0.293098   -0.351590
C      1.718631    0.270764    0.024603
C      2.614164    0.525400   -1.180866
C      3.954202   -0.100660   -0.824886
C      3.668230   -1.178959    0.218988
C      2.187510   -1.075492    0.572409
H     -4.717333   -1.690037   -0.643566
H     -5.854816    0.504975   -0.624240
H     -4.625357    2.537241    0.079006
H     -2.263643    2.384564    0.770737
H     -0.479794   -0.784942    1.412042
H     -0.443892    0.990098    1.597841
H      0.000960    1.255499   -0.863466
H     -0.000855   -0.531368   -1.064065
H      1.921977    1.060852    0.783659
H      2.717173    1.613366   -1.385562
H      2.205562    0.020620   -2.085193
H      4.624484    0.674078   -0.391164
H      4.440666   -0.532679   -1.726502
H      3.899652   -2.188337   -0.186366
H      4.291327   -1.007011    1.124132
H      2.034127   -1.134309    1.672015
H      1.636418   -1.910899    0.085322
