31

N      1.411393    2.221890    1.426661
C      2.284591    1.467639    0.588583
C      3.585499    1.933683    0.363118
C      4.454617    1.221654   -0.466913
C      4.026651    0.042539   -1.080059
C      2.730124   -0.430682   -0.860947
C      1.850466    0.267926   -0.015395
C      0.444262   -0.243485    0.180954
C     -0.504993    0.382394   -0.857988
C     -2.003879    0.048801   -0.654191
C     -2.299080   -1.453664   -0.625602
C     -2.524602   -1.807954    0.833631
C     -3.070822   -0.547929    1.485358
C     -2.582762    0.629928    0.645779
H      3.922680    2.851521    0.828405
H      5.458793    1.586999   -0.639130
H      4.699053   -0.503860   -1.728781
H      2.410961   -1.341886   -1.351845
H      0.440784   -1.349275    0.078284
H      0.106686   -0.020119    1.214018
H     -0.390032    1.488888   -0.843251
H     -0.200432    0.037962   -1.870906
H     -2.551955    0.494956   -1.514957
H     -3.236534   -1.653558   -1.191111
H     -1.489974   -2.067849   -1.076297
H     -3.234691   -2.656959    0.937114
H     -1.559415   -2.087292    1.308797
H     -2.722703   -0.463678    2.537826
H     -4.182878   -0.579094    1.475761
H     -1.835254    1.225463    1.212916
H     -3.436557    1.305040    0.416097
