31

N      2.821031   -2.271327   -0.717920
C      3.448314   -1.085211   -0.235003
C      4.825158   -0.915592   -0.424869
C      5.460555    0.244049    0.025458
C      4.722495    1.242592    0.663857
C      3.347898    1.082271    0.858142
C      2.698704   -0.086553    0.423280
C      1.208145   -0.223180    0.614952
C      0.457366    0.300120   -0.611741
C     -1.019381    0.160406   -0.418864
C     -1.846980    1.106182    0.181113
C     -3.093400    0.525091    0.158908
C     -4.324835    0.988086    0.616959
C     -5.441563    0.147298    0.453196
C     -5.300094   -1.120263   -0.156090
C     -4.040581   -1.558243   -0.606682
C     -2.954690   -0.703641   -0.430970
O     -1.706427   -0.911978   -0.770570
H      5.403560   -1.681825   -0.925822
H      6.524864    0.370908   -0.125080
H      5.215261    2.143613    1.005712
H      2.788563    1.870619    1.346801
H      0.941514   -1.287338    0.796803
H      0.890019    0.346902    1.516143
H      0.758691   -0.275106   -1.513794
H      0.708338    1.370136   -0.781424
H     -1.571503    2.073817    0.579875
H     -4.421155    1.960341    1.082846
H     -6.414657    0.473501    0.796467
H     -6.165575   -1.758699   -0.276527
H     -3.919636   -2.526974   -1.073525
