31

N      2.864580   -2.092793    1.177789
C      3.465951   -1.002852    0.482125
C      4.846090   -0.797331    0.598295
C      5.456782    0.272084   -0.061022
C      4.690695    1.144682   -0.836305
C      3.312582    0.947581   -0.958472
C      2.687731   -0.133558   -0.312399
C      1.193557   -0.307376   -0.432430
C      0.474217    0.412718    0.710503
C     -1.006152    0.235647    0.589433
C     -1.860142    1.062216   -0.136423
C     -3.099706    0.487698    0.022096
C     -4.348507    0.860750   -0.469775
C     -5.451772    0.054903   -0.131782
C     -5.280209   -1.090290    0.678803
C     -4.003806   -1.439823    1.158236
C     -2.931846   -0.622538    0.807064
O     -1.672171   -0.764629    1.138611
H      5.446322   -1.464996    1.203741
H      6.523789    0.427399    0.033216
H      5.164502    1.976955   -1.340636
H      2.731562    1.639202   -1.556144
H      0.931948   -1.388148   -0.423419
H      0.843561    0.100412   -1.406879
H      0.719719    1.497142    0.688961
H      0.807536   -0.000035    1.687188
H     -1.605872    1.949443   -0.701576
H     -4.467877    1.739463   -1.090440
H     -6.437653    0.313770   -0.495346
H     -6.135577   -1.702925    0.932146
H     -3.859835   -2.314770    1.778514
