31

N      2.663369   -1.848607   -1.898347
C      3.370710   -0.921520   -1.077528
C      4.749467   -1.084532   -0.895950
C      5.462503   -0.198760   -0.084605
C      4.800611    0.852045    0.553423
C      3.424749    1.023026    0.378099
C      2.697823    0.147687   -0.447776
C      1.207515    0.332531   -0.596069
C      0.455680   -0.496025    0.448215
C     -1.020996   -0.312312    0.295968
C     -1.776449    0.685177    0.907267
C     -3.054436    0.469137    0.447052
C     -4.244521    1.145358    0.705950
C     -5.411819    0.680977    0.071452
C     -5.359907   -0.433681   -0.796183
C     -4.140163   -1.093524   -1.037144
C     -3.002522   -0.610785   -0.394403
O     -1.777821   -1.068871   -0.478993
H      5.269106   -1.901368   -1.381103
H      6.527943   -0.330041    0.053638
H      5.353488    1.533120    1.187450
H      2.925089    1.837725    0.887746
H      0.884913    0.036623   -1.618298
H      0.946969    1.407600   -0.474886
H      0.763229   -0.185755    1.470887
H      0.699237   -1.573300    0.323580
H     -1.435155    1.457700    1.583978
H     -4.272219    1.998410    1.371644
H     -6.355019    1.181017    0.248891
H     -6.263654   -0.781949   -1.279001
H     -4.087720   -1.947104   -1.700207
