31

N     -3.813817    1.382769   -1.391148
C     -3.249769    0.287233   -0.673502
C     -3.691493   -1.011749   -0.952680
C     -3.145503   -2.102783   -0.272335
C     -2.154021   -1.901719    0.689766
C     -1.708526   -0.609014    0.976966
C     -2.255196    0.499002    0.305073
C     -1.725058    1.884249    0.598694
C     -0.651074    2.308943   -0.410896
C      0.554538    1.423391   -0.332371
C      1.579764    1.536986    0.602973
C      2.418003    0.486058    0.312162
C      3.607594    0.075016    0.909091
C      4.243566   -1.064824    0.382631
C      3.679728   -1.757320   -0.713055
C      2.474834   -1.316207   -1.291609
C      1.869874   -0.185141   -0.748879
O      0.752636    0.385533   -1.125658
H     -4.456311   -1.176963   -1.701243
H     -3.488536   -3.105138   -0.493895
H     -1.727183   -2.748736    1.211146
H     -0.930089   -0.472143    1.717597
H     -1.305343    1.928525    1.628138
H     -2.558822    2.618340    0.570491
H     -1.064712    2.280012   -1.441873
H     -0.347133    3.356663   -0.199258
H      1.684447    2.273371    1.389010
H      4.029094    0.612007    1.749073
H      5.169767   -1.413645    0.820368
H      4.176844   -2.633172   -1.109164
H      2.031897   -1.839543   -2.128821
