31

N     -2.495552   -0.516864   -2.549999
C     -3.280034   -0.326748   -1.374408
C     -4.643115   -0.645511   -1.404645
C     -5.429951   -0.482569   -0.262002
C     -4.857745   -0.004537    0.918440
C     -3.498228    0.316542    0.958312
C     -2.698254    0.171524   -0.188735
C     -1.225965    0.493666   -0.112826
C     -0.419586   -0.755314    0.250601
C      1.039221   -0.432395    0.322069
C      1.708981    0.025276    1.454031
C      3.003603    0.209281    1.027634
C      4.134697    0.653537    1.708717
C      5.339892    0.741560    0.987207
C      5.382715    0.388406   -0.380783
C      4.220625   -0.055582   -1.039307
C      3.043485   -0.132443   -0.298490
O      1.859338   -0.512906   -0.710722
H     -5.093104   -1.024020   -2.313962
H     -6.482844   -0.731821   -0.290238
H     -5.467432    0.114276    1.804828
H     -3.068180    0.677253    1.884641
H     -1.051702    1.283572    0.651386
H     -0.873041    0.902923   -1.084701
H     -0.758686   -1.152695    1.232340
H     -0.576648   -1.543838   -0.516823
H      1.302606    0.202329    2.441316
H      4.089914    0.922096    2.756324
H      6.239384    1.082259    1.483185
H      6.314846    0.460320   -0.925869
H      4.240758   -0.327577   -2.086503
