31

N      3.193333   -2.310643   -1.653968
C      2.867407   -0.949430   -1.381512
C      3.159062    0.027677   -2.340997
C      2.838064    1.366234   -2.103186
C      2.222518    1.735421   -0.905729
C      1.929775    0.767896    0.058754
C      2.254625   -0.582153   -0.164452
C      1.886438   -1.618411    0.873224
C      0.552249   -2.301696    0.547434
C     -0.583629   -1.325536    0.575157
C     -1.242086   -0.885852    1.720568
C     -2.156464    0.028716    1.252440
C     -3.094799    0.807862    1.925393
C     -3.897766    1.672451    1.158203
C     -3.742716    1.736434   -0.245311
C     -2.783113    0.936638   -0.893821
C     -2.004327    0.090942   -0.107610
O     -1.057943   -0.724504   -0.501636
H      3.631519   -0.250917   -3.274676
H      3.063155    2.117247   -2.849367
H      1.968284    2.771998   -0.725901
H      1.441113    1.069966    0.977008
H      2.683713   -2.390308    0.931299
H      1.828812   -1.153154    1.882228
H      0.361954   -3.102394    1.294134
H      0.604049   -2.780535   -0.454004
H     -1.063936   -1.183180    2.745717
H     -3.203353    0.752007    3.000887
H     -4.637964    2.292852    1.646417
H     -4.364927    2.405544   -0.825214
H     -2.653048    0.978830   -1.967271
