31

N     -3.053889    0.312927    2.715328
C     -3.604513    0.139839    1.410782
C     -4.995593    0.150968    1.256003
C     -5.564975   -0.015993   -0.006395
C     -4.747195   -0.195122   -1.121551
C     -3.356824   -0.208099   -0.980085
C     -2.761681   -0.040359    0.290718
C     -1.255250   -0.046641    0.502327
C     -0.405038   -0.244676   -0.764939
C      1.076947   -0.241288   -0.502016
C      1.719802   -0.085341    0.729832
C      3.059171   -0.157423    0.427686
C      4.185134   -0.070049    1.243462
C      5.447011   -0.183493    0.630590
C      5.549399   -0.379126   -0.765501
C      4.390733   -0.462840   -1.560315
C      3.156875   -0.346760   -0.924111
O      1.966183   -0.395116   -1.467952
H     -5.637423    0.289408    2.117162
H     -6.641297   -0.006569   -0.120407
H     -5.191642   -0.324553   -2.100070
H     -2.763912   -0.349917   -1.871879
H     -1.013158   -0.861917    1.218966
H     -0.970500    0.922060    0.968603
H     -0.622521    0.571933   -1.486334
H     -0.663095   -1.218384   -1.233813
H      1.277722    0.059751    1.706643
H      4.094362    0.079845    2.311596
H      6.344318   -0.120492    1.232274
H      6.524689   -0.465150   -1.226550
H      4.456160   -0.612458   -2.630053
