31

N     -3.470580   -2.048781    1.610556
C     -3.103312   -0.776346    1.081987
C     -3.621390    0.383185    1.671471
C     -3.266816    1.641835    1.180137
C     -2.391395    1.748594    0.097852
C     -1.871181    0.597184   -0.498521
C     -2.225958   -0.676416   -0.018874
C     -1.614565   -1.907008   -0.649754
C     -0.387223   -2.396523    0.129404
C      0.713778   -1.380985    0.110506
C      1.617996   -1.190292   -0.931071
C      2.388080   -0.128426   -0.517452
C      3.450288    0.525269   -1.137776
C      4.042479    1.604190   -0.455065
C      3.562122    1.998356    0.814534
C      2.485178    1.317247    1.412330
C      1.920769    0.253613    0.712355
O      0.916503   -0.503923    1.077646
H     -4.296781    0.309424    2.514676
H     -3.667958    2.535129    1.641205
H     -2.112336    2.724739   -0.277290
H     -1.183887    0.698539   -1.329535
H     -2.368341   -2.722637   -0.687402
H     -1.326634   -1.699633   -1.704252
H     -0.667592   -2.618527    1.181522
H     -0.019267   -3.340366   -0.327386
H      1.688069   -1.740624   -1.860209
H      3.808480    0.215911   -2.111218
H      4.870343    2.135857   -0.905748
H      4.024427    2.830018    1.330047
H      2.106704    1.611397    2.382499
