31

N      3.362660   -1.681779   -2.065181
C      3.048612   -0.578316   -1.218360
C      3.578335    0.683126   -1.515967
C      3.275332    1.782460   -0.709132
C      2.440101    1.627421    0.398771
C      1.908698    0.372130    0.705175
C      2.211884   -0.744629   -0.094145
C      1.588372   -2.083593    0.229235
C      0.322491   -2.337383   -0.599146
C     -0.748860   -1.339979   -0.280922
C     -1.611974   -1.403085    0.809906
C     -2.365990   -0.257280    0.708612
C     -3.388356    0.237033    1.515351
C     -3.973220    1.464297    1.151189
C     -3.525116    2.158548    0.004365
C     -2.488026    1.631743   -0.788099
C     -1.929921    0.415392   -0.402293
O     -0.959737   -0.242935   -0.986416
H      4.222678    0.813142   -2.376494
H      3.685207    2.755986   -0.945192
H      2.200840    2.481581    1.018956
H      1.252811    0.272109    1.561351
H      2.320222   -2.895696    0.029907
H      1.341902   -2.144940    1.312454
H      0.561077   -2.290620   -1.683459
H     -0.055745   -3.359331   -0.381318
H     -1.665917   -2.169540    1.571948
H     -3.722025   -0.302359    2.392455
H     -4.770523    1.879325    1.753850
H     -3.981403    3.101944   -0.265726
H     -2.134406    2.155227   -1.666683
