31

N     -3.421381    0.845133   -2.546809
C     -3.097719    0.213553   -1.309995
C     -3.706223   -1.005089   -0.985892
C     -3.396313   -1.649948    0.213875
C     -2.475477   -1.081119    1.095688
C     -1.864942    0.135824    0.782121
C     -2.173669    0.799591   -0.418747
C     -1.466222    2.091884   -0.758838
C     -0.254268    1.855339   -1.668945
C      0.789856    1.026715   -0.985526
C      1.732851    1.503814   -0.078888
C      2.423047    0.379822    0.310905
C      3.477752    0.221160    1.206912
C      3.976296   -1.079834    1.406214
C      3.413158   -2.176125    0.714109
C      2.346353   -1.981015   -0.183073
C      1.875540   -0.682131   -0.359352
O      0.896832   -0.281961   -1.132556
H     -4.417523   -1.455799   -1.666701
H     -3.867456   -2.593201    0.458356
H     -2.231359   -1.585430    2.021723
H     -1.143867    0.556968    1.471988
H     -1.138111    2.610094    0.169427
H     -2.172039    2.782665   -1.268237
H     -0.573923    1.349067   -2.605083
H      0.186271    2.836063   -1.950004
H      1.878409    2.522820    0.255046
H      3.899825    1.067806    1.732873
H      4.795487   -1.241707    2.094592
H      3.803788   -3.172321    0.875793
H      1.905030   -2.812635   -0.716587
