31

N      2.392945   -2.193001    1.743397
C      3.198760   -1.486482    0.802621
C      4.503673   -1.928900    0.553653
C      5.307956   -1.263165   -0.374364
C      4.810829   -0.154405   -1.062038
C      3.509783    0.294761   -0.820174
C      2.694990   -0.356960    0.122204
C      1.282511    0.126130    0.342891
C      0.309862   -0.615794   -0.576775
C     -1.089166   -0.136083   -0.352938
C     -1.685869    0.940843   -1.003749
C     -2.942824    1.014073   -0.450196
C     -3.999117    1.888391   -0.696004
C     -5.181589    1.710295    0.046199
C     -5.276297    0.675614    1.004537
C     -4.189226   -0.189833    1.229279
C     -3.032924    0.011393    0.479044
O     -1.914604   -0.669519    0.530140
H      4.894301   -2.792600    1.077151
H      6.315489   -1.610073   -0.564212
H      5.433003    0.355831   -1.785968
H      3.136448    1.150634   -1.369026
H      0.988382   -0.023217    1.404856
H      1.222220    1.219147    0.142842
H      0.353309   -1.707380   -0.372003
H      0.591985   -0.449574   -1.639549
H     -1.256666    1.578523   -1.765570
H     -3.914985    2.677762   -1.431819
H     -6.023453    2.370226   -0.117839
H     -6.190293    0.548113    1.569794
H     -4.249434   -0.984751    1.961047
