31

N     -2.559786   -1.345786    3.181032
C     -2.484242   -0.296318    2.218605
C     -2.795541    1.011775    2.608983
C     -2.716874    2.059184    1.688073
C     -2.325292    1.805240    0.372294
C     -2.015041    0.502881   -0.027249
C     -2.097600   -0.562092    0.887628
C     -1.712366   -1.955716    0.445392
C     -0.258447   -2.286192    0.805923
C      0.701230   -1.387866    0.087656
C      1.130733   -1.551884   -1.226680
C      1.947041   -0.467969   -1.451261
C      2.659902   -0.081140   -2.583779
C      3.413433    1.105189   -2.508497
C      3.433365    1.866281   -1.317560
C      2.699667    1.447855   -0.191646
C      1.964472    0.269619   -0.296958
O      1.213203   -0.291281    0.617830
H     -3.094952    1.218223    3.628943
H     -2.955921    3.068985    1.995701
H     -2.258279    2.618941   -0.338243
H     -1.701366    0.325515   -1.048708
H     -2.382703   -2.700185    0.926284
H     -1.857715   -2.068253   -0.651916
H     -0.045934   -3.341160    0.528853
H     -0.106294   -2.188781    1.902372
H      0.869087   -2.342035   -1.918256
H      2.635622   -0.670888   -3.491080
H      3.980398    1.437059   -3.368468
H      4.015499    2.777386   -1.271208
H      2.704704    2.023413    0.724706
