31

N      2.439288   -2.078499   -1.858930
C      3.246301   -1.149537   -1.138286
C      4.624375   -1.376454   -1.038597
C      5.434362   -0.489469   -0.325527
C      4.870755    0.626673    0.295719
C      3.496390    0.861698    0.201644
C      2.672092   -0.014890   -0.525565
C      1.186233    0.241506   -0.586027
C      0.466885   -0.490790    0.549122
C     -1.005703   -0.236345    0.483957
C     -1.666910    0.830271    1.087706
C     -2.982487    0.659642    0.724575
C     -4.116843    1.411080    1.023211
C     -5.346417    0.977930    0.492786
C     -5.409559   -0.181018   -0.313933
C     -4.243609   -0.916795   -0.597526
C     -3.042108   -0.463325   -0.057960
O     -1.850465   -0.990103   -0.197186
H      5.068331   -2.243793   -1.511082
H      6.498867   -0.670219   -0.250268
H      5.498857    1.308972    0.853820
H      3.073904    1.727105    0.697335
H      0.988540    1.333782   -0.507319
H      0.780356   -0.088965   -1.567167
H      0.858568   -0.145237    1.530901
H      0.647231   -1.584544    0.468143
H     -1.242083    1.617173    1.697234
H     -4.056414    2.297480    1.641477
H     -6.249133    1.536270    0.703776
H     -6.360378   -0.504687   -0.716845
H     -4.279227   -1.804908   -1.214768
