31

N     -2.749636    2.344880    0.880311
C     -3.414576    1.138531    0.511340
C     -4.791404    1.168105    0.258389
C     -5.463201    0.003063   -0.119309
C     -4.761733   -1.196952   -0.250776
C     -3.387460   -1.236462   -0.000219
C     -2.701931   -0.074410    0.395245
C     -1.212274   -0.134244    0.628728
C     -0.451971    0.206358   -0.655100
C      1.023935    0.148665   -0.418720
C      1.816937   -0.988925   -0.546853
C      3.077394   -0.561256   -0.200347
C      4.288476   -1.246644   -0.136060
C      5.428270   -0.524150    0.263556
C      5.329120    0.848518    0.585888
C      4.089227    1.510631    0.511710
C      2.979694    0.768945    0.112695
O      1.743381    1.182433   -0.019405
H     -5.341519    2.096261    0.350681
H     -6.527323    0.031602   -0.315108
H     -5.282631   -2.097148   -0.550496
H     -2.856721   -2.173511   -0.115939
H     -0.924898   -1.153283    0.971241
H     -0.923106    0.570776    1.438617
H     -0.725820   -0.511368   -1.459206
H     -0.722454    1.229405   -0.995090
H      1.510565   -1.983384   -0.844188
H      4.352373   -2.298232   -0.384439
H      6.386594   -1.023176    0.324738
H      6.212038    1.394136    0.892341
H      4.000654    2.560836    0.757127
