31

N      2.915315   -2.071847   -1.171448
C      3.491746   -0.894993   -0.609037
C      4.854115   -0.889812   -0.285862
C      5.439309    0.245320    0.280097
C      4.665055    1.379881    0.530454
C      3.304557    1.384338    0.211097
C      2.706363    0.253892   -0.372823
C      1.228822    0.270404   -0.679044
C      0.427658   -0.278421    0.503839
C     -1.035895   -0.263056    0.195165
C     -1.897691    0.805740    0.428314
C     -3.113392    0.366473   -0.041619
C     -4.356971    0.992952   -0.082148
C     -5.432970    0.275150   -0.636952
C     -5.240245   -1.034656   -1.132141
C     -3.969740   -1.638000   -1.077135
C     -2.924979   -0.902631   -0.522083
O     -1.675017   -1.267949   -0.377062
H      5.460051   -1.768238   -0.469783
H      6.492566    0.243660    0.529412
H      5.118647    2.255985    0.975664
H      2.716297    2.269355    0.420457
H      0.900896    1.310825   -0.898874
H      1.019940   -0.331972   -1.590141
H      0.620736    0.336613    1.410023
H      0.739159   -1.323277    0.719766
H     -1.663276    1.764906    0.871337
H     -4.492659    1.996788    0.299313
H     -6.414038    0.729410   -0.684966
H     -6.074694   -1.577206   -1.556984
H     -3.809665   -2.639632   -1.454115
