31

C     -4.515020   -1.244700   -0.834134
C     -3.557197   -0.190454   -0.363729
C     -4.033554    0.956208    0.289767
C     -3.143737    1.951012    0.703024
C     -1.775818    1.817634    0.452431
C     -1.288572    0.691543   -0.229497
C      0.187785    0.535265   -0.477177
C      0.855297   -0.194475    0.692336
C      2.335979   -0.349626    0.446452
C      2.813547   -1.506381   -0.194203
C      4.177457   -1.657022   -0.458816
C      5.076180   -0.651796   -0.096541
C      4.612848    0.509175    0.526994
C      3.248133    0.669308    0.796052
N      2.798756    1.870718    1.419189
C     -2.184378   -0.313337   -0.630789
H     -5.404868   -1.290951   -0.170732
H     -4.030582   -2.244369   -0.827942
H     -4.845377   -1.008578   -1.867152
H     -5.092152    1.077440    0.483894
H     -3.515117    2.827296    1.218516
H     -1.096867    2.592654    0.786220
H      0.353498   -0.035103   -1.417924
H      0.654137    1.536132   -0.612165
H      0.387196   -1.195688    0.820995
H      0.681421    0.365389    1.637147
H      2.128665   -2.291506   -0.490278
H      4.537381   -2.552719   -0.948407
H      6.131945   -0.770040   -0.303628
H      5.315542    1.287325    0.797770
H     -1.812530   -1.190352   -1.147672
