31

C      2.575737    2.195459    0.351254
C      2.252117    0.733562    0.439259
C      2.908596   -0.082584    1.372812
C      2.619550   -1.447984    1.439291
C      1.684372   -2.011000    0.567422
C      1.041468   -1.212541   -0.391148
C     -0.002010   -1.810500   -1.300371
C     -1.372695   -1.896449   -0.613525
C     -1.919537   -0.528435   -0.274356
C     -1.739858   -0.011915    1.021384
C     -2.191246    1.271035    1.341067
C     -2.823731    2.052144    0.372160
C     -3.004145    1.553303   -0.920052
C     -2.552884    0.269842   -1.250661
N     -2.737501   -0.211075   -2.580294
C      1.331289    0.160996   -0.451558
H      3.383784    2.350453   -0.393725
H      1.679816    2.774613    0.041141
H      2.911191    2.584733    1.336124
H      3.638760    0.338670    2.052769
H      3.119206   -2.070590    2.170172
H      1.459922   -3.068047    0.639197
H     -0.085171   -1.217465   -2.237348
H      0.313763   -2.833824   -1.598906
H     -2.081924   -2.425011   -1.286238
H     -1.289970   -2.519981    0.304031
H     -1.238283   -0.598691    1.781164
H     -2.046239    1.661651    2.339976
H     -3.171468    3.046275    0.621623
H     -3.491592    2.167502   -1.666855
H      0.828682    0.785854   -1.180685
