31

C      4.331599    1.751006    0.978628
C      3.508886    0.616574    0.443512
C      4.118077   -0.415220   -0.286620
C      3.356024   -1.485905   -0.761064
C      1.985514   -1.543983   -0.496263
C      1.368484   -0.535786    0.260918
C     -0.112521   -0.584774    0.524789
C     -0.881740    0.128975   -0.590882
C     -2.366912    0.078464   -0.328850
C     -2.978722    1.120950    0.389136
C     -4.347260    1.079584    0.669053
C     -5.116208   -0.005855    0.244829
C     -4.517768   -1.055437   -0.456294
C     -3.147286   -1.023076   -0.741276
N     -2.557570   -2.114482   -1.444621
C      2.135052    0.546412    0.724067
H      5.200017    1.953006    0.315969
H      3.724621    2.679326    1.040718
H      4.702166    1.491944    1.992325
H      5.180955   -0.388090   -0.492939
H      3.828653   -2.272423   -1.335120
H      1.405832   -2.375533   -0.877757
H     -0.337070   -0.102640    1.501985
H     -0.446821   -1.643421    0.595142
H     -0.650486   -0.341472   -1.571469
H     -0.545654    1.187769   -0.654917
H     -2.394896    1.965703    0.733639
H     -4.811292    1.888475    1.218497
H     -6.175735   -0.036401    0.463865
H     -5.119822   -1.897199   -0.775015
H      1.661883    1.333508    1.299556
