31

C      4.545907    0.871692    0.997831
C      3.570666    0.207348    0.071713
C      4.017335   -0.734208   -0.867844
C      3.112793   -1.332213   -1.748970
C      1.760577   -0.983122   -1.711039
C      1.304832   -0.018562   -0.798661
C     -0.155978    0.339227   -0.740164
C     -0.895168   -0.575661    0.240873
C     -2.360364   -0.219568    0.298721
C     -2.808934    0.712144    1.251238
C     -4.156440    1.078956    1.302603
C     -5.066952    0.528258    0.398652
C     -4.631577   -0.387170   -0.562476
C     -3.283450   -0.760671   -0.621925
N     -2.861680   -1.684964   -1.622634
C      2.214587    0.570034    0.095310
H      4.054471    1.138472    1.957711
H      4.936364    1.795222    0.521754
H      5.396124    0.193725    1.224904
H      5.063904   -1.009014   -0.914606
H      3.460545   -2.067716   -2.462856
H      1.069450   -1.461225   -2.394271
H     -0.606196    0.247294   -1.753225
H     -0.271621    1.399363   -0.423108
H     -0.771758   -1.637563   -0.064879
H     -0.442789   -0.477681    1.252729
H     -2.114060    1.155878    1.953658
H     -4.494300    1.793599    2.041964
H     -6.109902    0.814787    0.439442
H     -5.342828   -0.803743   -1.264762
H      1.866445    1.307086    0.809556
