31

C      4.321626    1.218144    1.493219
C      3.504168    0.508865    0.454553
C      4.102774    0.066049   -0.734729
C      3.347277   -0.619087   -1.689718
C      1.994937   -0.882409   -1.458147
C      1.390609   -0.474412   -0.258629
C     -0.072333   -0.735385   -0.019690
C     -0.919555    0.425172   -0.549953
C     -2.386714    0.163670   -0.313292
C     -2.988908    0.621851    0.871624
C     -4.338956    0.364534    1.124845
C     -5.098226   -0.360400    0.204298
C     -4.508281   -0.834332   -0.969875
C     -3.156308   -0.581756   -1.232278
N     -2.574004   -1.090124   -2.430656
C      2.149687    0.226722    0.692947
H      5.147552    1.790414    1.019484
H      3.692718    1.933615    2.064735
H      4.752695    0.473985    2.194948
H      5.152018    0.255714   -0.924801
H      3.810895   -0.946791   -2.611238
H      1.419634   -1.406874   -2.211148
H     -0.258318   -0.867690    1.069205
H     -0.372296   -1.681234   -0.522514
H     -0.727370    0.569503   -1.635579
H     -0.617498    1.367833   -0.041767
H     -2.411827    1.177547    1.600544
H     -4.795954    0.724735    2.037494
H     -6.143356   -0.559624    0.403096
H     -5.102277   -1.402344   -1.674961
H      1.685591    0.554110    1.616001
