31

C     -2.498353   -0.887131    2.122985
C     -2.243733   -0.176144    0.827113
C     -3.010475    0.943488    0.470587
C     -2.784474    1.592041   -0.746206
C     -1.802186    1.121287   -1.620965
C     -1.047548   -0.015050   -1.290847
C      0.044306   -0.495064   -2.213087
C      1.346657    0.292893   -2.010785
C      1.918261    0.090272   -0.625957
C      1.649973    1.036040    0.379808
C      2.124718    0.841650    1.679324
C      2.869154   -0.297922    1.989392
C      3.138600   -1.247683    1.001183
C      2.664892   -1.062978   -0.303308
N      2.942453   -2.053637   -1.290650
C     -1.274505   -0.661517   -0.064135
H     -3.232809   -1.702870    1.958355
H     -2.900382   -0.185733    2.884854
H     -1.556207   -1.321412    2.520511
H     -3.778107    1.317868    1.136558
H     -3.369847    2.463239   -1.010464
H     -1.628280    1.641856   -2.554582
H     -0.286580   -0.375310   -3.267695
H      0.231440   -1.580449   -2.059943
H      1.160364    1.373236   -2.199721
H      2.088424   -0.032818   -2.771456
H      1.061691    1.918542    0.160121
H      1.911119    1.573257    2.447798
H      3.234850   -0.447159    2.997085
H      3.712835   -2.131022    1.251235
H     -0.686252   -1.531770    0.202892
