31

C      2.353161    2.249818   -0.967872
C      2.198298    0.872497   -0.394616
C      3.117847    0.390175    0.548982
C      2.982605   -0.900558    1.066668
C      1.938137   -1.723250    0.637757
C      1.028009   -1.264897   -0.327282
C     -0.126438   -2.135015   -0.755339
C     -1.299496   -2.049408    0.231842
C     -1.887785   -0.657910    0.288274
C     -1.480090    0.226314    1.303141
C     -1.971772    1.533437    1.343005
C     -2.872371    1.972436    0.370816
C     -3.281703    1.106112   -0.645616
C     -2.792481   -0.204761   -0.695457
N     -3.215781   -1.065262   -1.750751
C      1.164548    0.035432   -0.841822
H      2.856506    2.924141   -0.242636
H      1.359843    2.685493   -1.208225
H      2.960498    2.197448   -1.895427
H      3.934930    1.014789    0.888347
H      3.687062   -1.262952    1.804159
H      1.837208   -2.716452    1.057565
H     -0.468540   -1.850985   -1.774567
H      0.213244   -3.191815   -0.817113
H     -2.084377   -2.773670   -0.075296
H     -0.959130   -2.368338    1.241782
H     -0.770901   -0.093222    2.056863
H     -1.650445    2.208047    2.125998
H     -3.251008    2.985875    0.402849
H     -3.976970    1.456067   -1.398407
H      0.457392    0.400418   -1.577622
