31

C      2.809807    1.881716    0.316173
C      2.308181    0.474003    0.443968
C      2.824034   -0.374866    1.434876
C      2.369231   -1.691896    1.539124
C      1.407356   -2.175149    0.648638
C      0.903798   -1.346499   -0.365999
C     -0.168275   -1.853031   -1.297219
C     -1.564964   -1.745536   -0.668230
C     -1.954724   -0.308919   -0.404119
C     -1.764339    0.236349    0.878245
C     -2.068974    1.576356    1.130221
C     -2.563896    2.386124    0.106366
C     -2.753004    1.858627   -1.173160
C     -2.448133    0.517671   -1.436031
N     -2.637780    0.006885   -2.753765
C      1.360120   -0.021235   -0.464455
H      3.151406    2.269081    1.299682
H      3.659050    1.907555   -0.398025
H      2.003448    2.550321   -0.053985
H      3.572849   -0.015773    2.130048
H      2.760888   -2.338542    2.313679
H      1.053797   -3.193816    0.749591
H      0.032500   -2.918399   -1.543607
H     -0.142393   -1.294176   -2.258231
H     -2.306305   -2.213265   -1.351289
H     -1.594222   -2.335408    0.274499
H     -1.367560   -0.373777    1.680404
H     -1.916685    1.988420    2.119381
H     -2.798001    3.424296    0.303451
H     -3.132951    2.494811   -1.962762
H      0.965740    0.628072   -1.237470
