31

C      2.600142    1.840912    1.026702
C      2.307196    0.672107    0.133692
C      2.971632    0.535657   -1.094497
C      2.658861   -0.524238   -1.949507
C      1.673010   -1.447279   -1.592104
C      0.994470   -1.319307   -0.370253
C     -0.117095   -2.274372   -0.016212
C     -1.443515   -1.873873   -0.678303
C     -1.936283   -0.532046   -0.186109
C     -1.662276    0.624981   -0.937296
C     -2.062375    1.880964   -0.474352
C     -2.737279    1.996083    0.742281
C     -3.011459    0.855557    1.500731
C     -2.612038   -0.407113    1.046475
N     -2.892093   -1.554273    1.845774
C      1.309224   -0.249802    0.484935
H      1.910718    2.675108    0.779625
H      3.648049    2.184869    0.894062
H      2.462961    1.561134    2.092964
H      3.727586    1.251804   -1.392170
H      3.174238   -0.624410   -2.895991
H      1.429448   -2.254536   -2.271731
H     -0.245995   -2.326782    1.087047
H      0.156829   -3.297762   -0.353328
H     -1.317570   -1.859553   -1.783501
H     -2.205645   -2.653139   -0.461917
H     -1.126786    0.555408   -1.876211
H     -1.844667    2.766391   -1.057490
H     -3.045203    2.970208    1.099651
H     -3.531265    0.954209    2.445521
H      0.767179   -0.126905    1.415418
