31

C      2.512275    1.816195    1.322764
C      2.289687    0.555121    0.542063
C      3.034690   -0.597855    0.832190
C      2.788929   -1.786712    0.140483
C      1.790325   -1.837872   -0.835132
C      1.031228   -0.694827   -1.130253
C     -0.091605   -0.768203   -2.133229
C     -1.383815   -1.308704   -1.503978
C     -1.924610   -0.377569   -0.442044
C     -2.639393    0.767930   -0.833566
C     -3.108668    1.671869    0.122939
C     -2.864426    1.446085    1.478679
C     -2.149853    0.315838    1.881746
C     -1.676795   -0.596788    0.931388
N     -0.938089   -1.734276    1.371687
C      1.279456    0.497873   -0.430235
H      1.832549    1.830949    2.200253
H      3.563273    1.879793    1.676829
H      2.308184    2.707024    0.691275
H      3.801779   -0.577855    1.596459
H      3.366363   -2.673259    0.368667
H      1.599410   -2.770424   -1.351621
H     -0.279544    0.233824   -2.578034
H      0.206116   -1.436685   -2.970251
H     -2.145636   -1.425645   -2.305316
H     -1.206642   -2.326583   -1.094868
H     -2.827041    0.963692   -1.882172
H     -3.658298    2.550923   -0.187918
H     -3.226409    2.149102    2.217726
H     -1.960060    0.151244    2.935052
H      0.676619    1.375796   -0.631582
