31

C     -4.415978   -0.865518   -1.537490
C     -3.535317   -0.177368   -0.536976
C     -4.067033    0.799189    0.318840
C     -3.252749    1.420064    1.269444
C     -1.907947    1.059547    1.384888
C     -1.370299    0.060860    0.557802
C      0.084550   -0.309878    0.664430
C      0.932192    0.564964   -0.264013
C      2.391324    0.195728   -0.156553
C      2.926062   -0.771708   -1.025297
C      4.267356   -1.150518   -0.923342
C      5.084973   -0.576077    0.051822
C      4.562276    0.375274    0.931052
C      3.219597    0.761051    0.836846
N      2.706410    1.722521    1.756541
C     -2.188326   -0.551022   -0.406417
H     -4.864922   -1.768761   -1.074226
H     -5.229743   -0.188931   -1.875259
H     -3.829960   -1.169445   -2.430947
H     -5.109626    1.083435    0.246626
H     -3.664853    2.182210    1.918161
H     -1.286587    1.555460    2.120435
H      0.220726   -1.381169    0.396893
H      0.427705   -0.186511    1.715366
H      0.586589    0.435756   -1.313758
H      0.789614    1.637678   -0.008462
H      2.303124   -1.233980   -1.781206
H      4.672252   -1.892816   -1.599043
H      6.123194   -0.871923    0.129791
H      5.201209    0.810269    1.689445
H     -1.775810   -1.314734   -1.055394
