28

N      1.356646   -1.618518   -2.640209
S      2.554740   -1.525761   -1.399473
O      2.593731   -2.817058   -0.631622
O      3.895205   -1.315208   -2.046298
C      2.185093   -0.187457   -0.296473
C      3.107397    0.869775   -0.202396
C      2.895340    1.926865    0.682630
C      1.764160    1.941861    1.493891
C      0.834077    0.905994    1.414275
C      1.013684   -0.160056    0.510979
C     -0.047854   -1.242102    0.472777
C     -1.399415   -0.668902    0.125281
C     -1.648829   -0.178866   -1.167944
C     -2.896609    0.364852   -1.487848
C     -3.903028    0.425738   -0.520419
C     -3.662684   -0.055531    0.769258
C     -2.416230   -0.600126    1.093618
H      4.002641    0.878260   -0.809822
H      3.615732    2.732303    0.745622
H      1.606846    2.758134    2.187104
H     -0.036391    0.937799    2.058014
H     -0.077403   -1.737857    1.467440
H      0.176555   -2.041924   -0.256346
H     -0.876472   -0.211951   -1.924698
H     -3.082523    0.741165   -2.485487
H     -4.868124    0.847676   -0.769415
H     -4.442039   -0.005151    1.518621
H     -2.244246   -0.963954    2.098939
