28

N     -1.683291   -2.886117    0.493391
S     -2.763280   -1.575747    0.809636
O     -2.827005   -1.313793    2.288107
O     -4.135599   -1.964144    0.334823
C     -2.210030   -0.115747   -0.030974
C     -3.045528    0.440553   -1.015712
C     -2.686795    1.614850   -1.677540
C     -1.492968    2.257413   -1.361581
C     -0.647041    1.721302   -0.391322
C     -0.975678    0.523494    0.273447
C      0.001199   -0.004013    1.306207
C      1.355182   -0.264554    0.693934
C      1.528116   -1.319700   -0.217954
C      2.779218   -1.554257   -0.796440
C      3.865399   -0.737441   -0.471587
C      3.701793    0.316558    0.431170
C      2.452322    0.554814    1.012114
H     -3.986024   -0.028602   -1.272351
H     -3.341679    2.032426   -2.431476
H     -1.221531    3.173977   -1.869345
H      0.274682    2.241016   -0.160120
H     -0.338819   -0.941210    1.783431
H      0.079982    0.742712    2.126082
H      0.694288   -1.955046   -0.485113
H      2.906050   -2.368166   -1.498527
H      4.833030   -0.919824   -0.920883
H      4.543156    0.950414    0.679791
H      2.340853    1.378830    1.705794
