28

N      3.427592   -2.275436   -0.041829
S      1.955892   -1.546640    0.497783
O      1.939495   -1.597633    1.998934
O      0.803512   -2.338231   -0.051068
C      1.853858    0.130266   -0.073515
C      2.764287    0.549319   -1.059560
C      2.723925    1.848656   -1.565024
C      1.769983    2.749277   -1.099992
C      0.851951    2.354136   -0.127704
C      0.876298    1.049188    0.401776
C     -0.166156    0.684112    1.440099
C     -1.257321   -0.189734    0.872969
C     -1.627453   -1.375441    1.531833
C     -2.658038   -2.172856    1.024848
C     -3.338739   -1.786149   -0.132265
C     -2.994900   -0.597405   -0.780707
C     -1.964923    0.203165   -0.277694
H      3.509338   -0.130530   -1.449776
H      3.432172    2.156097   -2.323672
H      1.737968    3.755683   -1.497161
H      0.113459    3.071290    0.209237
H      0.324547    0.207296    2.311409
H     -0.645555    1.599668    1.849863
H     -1.113798   -1.687808    2.432510
H     -2.930695   -3.089848    1.531032
H     -4.136906   -2.404193   -0.522619
H     -3.529708   -0.293612   -1.671298
H     -1.720085    1.127364   -0.785384
