28

N     -2.849933   -2.568322   -1.588988
S     -1.528997   -1.924705   -0.678431
O     -1.366610   -2.765554    0.555641
O     -0.286574   -2.007946   -1.518249
C     -1.845343   -0.232814   -0.246881
C     -2.910182    0.424869   -0.887461
C     -3.198585    1.760471   -0.607479
C     -2.424905    2.463964    0.311161
C     -1.359107    1.834829    0.953445
C     -1.051753    0.485519    0.691285
C      0.134415   -0.125760    1.410625
C      1.333525   -0.280146    0.508302
C      1.832206    0.818365   -0.215359
C      2.961717    0.675067   -1.026813
C      3.612455   -0.558367   -1.110465
C      3.139158   -1.649081   -0.376884
C      2.010099   -1.510611    0.436174
H     -3.521999   -0.090979   -1.614886
H     -4.022165    2.252519   -1.108762
H     -2.648069    3.501661    0.523301
H     -0.766573    2.407979    1.656022
H      0.438603    0.509746    2.270611
H     -0.160420   -1.092845    1.863550
H      1.347813    1.784405   -0.152350
H      3.335249    1.522073   -1.587629
H      4.487194   -0.667212   -1.738484
H      3.648884   -2.602031   -0.436075
H      1.659896   -2.365093    1.001729
