28

N     -2.615871    3.128061   -0.563221
S     -1.417566    2.087160    0.121480
O     -1.378399    2.340181    1.601606
O     -0.087613    2.426542   -0.488339
C     -1.812217    0.389953   -0.214000
C     -2.810925    0.119108   -1.165839
C     -3.154102   -1.193520   -1.489323
C     -2.501577   -2.257641   -0.873504
C     -1.502646   -2.013560    0.068211
C     -1.142376   -0.696906    0.415281
C     -0.032817   -0.508104    1.430829
C      1.262463   -0.075694    0.789613
C      1.966044    1.031899    1.294795
C      3.181440    1.417862    0.721334
C      3.713133    0.693089   -0.348158
C      3.033875   -0.423541   -0.841682
C      1.818118   -0.813219   -0.271706
H     -3.327590    0.924134   -1.670371
H     -3.925567   -1.385475   -2.223949
H     -2.766698   -3.275349   -1.129637
H     -1.003443   -2.859448    0.524804
H      0.161111   -1.456692    1.977223
H     -0.358130    0.207086    2.211852
H      1.570986    1.602118    2.126306
H      3.712551    2.277909    1.108218
H      4.654580    0.992766   -0.790082
H      3.451729   -0.990361   -1.663618
H      1.311508   -1.688358   -0.658124
