28

N      0.947487   -3.218378   -0.322087
S      2.283524   -2.352736    0.348083
O      3.550820   -2.891002   -0.255067
O      2.334923   -2.566831    1.834717
C      2.121862   -0.621437    0.000553
C      3.109061   -0.007835   -0.790754
C      3.062204    1.360251   -1.058747
C      2.034522    2.139449   -0.534667
C      1.042518    1.551289    0.249173
C      1.054571    0.167602    0.513615
C     -0.065738   -0.400665    1.362808
C     -1.412444   -0.142412    0.733749
C     -1.779692   -0.806030   -0.449263
C     -3.022036   -0.557873   -1.040802
C     -3.905375    0.354844   -0.458424
C     -3.547018    1.022313    0.715764
C     -2.305528    0.777221    1.310803
H      3.927561   -0.585092   -1.199818
H      3.830891    1.818767   -1.667473
H      2.005851    3.202640   -0.735655
H      0.255113    2.178538    0.648773
H     -0.009760    0.063787    2.371347
H      0.026306   -1.489855    1.526779
H     -1.102637   -1.509066   -0.915786
H     -3.299005   -1.071700   -1.952246
H     -4.866366    0.546439   -0.918021
H     -4.230851    1.731269    1.164351
H     -2.040762    1.306502    2.217656
