28

N     -1.184082    2.183721    2.293407
S     -2.474256    1.794318    1.213001
O     -2.607895    2.869050    0.171054
O     -3.753061    1.732448    2.000649
C     -2.158731    0.237041    0.425827
C     -3.057679   -0.818922    0.658363
C     -2.889186   -2.052747    0.029906
C     -1.826136   -2.250117   -0.846969
C     -0.920027   -1.218265   -1.089175
C     -1.054967    0.028777   -0.447817
C     -0.022370    1.096683   -0.751903
C      1.367055    0.630193   -0.394253
C      2.305116    0.342999   -1.401170
C      3.587238   -0.101763   -1.063841
C      3.941869   -0.265267    0.277858
C      3.014299    0.014108    1.284868
C      1.731234    0.459054    0.952171
H     -3.901225   -0.690629    1.323549
H     -3.591033   -2.855299    0.216948
H     -1.703223   -3.205206   -1.341224
H     -0.103006   -1.394407   -1.778072
H     -0.084983    1.345291   -1.833696
H     -0.208886    2.043776   -0.213460
H      2.044292    0.459560   -2.445682
H      4.305605   -0.321290   -1.843095
H      4.934422   -0.610393    0.537028
H      3.288726   -0.116280    2.323689
H      1.020889    0.663565    1.742038
