28

N     -2.902411   -1.939055   -2.125279
S     -1.581607   -1.625814   -1.054961
O     -0.323308   -1.524066   -1.868696
O     -1.478269   -2.780575   -0.099884
C     -1.848312   -0.107508   -0.176086
C     -2.873774    0.743991   -0.623465
C     -3.121501    1.960896    0.011500
C     -2.345569    2.351500    1.099037
C     -1.318184    1.526905    1.555969
C     -1.052431    0.291151    0.934583
C      0.094016   -0.542438    1.472073
C      1.308048   -0.490067    0.578054
C      1.862198    0.744441    0.193338
C      3.004926    0.785188   -0.611211
C      3.613596   -0.402477   -1.024481
C      3.084847   -1.633260   -0.627741
C      1.942358   -1.679107    0.177013
H     -3.485919    0.474235   -1.473214
H     -3.915071    2.605120   -0.344730
H     -2.536999    3.298429    1.587202
H     -0.722691    1.859330    2.397451
H     -0.245411   -1.584233    1.635701
H      0.399890   -0.181923    2.478276
H      1.410794    1.674304    0.514941
H      3.421300    1.738280   -0.910722
H      4.498638   -0.368984   -1.646576
H      3.561935   -2.552633   -0.941718
H      1.548911   -2.641631    0.479305
