21

C     -1.909714   -1.650830   -0.445669
C     -0.964473   -1.269589    0.690837
C     -0.299741    0.061907    0.418309
C     -1.049831    1.229512    0.652546
C     -0.510025    2.489477    0.394672
C      0.785101    2.604407   -0.104222
C      1.545499    1.460129   -0.347536
C      1.020255    0.180208   -0.096921
S      2.051428   -1.228647   -0.406818
N      1.266983   -2.315498   -1.496183
O      2.345949   -1.931879    0.888097
O      3.351667   -0.796803   -1.025218
H     -1.364280   -1.691698   -1.411360
H     -2.733266   -0.909897   -0.527563
H     -2.351673   -2.649058   -0.243052
H     -1.548892   -1.204725    1.634585
H     -0.227577   -2.081356    0.843669
H     -2.061154    1.162411    1.035153
H     -1.098536    3.378643    0.580769
H      1.202373    3.583258   -0.302708
H      2.549906    1.580027   -0.731388
