21

C      2.413596   -0.829922   -0.222220
C      1.262794   -0.908277    0.777434
C      0.203138    0.124472    0.463659
C      0.423727    1.445392    0.895985
C     -0.500489    2.452107    0.616561
C     -1.656607    2.157625   -0.102188
C     -1.891900    0.856092   -0.546759
C     -0.971412   -0.172429   -0.280001
S     -1.341203   -1.806070   -0.860674
N     -1.658037   -2.840420    0.486325
O     -0.186453   -2.346622   -1.655144
O     -2.556749   -1.782274   -1.744629
H      2.043904   -0.981693   -1.257689
H      2.912534    0.160543   -0.158296
H      3.161010   -1.617942    0.008449
H      1.664691   -0.730100    1.798823
H      0.850164   -1.935881    0.787625
H      1.319022    1.696902    1.451713
H     -0.318723    3.463224    0.957434
H     -2.373327    2.940022   -0.316246
H     -2.799680    0.655249   -1.100164
