21

C      2.096355   -1.246146    0.784842
C      1.473574   -0.761791   -0.521809
C      0.379378    0.248436   -0.257093
C      0.760303    1.579060   -0.002677
C     -0.196556    2.555186    0.275405
C     -1.547562    2.218117    0.308411
C     -1.946999    0.903278    0.066245
C     -0.998836   -0.096808   -0.211478
S     -1.577274   -1.742891   -0.525372
N     -1.296520   -2.148353   -2.181103
O     -3.052040   -1.838316   -0.250679
O     -0.863934   -2.720586    0.364620
H      1.325150   -1.699392    1.441891
H      2.574900   -0.398884    1.320740
H      2.872134   -2.009896    0.566519
H      2.268038   -0.294871   -1.144159
H      1.104537   -1.630639   -1.100821
H      1.806132    1.861274   -0.018124
H      0.110929    3.575178    0.466876
H     -2.288488    2.977607    0.522557
H     -3.003221    0.670438    0.095210
