21

C      2.376468    0.064363   -0.954910
C      1.668773    0.315159    0.374024
C      0.271043   -0.262797    0.359461
C      0.127118   -1.641969    0.599391
C     -1.130952   -2.243913    0.573817
C     -2.264136   -1.480314    0.304113
C     -2.143668   -0.112461    0.056207
C     -0.884899    0.513273    0.072650
S     -0.806524    2.257381   -0.235010
N     -0.334704    3.078605    1.209858
O      0.182019    2.546007   -1.328768
O     -2.152489    2.772164   -0.662643
H      2.490175   -1.026583   -1.130849
H      1.801446    0.507379   -1.794545
H      3.386033    0.525936   -0.931651
H      1.666397    1.400592    0.593490
H      2.259088   -0.159970    1.187832
H      0.996136   -2.255039    0.805778
H     -1.226753   -3.305423    0.762521
H     -3.239593   -1.949177    0.286634
H     -3.040977    0.456786   -0.147401
