21

C     -2.527334   -0.244312    0.341297
C     -1.532769   -0.130426   -0.810945
C     -0.120238   -0.383003   -0.332552
C      0.291435   -1.719360   -0.174227
C      1.571885   -2.022172    0.288897
C      2.459694   -0.996733    0.605437
C      2.069878    0.335445    0.462820
C      0.782669    0.662721    0.002064
S      0.359416    2.375539   -0.170623
N      0.177486    2.760051   -1.845054
O      1.444540    3.241235    0.406068
O     -0.920460    2.668468    0.559403
H     -2.517078   -1.273774    0.758608
H     -2.275691    0.474851    1.148380
H     -3.550850   -0.022383   -0.027450
H     -1.636214    0.861136   -1.293067
H     -1.801058   -0.878148   -1.589043
H     -0.385348   -2.531902   -0.409563
H      1.875599   -3.054741    0.403561
H      3.453467   -1.234051    0.962858
H      2.780972    1.111558    0.713129
