21

C     -1.876584    1.577045    0.744954
C     -1.438643    0.831447   -0.512856
C     -0.010298    0.350155   -0.386036
C      1.020128    1.275610   -0.635331
C      2.358968    0.904716   -0.510120
C      2.690413   -0.393583   -0.129999
C      1.684602   -1.325358    0.129099
C      0.329052   -0.971248    0.013318
S     -0.896557   -2.209254    0.341843
N     -1.712827   -2.618116   -1.124855
O     -1.887910   -1.701350    1.349851
O     -0.250137   -3.449044    0.893711
H     -1.783436    0.925647    1.638769
H     -1.252126    2.483918    0.892191
H     -2.936659    1.890619    0.641396
H     -2.140569   -0.001306   -0.713255
H     -1.523491    1.518823   -1.382809
H      0.784044    2.291938   -0.926854
H      3.141051    1.626553   -0.707320
H      3.730034   -0.679716   -0.035294
H      1.970946   -2.327495    0.419596
