21

C      2.468937    0.427239    0.541018
C      1.514302    0.559351   -0.642911
C      0.241319   -0.221840   -0.401507
C      0.281332   -1.615823   -0.591294
C     -0.847257   -2.401518   -0.358121
C     -2.032387   -1.809554    0.071413
C     -2.093750   -0.429824    0.269797
C     -0.967472    0.380706    0.043025
S     -1.124375    2.129236    0.292524
N      0.063510    2.681361    1.418315
O     -0.951842    2.842631   -1.018728
O     -2.484439    2.457198    0.842247
H      2.780369   -0.631285    0.669326
H      3.375185    1.042319    0.358720
H      1.983440    0.776000    1.476103
H      1.316746    1.630974   -0.837681
H      2.019538    0.170500   -1.553924
H      1.194642   -2.097172   -0.919674
H     -0.801716   -3.472323   -0.509438
H     -2.907308   -2.421100    0.250821
H     -3.028774    0.002922    0.599968
