23

N      0.832077    1.290739    2.155147
C      1.507741    0.567051    1.130615
C      2.898993    0.430724    1.216871
C      3.607628   -0.236777    0.217629
C      2.930803   -0.772603   -0.876890
C      1.543475   -0.643284   -0.975329
C      0.808152    0.028438    0.023334
C     -0.673643    0.129522   -0.102529
C     -1.309424    0.236417   -1.259922
C     -2.783564    0.236329   -1.102619
C     -3.000642   -0.106116    0.370595
C     -1.633917    0.056094    1.037455
H      3.434406    0.849243    2.060093
H      4.682712   -0.338074    0.291739
H      3.481183   -1.294558   -1.649092
H      1.043885   -1.090013   -1.825489
H     -0.816918    0.334918   -2.218781
H     -3.183854    1.245886   -1.337939
H     -3.246734   -0.525503   -1.765545
H     -3.757564    0.565331    0.831580
H     -3.342634   -1.160469    0.465709
H     -1.619700    1.003895    1.615364
H     -1.402460   -0.807192    1.698004
