23

N      0.869558    1.127051    2.157009
C      1.528554    0.616595    1.001556
C      2.923487    0.719304    0.929305
C      3.615268    0.199775   -0.165105
C      2.917734   -0.427855   -1.195978
C      1.526505   -0.537349   -1.136105
C      0.807971   -0.019725   -0.038376
C     -0.677986   -0.134792   -0.016829
C     -1.345772   -1.155290   -0.534369
C     -2.815055   -0.976706   -0.449810
C     -2.987832    0.462073    0.034762
C     -1.606478    0.901862    0.521996
H      3.474763    1.199401    1.728338
H      4.693334    0.283349   -0.213566
H      3.455178   -0.826204   -2.046933
H      1.011273   -1.009587   -1.962819
H     -0.880403   -2.036975   -0.955959
H     -3.284197   -1.125142   -1.445930
H     -3.236503   -1.695706    0.285194
H     -3.311374    1.108073   -0.811212
H     -3.742218    0.523575    0.849254
H     -1.344694    1.910412    0.135397
H     -1.591113    0.893859    1.632046
