23

N      0.899877    1.620511    1.888698
C      1.544147    0.834110    0.890498
C      2.940050    0.893354    0.792766
C      3.617321    0.112432   -0.144075
C      2.904172   -0.735173   -0.990335
C      1.511795   -0.804064   -0.902969
C      0.807765   -0.023745    0.037604
C     -0.679637   -0.105801    0.089337
C     -1.366088   -1.210336   -0.163623
C     -2.831924   -0.992546   -0.122089
C     -2.979672    0.523459   -0.001047
C     -1.588875    1.045699    0.362132
H      3.503329    1.543969    1.450235
H      4.696245    0.164078   -0.213469
H      3.430422   -1.336932   -1.720130
H      0.984515   -1.454371   -1.589268
H     -0.916835   -2.175489   -0.359407
H     -3.309137   -1.370659   -1.051434
H     -3.260075   -1.504611    0.766331
H     -3.728235    0.793182    0.775600
H     -3.298171    0.949978   -0.977933
H     -1.313856    1.925811   -0.258294
H     -1.567131    1.307145    1.440872
