23

N     -0.722770   -2.124063    1.403201
C     -1.455311   -1.084021    0.761632
C     -2.854517   -1.130874    0.802067
C     -3.613384   -0.114890    0.220601
C     -2.979122    0.957108   -0.405263
C     -1.584350    1.016217   -0.452261
C     -0.798470    0.000065    0.130031
C      0.687190    0.083730    0.042916
C      1.363453    1.222855    0.059280
C      2.820871    1.023205   -0.124851
C      2.951855   -0.457276   -0.479490
C      1.598349   -1.083750   -0.141103
H     -3.356302   -1.956316    1.291666
H     -4.694313   -0.158528    0.255929
H     -3.569068    1.742300   -0.860335
H     -1.121448    1.849489   -0.965399
H      0.914251    2.195953    0.210866
H      3.202754    1.668855   -0.944415
H      3.351525    1.251768    0.824348
H      3.774137   -0.936608    0.095290
H      3.155546   -0.567266   -1.567643
H      1.241652   -1.741518   -0.962851
H      1.687473   -1.656438    0.805783
