23

N      1.015622   -0.923396   -2.262495
C      1.600387   -0.401655   -1.072642
C      2.997186   -0.360876   -0.978318
C      3.614468    0.176180    0.151610
C      2.839843    0.677997    1.196268
C      1.445833    0.643768    1.114683
C      0.801796    0.105952   -0.018986
C     -0.687541    0.065521   -0.063859
C     -1.466707    0.984892    0.486470
C     -2.907554    0.657473    0.365669
C     -2.920470   -0.767065   -0.186843
C     -1.493553   -1.036210   -0.666865
H      3.607481   -0.742386   -1.787540
H      4.694524    0.203872    0.216953
H      3.319955    1.089963    2.074577
H      0.871811    1.019945    1.951892
H     -1.103136    1.889661    0.956451
H     -3.391975    1.362150   -0.343962
H     -3.403994    0.708844    1.358289
H     -3.186090   -1.482538    0.622607
H     -3.652381   -0.868874   -1.017637
H     -1.463197   -0.974372   -1.774911
H     -1.132310   -2.028847   -0.321412
