23

N     -0.643107   -1.458987   -2.112058
C     -1.413918   -0.790090   -1.117908
C     -2.809265   -0.898818   -1.170730
C     -3.606531   -0.230485   -0.241266
C     -3.014905    0.553142    0.748219
C     -1.624473    0.670384    0.811828
C     -0.800251    0.003779   -0.118514
C      0.680581    0.133483   -0.008586
C      1.295167    1.228408    0.414057
C      2.765094    1.058153    0.504391
C      2.982543   -0.434551    0.260873
C      1.656268   -0.960013   -0.290341
H     -3.278384   -1.500035   -1.939701
H     -4.684185   -0.319766   -0.288714
H     -3.634385    1.067268    1.471803
H     -1.194020    1.267508    1.605604
H      0.791703    2.157137    0.649984
H      3.131917    1.359874    1.508776
H      3.259999    1.664566   -0.284371
H      3.814947   -0.607393   -0.455722
H      3.217829   -0.942596    1.222224
H      1.752740   -1.118241   -1.384949
H      1.354636   -1.902726    0.215100
