23

N     -0.930683    0.951854    2.287100
C     -1.557541    0.535040    1.077461
C     -2.955713    0.571290    1.003917
C     -3.611798    0.208631   -0.172618
C     -2.874882   -0.192294   -1.285895
C     -1.479929   -0.232492   -1.226028
C     -0.796971    0.130828   -0.046705
C      0.691265    0.055873   -0.010555
C      1.467020    0.297425   -1.057007
C      2.902995    0.070732   -0.766455
C      2.905156   -0.574137    0.618784
C      1.496135   -0.362429    1.174472
H     -3.536594    0.887586    1.861461
H     -4.692655    0.239150   -0.221353
H     -3.385299   -0.478133   -2.196622
H     -0.936733   -0.570110   -2.099459
H      1.105145    0.642991   -2.016855
H      3.438679    1.044193   -0.751225
H      3.352921   -0.604351   -1.525543
H      3.113390   -1.663109    0.526903
H      3.672797   -0.110693    1.276222
H      1.520033    0.449998    1.930712
H      1.093262   -1.297841    1.619287
