23

N     -0.823598   -2.404328   -0.769818
C     -1.504683   -1.193838   -0.446774
C     -2.890307   -1.129103   -0.638456
C     -3.581940    0.058285   -0.393579
C     -2.891778    1.191620    0.036709
C     -1.509158    1.139306    0.231255
C     -0.798124   -0.054249    0.006321
C      0.670440   -0.077290    0.227592
C      1.323714   -1.072578    0.804734
C      2.777533   -0.805093    0.920117
C      2.980761    0.512110    0.169610
C      1.577967    1.055122   -0.109796
H     -3.431669   -1.999039   -0.988996
H     -4.652763    0.102015   -0.545120
H     -3.429042    2.112910    0.221608
H     -1.000339    2.030347    0.575033
H      0.851962   -1.963862    1.197578
H      3.053180   -0.696607    1.991103
H      3.361381   -1.628126    0.455201
H      3.574128    1.230053    0.776854
H      3.510786    0.322686   -0.789887
H      1.463638    1.345528   -1.176397
H      1.367910    1.924132    0.549832
