23

N      0.904803   -1.889093    1.617306
C      1.542180   -0.997495    0.706968
C      2.930259   -1.089675    0.544651
C      3.602615   -0.212867   -0.307023
C      2.892393    0.764268   -1.002701
C      1.507831    0.867279   -0.849511
C      0.808913   -0.008541    0.007045
C     -0.671332    0.115475    0.130623
C     -1.323337    1.266327    0.055557
C     -2.794008    1.094043    0.128219
C     -2.995736   -0.418667    0.052311
C     -1.613853   -1.031222    0.284966
H      3.491555   -1.841310    1.085800
H      4.675488   -0.290740   -0.427176
H      3.414561    1.440828   -1.666975
H      0.981421    1.621282   -1.420738
H     -0.844548    2.233485   -0.028350
H     -3.289802    1.609513   -0.721995
H     -3.169381    1.495922    1.093827
H     -3.725361   -0.765277    0.816370
H     -3.365879   -0.698964   -0.958676
H     -1.562928   -1.436037    1.317458
H     -1.395855   -1.828533   -0.457956
