23

N      0.776938    1.820053    2.054917
C      1.479081    1.032382    1.095703
C      2.875993    1.117256    1.047552
C      3.601809    0.314957    0.165670
C      2.936557   -0.583778   -0.668377
C      1.543043   -0.677607   -0.629158
C      0.793866    0.136119    0.241082
C     -0.686450    0.015026    0.254235
C     -1.519505    1.040218    0.328087
C     -2.940823    0.619786    0.288797
C     -2.884464   -0.908431    0.319760
C     -1.414281   -1.277134    0.111483
H      3.401926    1.799601    1.703708
H      4.681503    0.384429    0.134476
H      3.501325   -1.208551   -1.348312
H      1.051970   -1.376024   -1.294060
H     -1.208538    2.076258    0.362459
H     -3.488340    1.020843    1.168450
H     -3.410447    0.979206   -0.651966
H     -3.523868   -1.347653   -0.476805
H     -3.230645   -1.279563    1.309636
H     -1.266307   -1.689495   -0.909534
H     -1.070345   -2.007898    0.874853
