23

N      0.814311    2.222819    1.269663
C      1.505246    1.133804    0.661238
C      2.903326    1.099363    0.732443
C      3.610470    0.018101    0.204208
C      2.924209   -1.040230   -0.391526
C      1.529286   -1.017245   -0.468237
C      0.800973    0.073048    0.043192
C     -0.680814    0.068497   -0.059094
C     -1.411342    1.125308   -0.375221
C     -2.860303    0.816125   -0.433275
C     -2.958186   -0.631272    0.051543
C     -1.520285   -1.150510    0.111502
H      3.443320    1.908301    1.208645
H      4.690997   -0.003016    0.263823
H      3.473926   -1.880148   -0.796449
H      1.022950   -1.846611   -0.944480
H     -1.002701    2.098133   -0.615814
H     -3.219708    0.907463   -1.480772
H     -3.430139    1.502461    0.229025
H     -3.413110   -0.660177    1.066260
H     -3.576069   -1.243330   -0.641188
H     -1.309021   -1.639360    1.086919
H     -1.337337   -1.861523   -0.722406
