34

N     -3.683673   -1.040858   -1.546928
C     -3.980377   -0.326608   -0.348828
C     -5.281830   -0.368000    0.165938
C     -5.594130    0.310556    1.346343
C     -4.606254    1.030319    2.021229
C     -3.304504    1.077685    1.515105
C     -2.980465    0.411806    0.320038
C     -1.560804    0.449814   -0.189883
C     -0.763316   -0.743383    0.345094
C      0.651858   -0.705618   -0.166381
C      0.978462   -1.322456   -1.384216
C      2.282852   -1.262952   -1.881508
C      3.277762   -0.575581   -1.171820
C      4.590982   -0.508612   -1.662915
C      5.572660    0.183916   -0.948277
C      5.252417    0.813571    0.257484
C      3.948356    0.754712    0.757502
C      2.953231    0.061423    0.050633
C      1.640637   -0.004233    0.542068
H     -6.052033   -0.930234   -0.347186
H     -6.601372    0.274183    1.740863
H     -4.848373    1.549488    2.939575
H     -2.547853    1.632724    2.055991
H     -1.070721    1.396686    0.128468
H     -1.553793    0.442385   -1.301747
H     -1.250850   -1.693051    0.032217
H     -0.762481   -0.724622    1.457504
H      0.220113   -1.849205   -1.950407
H      2.512494   -1.750450   -2.821550
H      4.857012   -0.989696   -2.596627
H      6.584157    0.233297   -1.330323
H      6.016830    1.348746    0.805921
H      3.718454    1.249004    1.693905
H      1.384554    0.489705    1.472718
