34

N     -3.359160   -2.369325   -0.287114
C     -3.861973   -1.035234   -0.255420
C     -5.230049   -0.826330   -0.042801
C     -5.744739    0.471303    0.007865
C     -4.894147    1.567347   -0.149008
C     -3.527308    1.368878   -0.361895
C     -2.998807    0.067878   -0.430202
C     -1.514931   -0.121484   -0.628078
C     -0.798786   -0.219398    0.722277
C      0.680925   -0.410863    0.523411
C      1.214931   -1.703284    0.401889
C      2.582712   -1.887463    0.183885
C      3.435001   -0.779569    0.073628
C      4.810341   -0.953248   -0.146558
C      5.648681    0.159600   -0.259461
C      5.122753    1.450066   -0.154701
C      3.754834    1.636892    0.064277
C      2.901957    0.528033    0.180987
C      1.527156    0.702809    0.400297
H     -5.895369   -1.670716    0.087494
H     -6.802830    0.627410    0.173940
H     -5.293598    2.572218   -0.102218
H     -2.879850    2.230150   -0.472143
H     -1.323171   -1.039061   -1.226100
H     -1.099472    0.732713   -1.207592
H     -0.983063    0.706018    1.311731
H     -1.212610   -1.070239    1.307314
H      0.569531   -2.570066    0.474551
H      2.972940   -2.894628    0.097817
H      5.235294   -1.946322   -0.231704
H      6.708688    0.021502   -0.429275
H      5.776953    2.307764   -0.243579
H      3.364847    2.644756    0.142681
H      1.112318    1.701893    0.473805
