34

N     -3.777675   -0.638229   -1.957640
C     -3.248152    0.118356   -0.871153
C     -3.504638    1.493268   -0.807514
C     -2.986030    2.258739    0.239547
C     -2.208173    1.654326    1.228773
C     -1.949120    0.282510    1.175362
C     -2.469299   -0.500917    0.129515
C     -2.127881   -1.972051    0.059971
C     -0.952881   -2.242451   -0.891066
C      0.315829   -1.583473   -0.411903
C      1.095954   -2.195506    0.581219
C      2.241820   -1.564237    1.071733
C      2.617567   -0.304940    0.582873
C      3.761805    0.342101    1.074921
C      4.120873    1.601156    0.585106
C      3.343084    2.222505   -0.395664
C      2.201516    1.588640   -0.894563
C      1.831048    0.323358   -0.412925
C      0.686123   -0.321079   -0.903698
H     -4.103024    1.970835   -1.573294
H     -3.184394    3.321887    0.282147
H     -1.801299    2.250110    2.035572
H     -1.331394   -0.167428    1.942913
H     -1.883104   -2.361798    1.072740
H     -3.014354   -2.544673   -0.288132
H     -0.793165   -3.340516   -0.960039
H     -1.208143   -1.893413   -1.915549
H      0.810927   -3.160748    0.981253
H      2.829053   -2.056480    1.837805
H      4.375311   -0.123612    1.836982
H      5.003604    2.097167    0.967558
H      3.625552    3.198013   -0.769961
H      1.609856    2.085854   -1.654026
H      0.072804    0.162728   -1.655688
