34

N      3.269898    2.104192    1.277878
C      3.818064    1.101443    0.424863
C      5.155255    1.204037    0.022531
C      5.711304    0.242994   -0.825134
C      4.932578   -0.823279   -1.279087
C      3.597067   -0.934305   -0.882799
C      3.029442    0.017695   -0.017883
C      1.576404   -0.104541    0.370239
C      0.690801    0.683226   -0.599832
C     -0.758069    0.562531   -0.210011
C     -1.324055    1.476047    0.693000
C     -2.659267    1.350387    1.085038
C     -3.445100    0.301479    0.586799
C     -4.787100    0.165273    0.974987
C     -5.558570   -0.887671    0.474849
C     -4.998531   -1.810243   -0.412899
C     -3.663201   -1.686132   -0.807295
C     -2.877648   -0.632622   -0.313722
C     -1.536028   -0.497864   -0.701814
H      5.763919    2.032061    0.363879
H      6.745082    0.327693   -1.134386
H      5.363086   -1.563007   -1.941645
H      3.004234   -1.762348   -1.251631
H      1.425429    0.266357    1.407538
H      1.272956   -1.175044    0.364141
H      0.992046    1.754067   -0.600006
H      0.835779    0.300231   -1.634291
H     -0.728726    2.286458    1.095425
H     -3.075748    2.070091    1.779760
H     -5.237544    0.870422    1.663389
H     -6.593039   -0.989296    0.776628
H     -5.600882   -2.623725   -0.796231
H     -3.245954   -2.410890   -1.496248
H     -1.093883   -1.215715   -1.383620
