34

N     -1.129861    0.631395   -2.189366
C     -2.013519    0.527231   -1.075025
C     -2.525782    1.697407   -0.502235
C     -3.382183    1.626591    0.598715
C     -3.730030    0.385587    1.134986
C     -3.222853   -0.788141    0.571643
C     -2.365377   -0.732484   -0.540993
C     -1.790027   -2.017055   -1.094241
C     -0.603081   -2.517725   -0.258508
C      0.559663   -1.559614   -0.308501
C      1.453749   -1.592505   -1.389786
C      2.500216   -0.670454   -1.472441
C      2.660600    0.305627   -0.478694
C      3.702756    1.242567   -0.556678
C      3.846747    2.215815    0.436359
C      2.954451    2.261914    1.510894
C      1.912668    1.334298    1.600734
C      1.758136    0.350588    0.611509
C      0.714759   -0.583378    0.689216
H     -2.256592    2.664416   -0.908433
H     -3.773942    2.534660    1.038476
H     -4.389785    0.332883    1.991375
H     -3.492827   -1.742476    1.006918
H     -2.580227   -2.799204   -1.090912
H     -1.479732   -1.895443   -2.154319
H     -0.281465   -3.507464   -0.649784
H     -0.925563   -2.681426    0.793370
H      1.334134   -2.329223   -2.174569
H      3.178294   -0.715381   -2.316358
H      4.402453    1.223284   -1.383761
H      4.651301    2.936996    0.372307
H      3.070372    3.018721    2.275951
H      1.229632    1.385868    2.440302
H      0.012916   -0.543874    1.514790
