34

N     -3.366540   -2.345816   -0.308660
C     -3.867226   -1.043807   -0.012495
C     -5.211247   -0.895794    0.351070
C     -5.721991    0.366934    0.660888
C     -4.891059    1.487980    0.613579
C     -3.548315    1.350279    0.251587
C     -3.025386    0.087370   -0.077330
C     -1.564755   -0.041850   -0.433366
C     -0.730566   -0.348809    0.813956
C      0.725834   -0.479981    0.456961
C      1.249498   -1.725560    0.076713
C      2.592689   -1.848276   -0.288049
C      3.429426   -0.723175   -0.287774
C      4.779929   -0.835047   -0.653605
C      5.602524    0.295143   -0.653896
C      5.085409    1.541694   -0.291152
C      3.742164    1.666854    0.075023
C      2.905422    0.539726    0.080990
C      1.555376    0.652834    0.446097
H     -5.860538   -1.761162    0.397663
H     -6.761323    0.475756    0.942766
H     -5.286777    2.464563    0.860986
H     -2.915057    2.228699    0.229040
H     -1.425350   -0.845032   -1.189550
H     -1.204507    0.902996   -0.897676
H     -0.863313    0.463632    1.562372
H     -1.088684   -1.291239    1.284092
H      0.614964   -2.603205    0.061256
H      2.975732   -2.820797   -0.573623
H      5.197614   -1.793242   -0.938975
H      6.643388    0.204756   -0.936661
H      5.727274    2.413202   -0.293916
H      3.358673    2.641332    0.353151
H      1.146713    1.619040    0.720146
