34

N     -3.152645   -2.055500   -1.785641
C     -3.765720   -1.026671   -1.011512
C     -5.140473   -1.093277   -0.754420
C     -5.761786   -0.106062    0.014154
C     -5.011614    0.950596    0.533906
C     -3.638984    1.025773    0.282516
C     -3.004096    0.047051   -0.502089
C     -1.515269    0.131017   -0.732838
C     -0.757901   -0.659180    0.338558
C      0.726929   -0.576693    0.105693
C      1.365190   -1.517557   -0.717521
C      2.737408   -1.427672   -0.964928
C      3.489472   -0.387775   -0.400130
C      4.868271   -0.287429   -0.643135
C      5.605949    0.756850   -0.078061
C      4.975456    1.706373    0.730494
C      3.602902    1.618080    0.980212
C      2.850506    0.573655    0.420149
C      1.472129    0.474750    0.663075
H     -5.728141   -1.913559   -1.147355
H     -6.824536   -0.162968    0.211212
H     -5.493429    1.710697    1.135253
H     -3.070007    1.846888    0.701060
H     -1.189204    1.194613   -0.709651
H     -1.262317   -0.260704   -1.742254
H     -1.004305   -0.255547    1.345621
H     -1.082458   -1.723057    0.321848
H      0.797759   -2.321562   -1.169989
H      3.209211   -2.167998   -1.600057
H      5.373492   -1.013833   -1.268531
H      6.668978    0.830790   -0.267863
H      5.551991    2.512970    1.164698
H      3.131076    2.363376    1.609451
H      0.976164    1.213562    1.282621
