34

N      2.797234    2.287752    2.016076
C      3.564538    1.439126    1.164780
C      4.946931    1.341592    1.364667
C      5.718395    0.505464    0.554073
C      5.111724   -0.241337   -0.457691
C      3.732692   -0.150454   -0.664990
C      2.946966    0.698745    0.133809
C      1.455342    0.755742   -0.086900
C      0.738549   -0.260934    0.806681
C     -0.749434   -0.201202    0.587384
C     -1.538949    0.680007    1.342644
C     -2.915965    0.764862    1.121507
C     -3.521694   -0.023937    0.133138
C     -4.903946    0.054343   -0.098074
C     -5.495011   -0.733855   -1.089729
C     -4.713853   -1.602753   -1.856338
C     -3.336155   -1.690080   -1.636384
C     -2.730030   -0.905232   -0.642796
C     -1.348083   -0.983693   -0.413043
H      5.424150    1.911523    2.152104
H      6.786439    0.432525    0.713670
H      5.710021   -0.894176   -1.080074
H      3.276494   -0.743714   -1.447979
H      1.076585    1.779535    0.124615
H      1.223254    0.541037   -1.153733
H      1.111579   -1.284871    0.582603
H      0.969737   -0.052724    1.874693
H     -1.086032    1.303919    2.103388
H     -3.505838    1.449054    1.719837
H     -5.524888    0.723368    0.485765
H     -6.561220   -0.670587   -1.264996
H     -5.177304   -2.210048   -2.623104
H     -2.746396   -2.369215   -2.240527
H     -0.735833   -1.649782   -1.010653
