34

N     -2.964956   -3.134368    0.224928
C     -2.830165   -1.754055    0.556348
C     -3.176663   -1.323783    1.842828
C     -3.041061    0.020847    2.196123
C     -2.558354    0.942884    1.265645
C     -2.212636    0.523559   -0.021402
C     -2.349022   -0.826339   -0.391964
C     -1.914056   -1.267853   -1.770916
C     -0.494889   -1.854462   -1.762803
C      0.531031   -0.827504   -1.354988
C      1.015199    0.096157   -2.294086
C      1.922392    1.087223   -1.910805
C      2.349884    1.175192   -0.578322
C      3.254117    2.172308   -0.180607
C      3.666026    2.254317    1.152688
C      3.179842    1.345472    2.096386
C      2.279397    0.347343    1.713241
C      1.859441    0.252538    0.377273
C      0.954015   -0.742788   -0.018378
H     -3.547326   -2.033247    2.572094
H     -3.307065    0.347624    3.193072
H     -2.447308    1.983113    1.543177
H     -1.825743    1.249482   -0.726041
H     -2.620135   -2.034069   -2.157279
H     -1.959175   -0.414869   -2.483590
H     -0.453791   -2.734406   -1.084156
H     -0.255772   -2.227967   -2.782279
H      0.682819    0.052307   -3.323921
H      2.283237    1.788741   -2.653556
H      3.639573    2.886842   -0.898158
H      4.362942    3.025076    1.455592
H      3.501498    1.414961    3.127508
H      1.912072   -0.347965    2.458684
H      0.564632   -1.442311    0.712902
