34

N     -3.484274   -0.359283   -2.170496
C     -3.913605   -0.271923   -0.813414
C     -5.267408   -0.042736   -0.539244
C     -5.710506    0.062222    0.781353
C     -4.802170   -0.056622    1.835028
C     -3.449035   -0.285661    1.571346
C     -2.992403   -0.408469    0.247341
C     -1.521851   -0.622898   -0.014191
C     -0.806581    0.718057   -0.204282
C      0.659696    0.502573   -0.467628
C      1.122095    0.326899   -1.781251
C      2.476927    0.093277   -2.030499
C      3.387771    0.021436   -0.966927
C      4.750714   -0.213994   -1.206023
C      5.647889   -0.288199   -0.136647
C      5.193379   -0.129409    1.175255
C      3.838557    0.105288    1.427112
C      2.927100    0.183547    0.362353
C      1.564752    0.418148    0.602547
H     -5.977161    0.058318   -1.350819
H     -6.757849    0.240891    0.987886
H     -5.146147    0.032212    2.857430
H     -2.756117   -0.365909    2.399941
H     -1.062895   -1.170893    0.838543
H     -1.382756   -1.257786   -0.916365
H     -0.937823    1.344653    0.705642
H     -1.263688    1.271687   -1.053986
H      0.430797    0.369381   -2.613976
H      2.811427   -0.034836   -3.053125
H      5.120659   -0.340841   -2.216509
H      6.698110   -0.469929   -0.325148
H      5.892904   -0.188511    1.999084
H      3.504305    0.225764    2.450728
H      1.205187    0.533544    1.618942
