34

N     -3.898449   -0.876148   -1.642205
C     -3.327743   -0.339578   -0.450709
C     -3.801252    0.881968    0.043090
C     -3.249436    1.435010    1.201054
C     -2.221287    0.770289    1.871878
C     -1.744052   -0.450502    1.388389
C     -2.294115   -1.021091    0.226493
C     -1.722748   -2.313480   -0.311012
C     -0.699926   -2.065568   -1.429310
C      0.500276   -1.302491   -0.928613
C      1.532575   -1.974962   -0.256589
C      2.620306   -1.267120    0.261017
C      2.685066    0.126726    0.123177
C      3.768782    0.848646    0.647054
C      3.817242    2.238964    0.510171
C      2.787736    2.917423   -0.147666
C      1.703177    2.210276   -0.674488
C      1.643319    0.813840   -0.545868
C      0.558711    0.093883   -1.067692
H     -4.595162    1.406450   -0.473808
H     -3.616756    2.381304    1.576622
H     -1.790067    1.203580    2.765041
H     -0.935807   -0.945345    1.912828
H     -1.244495   -2.896122    0.507110
H     -2.544406   -2.948656   -0.706407
H     -1.183379   -1.520321   -2.269269
H     -0.368683   -3.045959   -1.835665
H      1.490175   -3.049407   -0.127248
H      3.405944   -1.807881    0.775180
H      4.574670    0.339494    1.162149
H      4.654312    2.792173    0.916107
H      2.830312    3.994162   -0.249273
H      0.913530    2.753018   -1.180410
H     -0.248371    0.617425   -1.567937
