31

C      4.718005    0.882173    0.460764
C      3.366459    0.251760    0.300631
C      2.330318    0.564882    1.192880
C      1.059983    0.007403    1.021868
C      0.804723   -0.862821   -0.049916
C     -0.572075   -1.449556   -0.240487
C     -1.567024   -0.387444   -0.666196
C     -1.309090    0.314900   -1.859876
C     -2.174635    1.313561   -2.304735
C     -3.318477    1.621240   -1.573378
C     -3.608000    0.922994   -0.401075
C     -2.751729   -0.090724    0.064127
S     -3.219040   -0.975365    1.528150
N     -2.050407   -0.718069    2.773762
O     -4.555819   -0.498234    2.023050
O     -3.320874   -2.442890    1.220642
C      1.837449   -1.157920   -0.954972
C      3.107792   -0.600122   -0.783482
H      4.745289    1.842746   -0.094754
H      4.934898    1.077010    1.532706
H      5.511837    0.212594    0.066359
H      2.505099    1.241858    2.020040
H      0.272921    0.262295    1.718948
H     -0.554429   -2.243855   -1.018170
H     -0.856120   -1.955158    0.700462
H     -0.427370    0.090974   -2.447687
H     -1.957329    1.849853   -3.219483
H     -3.988673    2.397263   -1.920205
H     -4.511478    1.174396    0.138392
H      1.658676   -1.813862   -1.797866
H      3.889123   -0.831884   -1.496827
