31

C      4.604619    0.052883    0.838852
C      3.231335    0.079252    0.236352
C      2.420235   -1.064278    0.275774
C      1.154413   -1.051976   -0.316848
C      0.678899    0.106565   -0.954901
C     -0.674208    0.116095   -1.621860
C     -1.777967   -0.341880   -0.689087
C     -2.306072   -1.634237   -0.875434
C     -3.309273   -2.124708   -0.040384
C     -3.798736   -1.337564    0.997992
C     -3.287558   -0.056541    1.205537
C     -2.281307    0.462396    0.371946
S     -1.666756    2.090241    0.720274
N     -2.703803    2.894254    1.845575
O     -0.294193    1.993689    1.322509
O     -1.615951    2.917781   -0.532279
C      1.511300    1.235645   -1.030182
C      2.776967    1.222559   -0.437056
H      4.635541   -0.631325    1.713476
H      4.899716    1.066209    1.185483
H      5.334352   -0.296980    0.079163
H      2.768744   -1.966785    0.762663
H      0.546943   -1.947270   -0.279571
H     -0.616132   -0.546408   -2.512755
H     -0.920087    1.116940   -2.028446
H     -1.935627   -2.271217   -1.669300
H     -3.704520   -3.120216   -0.196471
H     -4.573728   -1.722532    1.648272
H     -3.679588    0.525765    2.028230
H      1.179581    2.129746   -1.543240
H      3.402861    2.103897   -0.504280
