31

C      4.648443    0.293644   -1.278077
C      3.328724    0.188250   -0.573055
C      3.091678   -0.857856    0.330992
C      1.875271   -0.936738    1.015390
C      0.884610    0.039027    0.817035
C     -0.435882   -0.052351    1.540450
C     -1.551375   -0.440497    0.590286
C     -1.458891   -1.690073   -0.053042
C     -2.439829   -2.107073   -0.951923
C     -3.534549   -1.289243   -1.217628
C     -3.658210   -0.055799   -0.577900
C     -2.682814    0.383976    0.334282
S     -2.935668    1.937915    1.150423
N     -4.424684    2.659021    0.649277
O     -2.989905    1.722288    2.636690
O     -1.815092    2.880645    0.815396
C      1.129320    1.092479   -0.078196
C      2.345752    1.170928   -0.762281
H      4.527153    0.789909   -2.264524
H      5.351730    0.887559   -0.657849
H      5.081300   -0.714500   -1.452282
H      3.847359   -1.614133    0.504319
H      1.707339   -1.759126    1.699630
H     -0.615821    0.912068    2.049838
H     -0.384791   -0.812971    2.349839
H     -0.617268   -2.344098    0.139618
H     -2.350303   -3.067246   -1.443495
H     -4.294765   -1.614843   -1.916010
H     -4.526397    0.550727   -0.796127
H      0.378088    1.851816   -0.248517
H      2.519478    1.996295   -1.441715
