31

C      4.783102    0.032970    0.765177
C      3.373035   -0.182909    0.301570
C      3.033926    0.012787   -1.045476
C      1.728114   -0.222635   -1.485586
C      0.746572   -0.672694   -0.587312
C     -0.667671   -0.911007   -1.054753
C     -1.603564    0.156928   -0.524266
C     -1.364800    1.489394   -0.913357
C     -2.175013    2.526208   -0.452176
C     -3.242859    2.250993    0.397424
C     -3.511230    0.936936    0.781033
C     -2.709427   -0.124699    0.326148
S     -3.144919   -1.773966    0.810928
N     -4.560981   -1.768336    1.802414
O     -2.020537   -2.391809    1.592406
O     -3.426122   -2.599989   -0.412607
C      1.091575   -0.880670    0.757604
C      2.397382   -0.645152    1.197189
H      4.801813    0.342564    1.831886
H      5.274188    0.830588    0.167929
H      5.357334   -0.910102    0.651603
H      3.779598    0.350177   -1.754837
H      1.483895   -0.053611   -2.526977
H     -0.961105   -1.933413   -0.753852
H     -0.717824   -0.900286   -2.165443
H     -0.541082    1.727251   -1.575252
H     -1.973772    3.545752   -0.754863
H     -3.870397    3.057466    0.754464
H     -4.355382    0.754508    1.431704
H      0.349707   -1.222899    1.466450
H      2.646443   -0.820346    2.236572
