31

C      4.522018    0.702863   -1.088230
C      3.199730    0.370516   -0.463163
C      2.768683    1.053303    0.683607
C      1.553273    0.719823    1.288135
C      0.748239   -0.298961    0.752054
C     -0.548450   -0.674387    1.425460
C     -1.708914   -0.723101    0.451272
C     -2.185887   -1.987790    0.055218
C     -3.237638   -2.103815   -0.852878
C     -3.827667   -0.961386   -1.385908
C     -3.368912    0.301859   -1.012883
C     -2.314999    0.444026   -0.093227
S     -1.773543    2.085653    0.307734
N     -2.916509    3.249956   -0.263433
O     -1.647430    2.254646    1.794955
O     -0.450067    2.355452   -0.349198
C      1.203524   -1.010091   -0.371533
C      2.419106   -0.676135   -0.975262
H      5.317963    0.090052   -0.616028
H      4.502997    0.494317   -2.179198
H      4.761781    1.778564   -0.948779
H      3.373959    1.843273    1.110934
H      1.238657    1.261352    2.171563
H     -0.403199   -1.664716    1.909327
H     -0.788704    0.015528    2.258380
H     -1.737601   -2.892701    0.446845
H     -3.592561   -3.083026   -1.147490
H     -4.640409   -1.054054   -2.094810
H     -3.839493    1.170002   -1.453875
H      0.619324   -1.824985   -0.779725
H      2.752728   -1.236036   -1.840274
