31

C      4.524437   -1.124447    0.457410
C      3.199137   -0.514072    0.110091
C      2.747898   -0.513088   -1.217864
C      1.529698    0.087332   -1.548572
C      0.742030    0.692164   -0.555024
C     -0.557738    1.364151   -0.922258
C     -1.706776    0.912671   -0.042501
C     -2.165209    1.799113    0.951412
C     -3.205515    1.438836    1.807126
C     -3.802334    0.186808    1.690383
C     -3.361846   -0.710092    0.717276
C     -2.319797   -0.366385   -0.161762
S     -1.801134   -1.574559   -1.353479
N     -2.950665   -2.862679   -1.440255
O     -0.473601   -2.147473   -0.946825
O     -1.693285   -0.960151   -2.719920
C      1.217569    0.727302    0.767121
C      2.435926    0.126879    1.096898
H      5.321926   -0.359546    0.352629
H      4.519771   -1.502707    1.501901
H      4.750620   -1.978709   -0.215750
H      3.339581   -0.976054   -1.997987
H      1.199348    0.074661   -2.579781
H     -0.814833    1.197837   -1.987012
H     -0.406803    2.462080   -0.834245
H     -1.711199    2.775279    1.070462
H     -3.546213    2.131276    2.566121
H     -4.606116   -0.092677    2.359337
H     -3.837182   -1.679805    0.659791
H      0.647026    1.221383    1.543218
H      2.785278    0.164672    2.121380
