31

C      4.792967   -0.352470    0.718247
C      3.383853    0.016812    0.360695
C      2.419089    0.179889    1.365876
C      1.114662    0.558926    1.036380
C      0.760191    0.795056   -0.301440
C     -0.652433    1.190084   -0.654463
C     -1.613804    0.037095   -0.441177
C     -1.383701   -1.152637   -1.159690
C     -2.220309   -2.257169   -1.003176
C     -3.307639   -2.190742   -0.136429
C     -3.570081   -1.015578    0.567702
C     -2.742401    0.111821    0.422279
S     -3.175978    1.588452    1.303101
N     -1.932306    1.991058    2.432107
O     -4.459531    1.388310    2.059402
O     -3.366853    2.718710    0.331174
C      1.731156    0.645338   -1.305195
C      3.035640    0.266247   -0.975140
H      5.379772    0.570613    0.906940
H      5.269988   -0.922925   -0.107039
H      4.812455   -0.987103    1.629799
H      2.675557    0.010743    2.404455
H      0.380466    0.665285    1.823789
H     -0.911240    2.084360   -0.058639
H     -0.716165    1.505605   -1.718602
H     -0.546036   -1.227032   -1.842286
H     -2.024504   -3.166854   -1.556100
H     -3.955418   -3.049541   -0.015969
H     -4.430451   -0.989041    1.223112
H      1.479821    0.821692   -2.343658
H      3.773230    0.164996   -1.761753
