31

C      4.392456   -0.187696   -1.612425
C      3.130856   -0.254589   -0.804031
C      2.452681    0.922076   -0.453839
C      1.296717    0.863383    0.329715
C      0.799104   -0.374505    0.771821
C     -0.431142   -0.441524    1.642352
C     -1.606050    0.299250    1.034950
C     -1.955957    1.547334    1.586001
C     -3.013810    2.289639    1.062348
C     -3.736823    1.803141   -0.022995
C     -3.405499    0.572203   -0.589046
C     -2.347969   -0.197587   -0.073523
S     -1.974065   -1.739563   -0.868123
N     -3.250042   -2.182760   -1.946856
O     -1.825941   -2.837355    0.146372
O     -0.705487   -1.604586   -1.660861
C      1.505179   -1.547037    0.455585
C      2.661002   -1.487454   -0.328257
H      4.365896    0.677249   -2.309010
H      5.261932   -0.077774   -0.931273
H      4.519727   -1.111054   -2.216807
H      2.820313    1.885610   -0.784731
H      0.791874    1.784127    0.593009
H     -0.167796   -0.010520    2.632736
H     -0.720738   -1.489132    1.857088
H     -1.403055    1.953672    2.424085
H     -3.270104    3.247294    1.496896
H     -4.554155    2.383680   -0.431189
H     -3.977981    0.227158   -1.439222
H      1.158899   -2.509717    0.810576
H      3.189979   -2.402962   -0.562887
