31

C      4.696218   -0.963927   -0.636066
C      3.373423   -0.395706   -0.215263
C      2.421367   -1.211901    0.413353
C      1.173888   -0.692871    0.771379
C      0.856627    0.646866    0.496387
C     -0.496950    1.198830    0.869636
C     -1.590218    0.602580    0.004486
C     -1.500452    0.787328   -1.389250
C     -2.463673    0.255518   -2.245858
C     -3.539368   -0.459685   -1.726926
C     -3.662984   -0.635175   -0.348670
C     -2.705962   -0.104176    0.534157
S     -2.964595   -0.315509    2.275644
N     -1.687280   -1.260143    2.953572
O     -4.266492   -1.022986    2.528829
O     -3.014662    1.028802    2.945630
C      1.802911    1.456646   -0.152868
C      3.050432    0.937072   -0.510715
H      5.013847   -1.771911    0.056997
H      4.609836   -1.379560   -1.661654
H      5.480706   -0.177428   -0.628502
H      2.643852   -2.250542    0.624924
H      0.451771   -1.338170    1.253555
H     -0.516491    2.303496    0.745766
H     -0.650578    1.013668    1.948439
H     -0.674563    1.342968   -1.816176
H     -2.375274    0.399021   -3.315055
H     -4.285603   -0.872182   -2.393740
H     -4.517156   -1.183218    0.026215
H      1.573600    2.488286   -0.389142
H      3.763822    1.574010   -1.019084
