31

C      4.537085   -0.697986   -1.096876
C      3.207916   -0.322795   -0.511936
C      2.394628    0.622330   -1.154117
C      1.171991    0.999328   -0.591368
C      0.742312    0.433213    0.621203
C     -0.562357    0.858332    1.248048
C     -1.727477    0.741811    0.285234
C     -2.243292    1.927304   -0.273645
C     -3.301499    1.889499   -1.180866
C     -3.859392    0.669109   -1.550734
C     -3.361912   -0.518582   -1.014733
C     -2.300731   -0.505049   -0.092550
S     -1.709255   -2.061359    0.521403
N     -2.819360   -3.324522    0.121039
O     -0.380898   -2.378856   -0.103577
O     -1.572452   -2.024736    2.016807
C      1.579265   -0.480375    1.283207
C      2.801710   -0.857018    0.719602
H      5.316294   -0.004405   -0.717641
H      4.809195   -1.737716   -0.815824
H      4.507709   -0.638962   -2.205804
H      2.708179    1.069988   -2.089174
H      0.562311    1.734578   -1.100936
H     -0.778850    0.280276    2.168072
H     -0.444700    1.908601    1.593112
H     -1.820563    2.889296   -0.010834
H     -3.686458    2.809427   -1.601770
H     -4.677236    0.641910   -2.259303
H     -3.808196   -1.451450   -1.331242
H      1.284241   -0.906799    2.233892
H      3.431791   -1.564394    1.244613
