31

C      4.804024   -0.119894    0.543261
C      3.398868    0.148440    0.092405
C      2.992486   -0.204867   -1.202948
C      1.672888    0.009725   -1.611520
C      0.738257    0.571257   -0.726151
C     -0.690883    0.789387   -1.157578
C     -1.628711   -0.174383   -0.456963
C     -1.407736   -1.554227   -0.635548
C     -2.223379   -2.497058   -0.010897
C     -3.280668   -2.080553    0.793211
C     -3.534338   -0.719840    0.965773
C     -2.727555    0.248423    0.342233
S     -3.150449    1.956769    0.559138
N     -1.874031    2.783288    1.378330
O     -4.404155    2.085105    1.378473
O     -3.390355    2.591880   -0.781623
C      1.141759    0.903753    0.576845
C      2.461285    0.688965    0.984881
H      5.116323    0.618161    1.312551
H      4.864457   -1.140681    0.974980
H      5.510532   -0.045017   -0.310731
H      3.696765   -0.647496   -1.896580
H      1.379634   -0.269113   -2.615980
H     -0.794819    0.642993   -2.254747
H     -0.941528    1.849392   -0.969780
H     -0.593521   -1.902474   -1.259143
H     -2.034669   -3.553577   -0.151424
H     -3.912188   -2.814141    1.277664
H     -4.371692   -0.426456    1.584855
H      0.432369    1.319585    1.279843
H      2.751028    0.942654    1.997170
