31

C     -4.770739   -0.011603   -0.674670
C     -3.350330    0.280378   -0.291254
C     -3.030529    0.618800    1.032009
C     -1.712623    0.925952    1.382790
C     -0.698386    0.914505    0.411160
C      0.727791    1.228237    0.789273
C      1.586317   -0.020684    0.758906
C      1.251252   -1.067609    1.639557
C      1.986427   -2.252241    1.656294
C      3.074017   -2.409579    0.801749
C      3.437274   -1.379198   -0.065596
C      2.712290   -0.174938   -0.097738
S      3.266634    1.110600   -1.186242
N      4.681847    0.617286   -2.047708
O      3.602445    2.337271   -0.385657
O      2.192051    1.435133   -2.184553
C     -1.023190    0.588538   -0.915238
C     -2.341099    0.281507   -1.265500
H     -5.319769   -0.469957    0.175354
H     -4.808153   -0.720414   -1.529222
H     -5.276143    0.932968   -0.965155
H     -3.800801    0.642405    1.793044
H     -1.484557    1.172531    2.412301
H      0.773438    1.659747    1.812981
H      1.094843    2.023497    0.114890
H      0.410444   -0.966995    2.314918
H      1.711531   -3.050116    2.334097
H      3.643190   -3.330184    0.816224
H      4.294446   -1.527308   -0.707908
H     -0.256363    0.569795   -1.677851
H     -2.573554    0.041677   -2.295786
