31

C      4.649339    0.503680    0.196995
C      3.207028    0.419751   -0.205874
C      2.547524    1.549809   -0.710953
C      1.213824    1.463977   -1.120535
C      0.518012    0.247230   -1.026964
C     -0.912190    0.153337   -1.497632
C     -1.816600   -0.487768   -0.463650
C     -2.234907   -1.814502   -0.684107
C     -3.051393   -2.469894    0.236812
C     -3.459767   -1.815938    1.395677
C     -3.053893   -0.503789    1.638428
C     -2.237021    0.180059    0.720940
S     -1.743345    1.837684    1.117737
N     -2.679661    2.441739    2.439342
O     -0.294789    1.851891    1.514509
O     -1.958783    2.750932   -0.055233
C      1.194680   -0.893132   -0.560987
C      2.528381   -0.806471   -0.151858
H      5.291400    0.290566   -0.682994
H      4.875789   -0.232169    0.997813
H      4.889458    1.516820    0.584240
H      3.065941    2.497525   -0.789051
H      0.723294    2.349386   -1.505393
H     -0.919245   -0.435059   -2.440879
H     -1.313315    1.146674   -1.780195
H     -1.922896   -2.349769   -1.572552
H     -3.364077   -3.489732    0.053021
H     -4.089158   -2.328618    2.111710
H     -3.377493   -0.027119    2.553667
H      0.691414   -1.850564   -0.516174
H      3.032451   -1.696537    0.204141
