31

C     -3.848018   -2.008503   -0.116926
C     -2.945089   -0.811180   -0.084330
C     -3.214814    0.253893    0.787583
C     -2.356596    1.354547    0.839070
C     -1.212959    1.391354    0.038019
C     -0.905513    0.313664   -0.810070
C      0.320193    0.354994   -1.688588
C      1.582859    0.638147   -0.898914
C      2.145760    1.925789   -0.993942
C      3.295405    2.259007   -0.278745
C      3.899864    1.316352    0.547879
C      3.357741    0.036395    0.662451
C      2.203909   -0.325335   -0.054886
S      1.563727   -1.965248    0.168925
N      2.728189   -2.957772    0.973360
O      1.254058   -2.600800   -1.156363
O      0.320831   -1.911575    1.010539
C     -1.786924   -0.779349   -0.876751
H     -3.859068   -2.462014   -1.130935
H     -4.889775   -1.722891    0.142344
H     -3.486761   -2.762490    0.613197
H     -4.092117    0.235166    1.422376
H     -2.577942    2.181026    1.501982
H     -0.564543    2.257019    0.084391
H      0.157131    1.140245   -2.458518
H      0.441419   -0.583931   -2.263964
H      1.689342    2.681313   -1.621689
H      3.715540    3.253047   -0.362361
H      4.789058    1.579085    1.106435
H      3.842939   -0.669614    1.322574
H     -1.567846   -1.610340   -1.536768
