31

C      3.858347    1.987210    0.388082
C      2.925575    0.827627    0.200453
C      3.274225   -0.444208    0.678163
C      2.424671   -1.532147    0.465353
C      1.224649   -1.360891   -0.228618
C      0.857600   -0.092397   -0.709662
C     -0.419579    0.090663   -1.491371
C     -1.629447   -0.434889   -0.744418
C     -2.189326   -1.655087   -1.170482
C     -3.290779   -2.204651   -0.515493
C     -3.848948   -1.550346    0.578872
C     -3.308529   -0.343546    1.022623
C     -2.203156    0.234001    0.373517
S     -1.560157    1.757016    1.018695
N     -2.677515    2.451225    2.140204
O     -1.338568    2.750905   -0.085528
O     -0.266328    1.495519    1.735339
C      1.729059    0.993173   -0.514555
H      3.288369    2.936953    0.473103
H      4.545023    2.052997   -0.481485
H      4.457995    1.863404    1.314985
H      4.205246   -0.594454    1.210710
H      2.700101   -2.512063    0.833345
H      0.584485   -2.218103   -0.393980
H     -0.300109   -0.438133   -2.462000
H     -0.581194    1.151766   -1.765678
H     -1.767821   -2.189986   -2.012753
H     -3.709265   -3.143375   -0.855034
H     -4.700531   -1.981717    1.089169
H     -3.756502    0.134093    1.883322
H      1.472408    1.969443   -0.908520
