31

C      4.392255    0.286978   -1.126502
C      3.199278    0.231806   -0.218789
C      3.246949    0.833148    1.047772
C      2.147033    0.754404    1.905218
C      0.998393    0.063709    1.511960
C      0.943334   -0.563387    0.257049
C     -0.301520   -1.302963   -0.167036
C     -1.442648   -0.343044   -0.441981
C     -1.251559    0.639544   -1.433362
C     -2.253741    1.562740   -1.729532
C     -3.468241    1.514875   -1.050860
C     -3.690224    0.535805   -0.082464
C     -2.695608   -0.407953    0.229461
S     -3.074952   -1.659834    1.426622
N     -2.033556   -1.504471    2.795844
O     -4.497742   -1.524039    1.892225
O     -2.903705   -3.018753    0.808090
C      2.050896   -0.477901   -0.604096
H      4.074623    0.275280   -2.190941
H      5.043932   -0.590478   -0.933111
H      4.975207    1.216582   -0.953084
H      4.133607    1.365211    1.369870
H      2.185193    1.228927    2.877273
H      0.152208    0.018641    2.184446
H     -0.538979   -2.042246    0.619625
H     -0.111041   -1.893003   -1.089810
H     -0.316617    0.694501   -1.977382
H     -2.087589    2.316993   -2.487878
H     -4.244591    2.232901   -1.281905
H     -4.649142    0.514485    0.418059
H      2.018546   -0.958457   -1.574780
