31

C      3.898403    1.886070    0.370845
C      2.939889    0.748526    0.178114
C      3.231457   -0.518224    0.705050
C      2.359185   -1.587290    0.488530
C      1.193293   -1.402285   -0.258093
C      0.883382   -0.138448   -0.789012
C     -0.355731    0.057984   -1.626734
C     -1.609368   -0.410889   -0.915062
C     -2.187758   -1.626571   -1.329137
C     -3.330171   -2.125206   -0.704247
C     -3.911778   -1.423612    0.347800
C     -3.353921   -0.220247    0.779129
C     -2.207000    0.306407    0.159488
S     -1.545329    1.828678    0.787307
N     -2.685344    2.586867    1.842631
O     -0.289338    1.551472    1.562934
O     -1.250651    2.783198   -0.334426
C      1.778164    0.927111   -0.589216
H      4.456810    1.772369    1.324421
H      4.620742    1.906853   -0.471647
H      3.353876    2.853731    0.406001
H      4.135717   -0.679295    1.278939
H      2.590630   -2.563485    0.894725
H      0.535102   -2.245391   -0.425198
H     -0.213478   -0.502112   -2.576511
H     -0.474824    1.114796   -1.937008
H     -1.749130   -2.197609   -2.138288
H     -3.762446   -3.061148   -1.034054
H     -4.795375   -1.815489    0.835005
H     -3.821411    0.294870    1.607217
H      1.566402    1.898369   -1.020490
