31

C      4.382115   -0.390179   -1.081243
C      3.213128    0.043628   -0.247345
C      3.314548    0.069708    1.151613
C      2.212944    0.433364    1.929721
C      1.000353    0.762447    1.319466
C      0.878408    0.728272   -0.078760
C     -0.440683    1.057419   -0.733058
C     -1.465678   -0.030779   -0.478952
C     -1.162325   -1.335515   -0.915430
C     -2.053315   -2.387035   -0.703749
C     -3.267449   -2.153799   -0.063943
C     -3.601109   -0.865931    0.355207
C     -2.720013    0.210237    0.148396
S     -3.241600    1.828311    0.652490
N     -2.193897    2.430215    1.886763
O     -3.222112    2.756410   -0.529382
O     -4.641658    1.780180    1.197543
C      1.988354    0.357721   -0.857396
H      5.339366   -0.130720   -0.580826
H      4.365066    0.113956   -2.070985
H      4.339165   -1.488827   -1.233463
H      4.245081   -0.193015    1.639555
H      2.297283    0.454122    3.008599
H      0.153918    1.032379    1.936693
H     -0.762247    2.048300   -0.363596
H     -0.315022    1.169989   -1.831915
H     -0.225648   -1.541090   -1.418833
H     -1.801088   -3.385363   -1.037389
H     -3.957332   -2.971644    0.099926
H     -4.557811   -0.712622    0.836580
H      1.899259    0.309863   -1.936285
