21

C     -2.431757    0.695609   -0.382018
C     -2.063040   -0.467404    0.537736
C     -0.906655   -1.312109   -0.016513
C      0.400362   -0.551710   -0.021076
C      1.115190   -0.409230    1.181363
C      2.315004    0.306234    1.212507
C      2.811829    0.890711    0.046247
C      2.109231    0.762803   -1.154073
C      0.906062    0.047780   -1.195847
N      0.206698   -0.059007   -2.433930
H     -1.593396    1.420351   -0.449194
H     -2.679946    0.321995   -1.398156
H     -3.318163    1.224291    0.027328
H     -2.954790   -1.120792    0.652965
H     -1.800903   -0.074805    1.544324
H     -1.163233   -1.683897   -1.031653
H     -0.793276   -2.215379    0.621963
H      0.740779   -0.852307    2.096081
H      2.859037    0.409150    2.142532
H      3.740955    1.445266    0.072735
H      2.500012    1.222451   -2.053322
