21

C      2.248374    0.638395   -1.039455
C      2.157228   -0.032400    0.330299
C      1.071814   -1.117311    0.383105
C     -0.319382   -0.533937    0.279329
C     -0.898651    0.064069    1.412456
C     -2.173952    0.630615    1.341421
C     -2.882624    0.610775    0.138922
C     -2.317154    0.025853   -0.996368
C     -1.039881   -0.544668   -0.935568
N     -0.485029   -1.127309   -2.112865
H      3.095037    1.356674   -1.043988
H      2.423250   -0.120544   -1.831382
H      1.315396    1.197287   -1.262624
H      3.138489   -0.502414    0.557518
H      1.964885    0.738389    1.108088
H      1.162036   -1.658448    1.350283
H      1.254791   -1.873575   -0.410088
H     -0.359960    0.092258    2.351725
H     -2.612273    1.087265    2.219405
H     -3.869994    1.050986    0.085818
H     -2.872402    0.018039   -1.926031
