21

C     -2.323306   -0.692573   -0.815997
C     -2.129356    0.438908    0.192284
C     -1.025136    0.133161    1.214614
C      0.346162    0.106051    0.577961
C      0.990282    1.321022    0.284541
C      2.248441    1.327861   -0.323243
C      2.875011    0.123683   -0.648785
C      2.244293   -1.090690   -0.369021
C      0.983545   -1.108316    0.239932
N      0.360561   -2.363105    0.505938
H     -1.416751   -0.813434   -1.445412
H     -3.180081   -0.453183   -1.480388
H     -2.538436   -1.647050   -0.290245
H     -1.897933    1.381916   -0.349241
H     -3.085273    0.590426    0.738797
H     -1.041299    0.923300    1.996805
H     -1.248481   -0.821330    1.737712
H      0.515479    2.264113    0.526095
H      2.737146    2.268096   -0.543781
H      3.849211    0.131220   -1.120361
H      2.735921   -2.020076   -0.628205
