21

C      3.290100    0.385856   -0.120256
C      1.796559    0.364994   -0.431400
C      0.990840   -0.174158    0.755224
C     -0.483445   -0.191193    0.432487
C     -1.054800   -1.344847   -0.132735
C     -2.411567   -1.372205   -0.466560
C     -3.208876   -0.246820   -0.249449
C     -2.650547    0.910834    0.297682
C     -1.292135    0.947962    0.635164
N     -0.743478    2.147046    1.178044
H      3.846789    0.779908   -0.996477
H      3.653061   -0.640984    0.098670
H      3.492933    1.041226    0.753489
H      1.623450   -0.276322   -1.323286
H      1.465251    1.398669   -0.672388
H      1.177568    0.450801    1.655516
H      1.334645   -1.203332    1.000818
H     -0.448540   -2.223423   -0.316206
H     -2.844368   -2.265958   -0.897160
H     -4.259182   -0.269847   -0.509908
H     -3.274259    1.781794    0.455898
