21

C      3.311575    0.046125    0.322449
C      1.827732   -0.152547    0.616813
C      0.960265    0.361703   -0.536873
C     -0.503839    0.156696   -0.233005
C     -1.136173   -1.030140   -0.643388
C     -2.483455   -1.253581   -0.346891
C     -3.209989   -0.300859    0.369907
C     -2.589956    0.875948    0.796441
C     -1.240480    1.108711    0.504396
N     -0.627269    2.311145    0.964467
H      3.536181    1.125205    0.183814
H      3.913684   -0.335342    1.173854
H      3.600920   -0.510072   -0.594607
H      1.570934    0.391443    1.551937
H      1.634136   -1.235982    0.776190
H      1.229716   -0.176199   -1.472703
H      1.166167    1.439634   -0.714739
H     -0.584792   -1.783623   -1.192341
H     -2.963691   -2.168023   -0.670455
H     -4.253023   -0.476582    0.599500
H     -3.158643    1.606341    1.358352
