21

C     -3.308475   -0.112337    0.430900
C     -1.824513   -0.466812    0.441645
C     -0.962153    0.747442    0.081275
C      0.502085    0.381630    0.093599
C      1.113685   -0.065264   -1.090913
C      2.460789   -0.437145   -1.095440
C      3.207833   -0.376596    0.082520
C      2.608563    0.051462    1.269484
C      1.259440    0.425908    1.284055
N      0.667695    0.844672    2.512068
H     -3.519631    0.686316    1.173629
H     -3.615027    0.234743   -0.578867
H     -3.906848   -1.009727    0.694689
H     -1.550483   -0.835554    1.454199
H     -1.644204   -1.284150   -0.290584
H     -1.248756    1.120639   -0.926844
H     -1.155039    1.575444    0.797636
H      0.546268   -0.126934   -2.011425
H      2.924975   -0.775810   -2.012699
H      4.250693   -0.666294    0.076946
H      3.193102    0.088369    2.180295
