21

C     -2.512047   -0.116180   -0.457819
C     -1.962915    0.462830    0.845139
C     -0.756550   -0.324658    1.376636
C      0.456458   -0.174106    0.486431
C      1.222863    1.002180    0.564615
C      2.336609    1.178987   -0.260443
C      2.694740    0.186955   -1.174899
C      1.938997   -0.983922   -1.268032
C      0.821230   -1.170781   -0.445659
N      0.064091   -2.372822   -0.568948
H     -3.424671    0.442007   -0.755023
H     -1.763883   -0.020901   -1.272550
H     -2.778844   -1.186053   -0.323983
H     -1.684936    1.527917    0.688977
H     -2.768967    0.433911    1.609899
H     -1.031815   -1.392841    1.509989
H     -0.506282    0.057047    2.390574
H      0.955427    1.783713    1.265253
H      2.921402    2.087188   -0.191901
H      3.557303    0.326293   -1.813707
H      2.221792   -1.746763   -1.982689
