21

C     -2.168015    0.328628    1.317177
C     -2.175090   -0.103719   -0.148266
C     -1.053100   -1.100503   -0.473078
C      0.315040   -0.461820   -0.390630
C      0.760265    0.345396   -1.452381
C      2.010818    0.966086   -1.395155
C      2.828057    0.792015   -0.276927
C      2.396189   -0.001860    0.787979
C      1.144796   -0.628247    0.740306
N      0.727276   -1.426086    1.845969
H     -2.235612   -0.558010    1.982778
H     -3.041038    0.986065    1.513114
H     -1.243555    0.897065    1.551407
H     -3.151815   -0.586777   -0.367529
H     -2.089331    0.793302   -0.799472
H     -1.128735   -1.985170    0.194912
H     -1.208940   -1.481270   -1.506099
H      0.136142    0.494732   -2.324951
H      2.345622    1.584333   -2.218070
H      3.796023    1.274430   -0.234216
H      3.035003   -0.128590    1.653132
