31

C      0.956214    1.256857    1.615775
C      1.556143    0.107127    0.849162
C      2.179502   -0.931518    1.564326
C      2.765448   -2.005962    0.893941
C      2.743070   -2.057243   -0.498164
C      2.132377   -1.035546   -1.225853
C      1.531981    0.055256   -0.570633
C      0.849455    1.110949   -1.418374
C     -0.481024    0.609885   -2.001655
C     -1.515385    0.373304   -0.926621
C     -1.638158   -0.904794   -0.353292
C     -2.557107   -1.134735    0.673571
C     -3.360465   -0.092735    1.140351
C     -3.244853    1.183091    0.583528
C     -2.325188    1.424007   -0.444261
N     -2.210796    2.740489   -0.980046
H     -0.115907    1.370340    1.360779
H      1.499018    2.194052    1.372630
H      1.023255    1.098551    2.713155
H      2.214662   -0.911894    2.646631
H      3.240462   -2.799734    1.455970
H      3.198897   -2.891565   -1.015522
H      2.122225   -1.096734   -2.307278
H      1.523088    1.376059   -2.262227
H      0.681134    2.054599   -0.860638
H     -0.311960   -0.322750   -2.583371
H     -0.860092    1.359008   -2.729617
H     -1.014698   -1.721602   -0.695751
H     -2.643676   -2.121198    1.110383
H     -4.070613   -0.272806    1.937029
H     -3.867006    1.987242    0.956072
