31

C     -2.166778    1.959542    0.198148
C     -2.568641    0.507427    0.207394
C     -3.908908    0.173495    0.472576
C     -4.321539   -1.159974    0.479825
C     -3.404709   -2.177136    0.219741
C     -2.072704   -1.864849   -0.055599
C     -1.639849   -0.526875   -0.080586
C     -0.180182   -0.247467   -0.358503
C      0.639721   -0.314603    0.934440
C      2.086892    0.014401    0.663010
C      2.522935    1.347155    0.763740
C      3.851528    1.679994    0.486412
C      4.754673    0.689279    0.096159
C      4.330423   -0.636340   -0.022883
C      3.001176   -0.979487    0.252530
N      2.589279   -2.337021    0.107538
H     -2.975966    2.609835    0.593509
H     -1.942891    2.277800   -0.841445
H     -1.271639    2.117446    0.834205
H     -4.639073    0.946734    0.677567
H     -5.354753   -1.404991    0.689698
H     -3.726415   -3.210542    0.231669
H     -1.374347   -2.669801   -0.250217
H      0.210628   -0.997443   -1.081313
H     -0.051105    0.744292   -0.841049
H      0.226437    0.398274    1.680924
H      0.554876   -1.328373    1.382874
H      1.832512    2.129168    1.055436
H      4.180180    2.707802    0.570726
H      5.782919    0.949540   -0.119431
H      5.035319   -1.397283   -0.333849
