31

C     -1.908070   -0.182602    1.196119
C     -1.746620   -0.115595   -0.300189
C     -2.522657    0.807676   -1.024176
C     -2.419566    0.890050   -2.413336
C     -1.545987    0.049847   -3.100360
C     -0.769805   -0.874644   -2.400932
C     -0.854680   -0.972303   -0.999898
C      0.045951   -1.969097   -0.296863
C      1.509896   -1.502714   -0.268410
C      1.694408   -0.273795    0.590245
C      1.620519    1.000466    0.000234
C      1.743453    2.151171    0.782891
C      1.938663    2.042871    2.161004
C      2.008392    0.783296    2.760805
C      1.883922   -0.375689    1.985282
N      1.936054   -1.648961    2.625078
H     -2.607261    0.595673    1.569238
H     -2.315099   -1.173836    1.485733
H     -0.932355   -0.020226    1.695076
H     -3.212830    1.467956   -0.513590
H     -3.020999    1.605985   -2.958592
H     -1.468536    0.115537   -4.177958
H     -0.093820   -1.515599   -2.953695
H     -0.295749   -2.190626    0.734663
H     -0.002202   -2.935740   -0.844069
H      1.864090   -1.304133   -1.303734
H      2.143971   -2.329600    0.117615
H      1.458096    1.102584   -1.065761
H      1.683511    3.127996    0.320692
H      2.032080    2.935714    2.765601
H      2.153229    0.708339    3.831285
