31

C     -1.786811   -0.996514    0.958726
C     -1.754522    0.250604    0.114245
C     -2.393512    1.408893    0.592657
C     -2.405140    2.580432   -0.165326
C     -1.785070    2.612067   -1.412563
C     -1.148463    1.473000   -1.906121
C     -1.121035    0.282146   -1.157287
C     -0.377207   -0.907228   -1.732701
C      1.146705   -0.720998   -1.665892
C      1.652426   -0.710602   -0.242616
C      1.781016    0.513430    0.437475
C      2.204002    0.542620    1.768649
C      2.500377   -0.647695    2.435241
C      2.371571   -1.870949    1.773269
C      1.946091   -1.910687    0.440015
N      1.801085   -3.173643   -0.205890
H     -0.756411   -1.348556    1.162889
H     -2.278275   -0.816721    1.938489
H     -2.355563   -1.791430    0.432683
H     -2.887080    1.407997    1.556707
H     -2.898816    3.465483    0.214884
H     -1.796189    3.522001   -1.998587
H     -0.668772    1.519994   -2.876178
H     -0.659308   -1.859253   -1.238793
H     -0.668528   -1.023591   -2.799351
H      1.635230   -1.542746   -2.232356
H      1.436043    0.220211   -2.182799
H      1.544305    1.445326   -0.061218
H      2.298446    1.489127    2.284998
H      2.826411   -0.622790    3.466994
H      2.596995   -2.789926    2.299757
