31

C     -1.915383    1.513252    1.570314
C     -2.478742    0.402119    0.722831
C     -3.801849   -0.019935    0.945107
C     -4.362260   -1.039347    0.173619
C     -3.612535   -1.648710   -0.831086
C     -2.301424   -1.236544   -1.073319
C     -1.722926   -0.202274   -0.315831
C     -0.290312    0.186111   -0.603427
C      0.679916   -0.704979    0.179560
C      2.106860   -0.282979   -0.069373
C      2.704524    0.665872    0.778561
C      4.014416    1.094967    0.548540
C      4.736534    0.590086   -0.534570
C      4.148889   -0.341508   -1.393774
C      2.836900   -0.777216   -1.171641
N      2.254274   -1.716365   -2.072822
H     -0.931764    1.218840    1.990542
H     -2.583962    1.755155    2.423813
H     -1.795408    2.428359    0.953588
H     -4.403499    0.438683    1.720188
H     -5.380079   -1.358780    0.356967
H     -4.047902   -2.442812   -1.423896
H     -1.733404   -1.725948   -1.855217
H     -0.088472    0.081640   -1.692462
H     -0.111632    1.253876   -0.356349
H      0.454770   -0.644033    1.266680
H      0.537700   -1.767559   -0.114924
H      2.154485    1.074904    1.617288
H      4.468708    1.822436    1.208780
H      5.750492    0.924826   -0.711610
H      4.713085   -0.722061   -2.236078
