31

C     -2.258275    1.510047   -0.968847
C     -2.590227    0.288627   -0.151436
C     -3.911738    0.105862    0.293932
C     -4.260130   -1.018077    1.044825
C     -3.296973   -1.975542    1.358560
C     -1.982728   -1.816732    0.916845
C     -1.614436   -0.698039    0.148048
C     -0.171123   -0.563317   -0.281638
C      0.657139    0.122523    0.810175
C      2.085599    0.301832    0.358989
C      2.457752    1.485388   -0.302230
C      3.767555    1.660215   -0.756871
C      4.715295    0.652850   -0.565846
C      4.354497   -0.534385    0.075808
C      3.044521   -0.718893    0.534526
N      2.697468   -1.946572    1.171658
H     -2.054859    1.212122   -2.018622
H     -3.095705    2.239896   -0.971286
H     -1.368657    2.025001   -0.551507
H     -4.677048    0.836483    0.062512
H     -5.279453   -1.145623    1.385888
H     -3.568865   -2.843169    1.945812
H     -1.247626   -2.569294    1.175303
H     -0.091896    0.003452   -1.233265
H      0.251695   -1.572015   -0.485121
H      0.623038   -0.479765    1.744042
H      0.213728    1.112422    1.054546
H      1.732026    2.272393   -0.467342
H      4.046975    2.576326   -1.261030
H      5.728868    0.789855   -0.919968
H      5.093581   -1.313870    0.212816
