31

C     -2.102031    1.209516   -1.630884
C     -2.551055    0.323834   -0.497675
C     -3.900008    0.356920   -0.100965
C     -4.355931   -0.456298    0.937913
C     -3.474287   -1.314975    1.592298
C     -2.134355   -1.369263    1.206026
C     -1.658173   -0.567632    0.153030
C     -0.191737   -0.647537   -0.206297
C      0.632763    0.302621    0.668832
C      2.088373    0.258901    0.274489
C      2.568325    1.155603   -0.696122
C      3.905514    1.112579   -1.099759
C      4.773578    0.168766   -0.547337
C      4.305545   -0.738124    0.406560
C      2.967352   -0.702993    0.817057
N      2.510478   -1.650348    1.780056
H     -1.873712    0.588039   -2.521842
H     -2.887307    1.943346   -1.911620
H     -1.198645    1.783475   -1.338926
H     -4.603364    1.016199   -0.594629
H     -5.395405   -0.418816    1.237412
H     -3.829506   -1.940210    2.401289
H     -1.463767   -2.039350    1.730259
H      0.170313   -1.689323   -0.060518
H     -0.033036   -0.411857   -1.279780
H      0.517334    0.025483    1.739296
H      0.247195    1.340435    0.566290
H      1.905491    1.887244   -1.141844
H      4.268070    1.809490   -1.844326
H      5.808560    0.136379   -0.862407
H      4.983426   -1.472106    0.824125
