34

N      0.196442   -3.321874    2.012356
S     -0.948034   -3.281348    0.719278
O     -2.256509   -3.821776    1.224687
O     -0.474988   -4.156746   -0.407001
C     -1.148699   -1.617672    0.137052
C     -2.415179   -1.021311    0.261239
C     -2.654447    0.270611   -0.222016
C     -3.923361    0.858964   -0.094571
C     -4.152992    2.146487   -0.587760
C     -3.122007    2.853969   -1.210965
C     -1.855395    2.278193   -1.343904
C     -1.613080    0.985797   -0.850926
C     -0.348191    0.400794   -0.975503
C     -0.090328   -0.887639   -0.470079
C      1.313981   -1.438529   -0.628702
C      2.328306   -0.549461    0.047375
C      2.360974   -0.451775    1.448870
C      3.290817    0.382780    2.076389
C      4.192646    1.126884    1.311211
C      4.165003    1.038865   -0.083106
C      3.236744    0.205485   -0.714932
H     -3.224867   -1.566452    0.730412
H     -4.735261    0.324520    0.384238
H     -5.132283    2.596422   -0.487418
H     -3.304755    3.850559   -1.591657
H     -1.067413    2.841693   -1.829347
H      0.447541    0.952998   -1.463144
H      1.429848   -2.456380   -0.214155
H      1.533768   -1.526972   -1.714941
H      1.663167   -1.015292    2.053703
H      3.310556    0.454405    3.156176
H      4.911235    1.773140    1.798469
H      4.862070    1.617982   -0.674877
H      3.224690    0.152676   -1.796450
