34

N      0.208933    3.211882    2.823948
S     -0.633591    1.824549    2.229043
O     -1.724857    2.290357    1.308254
O     -1.231908    1.109699    3.406902
C      0.477329    0.757415    1.346347
C      1.749398    1.256522    1.018875
C      2.669001    0.477919    0.306387
C      3.938927    0.984826   -0.014588
C      4.848100    0.199947   -0.729396
C      4.497910   -1.092111   -1.128976
C      3.236614   -1.606521   -0.815942
C      2.315562   -0.827139   -0.097238
C      1.048750   -1.330515    0.218468
C      0.118767   -0.557066    0.938441
C     -1.242082   -1.165294    1.217780
C     -2.316159   -0.601171    0.320970
C     -2.156736   -0.601496   -1.076858
C     -3.169357   -0.104614   -1.902962
C     -4.354537    0.380290   -1.344407
C     -4.532358    0.362271    0.041170
C     -3.522647   -0.133857    0.871431
H      2.027812    2.260595    1.312373
H      4.227516    1.984955    0.286300
H      5.825844    0.594212   -0.974528
H      5.205097   -1.695983   -1.682820
H      2.981809   -2.610250   -1.134812
H      0.780643   -2.330343   -0.104690
H     -1.217307   -2.265949    1.063328
H     -1.497950   -1.037365    2.287824
H     -1.250410   -0.985266   -1.527478
H     -3.036817   -0.099774   -2.977147
H     -5.137694    0.763737   -1.985544
H     -5.454281    0.730504    0.472333
H     -3.679316   -0.144968    1.942875
