34

N     -1.055943   -3.395602    1.632877
S      0.391316   -3.410514    0.690152
O      0.153153   -4.149312   -0.596726
O      1.456437   -4.135170    1.464749
C      0.904152   -1.749288    0.337440
C      2.143589   -1.318388    0.840592
C      2.630134   -0.036402    0.558402
C      3.870237    0.386067    1.064577
C      4.349767    1.665490    0.769938
C      3.598662    2.529842   -0.030426
C      2.363487    2.119902   -0.540121
C      1.871372    0.837191   -0.249422
C      0.634688    0.417376   -0.751480
C      0.124725   -0.860331   -0.452467
C     -1.233082   -1.227443   -1.020193
C     -2.298364   -0.267897   -0.550275
C     -2.890049    0.637638   -1.448179
C     -3.866501    1.534497   -1.003683
C     -4.257866    1.536244    0.337757
C     -3.672210    0.642063    1.237718
C     -2.695511   -0.256424    0.797665
H      2.739934   -1.985532    1.450663
H      4.467182   -0.271362    1.685473
H      5.305879    1.987315    1.162107
H      3.974348    3.519495   -0.256175
H      1.794117    2.803668   -1.158495
H      0.057358    1.091024   -1.375021
H     -1.555858   -2.248332   -0.746519
H     -1.161442   -1.219545   -2.129629
H     -2.593948    0.652729   -2.489672
H     -4.318703    2.229602   -1.699252
H     -5.013156    2.231747    0.680172
H     -3.973348    0.646646    2.277309
H     -2.244557   -0.936995    1.507435
