34

N      1.324643   -3.527307    1.144775
S     -0.128782   -3.487966    0.212293
O     -1.127585   -4.413893    0.848421
O      0.148131   -3.972918   -1.182965
C     -0.768040   -1.834228    0.152486
C     -2.029933   -1.591543    0.721498
C     -2.613902   -0.320448    0.665403
C     -3.875795   -0.086614    1.235921
C     -4.452735    1.184640    1.167122
C     -3.777762    2.228540    0.529526
C     -2.521751    2.007254   -0.042285
C     -1.932069    0.734397    0.022072
C     -0.673734    0.502200   -0.543938
C     -0.066529   -0.765837   -0.470513
C      1.307868   -0.925786   -1.091942
C      2.304398    0.015529   -0.461676
C      2.816166    1.104727   -1.188351
C      3.728479    1.982181   -0.594083
C      4.134812    1.781336    0.727730
C      3.628234    0.703385    1.458405
C      2.715852   -0.176455    0.868229
H     -2.567564   -2.397193    1.206035
H     -4.414612   -0.884639    1.732808
H     -5.425338    1.360765    1.608190
H     -4.228756    3.211141    0.478428
H     -2.012355    2.828632   -0.532144
H     -0.155715    1.315130   -1.040639
H      1.222432   -0.731500   -2.183269
H      1.709001   -1.951345   -0.999130
H      2.507196    1.277401   -2.211745
H      4.119266    2.819210   -1.158122
H      4.840340    2.462040    1.186323
H      3.940738    0.550742    2.483341
H      2.325401   -1.001578    1.448771
