34

N      0.899195   -0.143032    3.986239
S     -0.131983   -0.589311    2.672481
O     -0.565468   -2.010909    2.890413
O     -1.330764    0.315423    2.681180
C      0.727978   -0.426018    1.127855
C      1.955962    0.257032    1.126524
C      2.678536    0.440952   -0.058210
C      3.906111    1.123352   -0.049195
C      4.617577    1.304329   -1.238584
C      4.110820    0.808314   -2.442276
C      2.889795    0.128511   -2.463298
C      2.166947   -0.060012   -1.274072
C      0.941768   -0.735815   -1.283866
C      0.209940   -0.929779   -0.097166
C     -1.121476   -1.649074   -0.196296
C     -2.292142   -0.702470   -0.098185
C     -2.379644    0.419973   -0.941868
C     -3.482456    1.275987   -0.865805
C     -4.513850    1.011306    0.038594
C     -4.447878   -0.114270    0.863514
C     -3.347145   -0.973405    0.790952
H      2.352958    0.656588    2.050953
H      4.314109    1.515649    0.874772
H      5.563349    1.830550   -1.227308
H      4.665078    0.951374   -3.360889
H      2.511573   -0.248451   -3.406126
H      0.550022   -1.108323   -2.223943
H     -1.176707   -2.444279    0.572748
H     -1.203423   -2.187691   -1.165359
H     -1.595950    0.633176   -1.657503
H     -3.539481    2.142587   -1.511727
H     -5.367207    1.674609    0.095453
H     -5.251400   -0.322929    1.557958
H     -3.314744   -1.843944    1.434203
