34

N     -0.711050   -3.649450   -1.231056
S      0.673101   -3.422435   -0.223037
O      0.410254   -3.998177    1.140059
O      1.832928   -4.157613   -0.834532
C      1.042775   -1.693415   -0.078452
C      2.276562   -1.236877   -0.572806
C      2.651607    0.105991   -0.446725
C      3.886851    0.553845   -0.942855
C      4.254335    1.895295   -0.804462
C      3.395494    2.796890   -0.170930
C      2.164042    2.362276    0.327197
C      1.784026    1.017106    0.192520
C      0.552256    0.571588    0.684402
C      0.154623   -0.771175    0.539906
C     -1.205529   -1.165445    1.083290
C     -2.306180   -0.365506    0.431337
C     -2.619858   -0.566893   -0.923597
C     -3.629742    0.183819   -1.533053
C     -4.332058    1.141442   -0.796714
C     -4.024440    1.351097    0.550152
C     -3.015188    0.602575    1.163763
H      2.955517   -1.930413   -1.053351
H      4.566371   -0.131503   -1.435418
H      5.207099    2.236484   -1.188322
H      3.684621    3.834610   -0.065777
H      1.510241    3.075489    0.815025
H     -0.109052    1.274867    1.178347
H     -1.202704   -1.002856    2.183107
H     -1.436805   -2.236251    0.937762
H     -2.078616   -1.298666   -1.508299
H     -3.866215    0.024707   -2.577190
H     -5.112927    1.722380   -1.270203
H     -4.567092    2.095223    1.118728
H     -2.785246    0.780989    2.206791
