34

N     -0.800341   -1.351078   -3.557680
S      0.440575   -2.181279   -2.689114
O     -0.051837   -3.537801   -2.269616
O      1.619905   -2.364808   -3.602957
C      0.907850   -1.247260   -1.255121
C      2.228203   -0.772452   -1.175946
C      2.676011   -0.070962   -0.050234
C      3.997435    0.399447    0.021184
C      4.435941    1.091890    1.153403
C      3.562540    1.318390    2.220039
C      2.245517    0.854313    2.160205
C      1.793847    0.158623    1.027050
C      0.476612   -0.307608    0.954830
C      0.009099   -0.991636   -0.183389
C     -1.438534   -1.444472   -0.187955
C     -2.376849   -0.273606   -0.029792
C     -2.509983    0.670835   -1.061833
C     -3.368168    1.764296   -0.911068
C     -4.097569    1.924683    0.269921
C     -3.968694    0.992537    1.302939
C     -3.111566   -0.102577    1.156486
H      2.917175   -0.954631   -1.991438
H      4.689235    0.231483   -0.795681
H      5.455042    1.452922    1.204463
H      3.906817    1.854744    3.094861
H      1.581755    1.039642    2.996374
H     -0.196134   -0.132064    1.787002
H     -1.579154   -2.172975    0.640026
H     -1.722341   -1.980234   -1.111917
H     -1.944998    0.564224   -1.978204
H     -3.465861    2.488793   -1.709201
H     -4.760794    2.772168    0.385421
H     -4.531927    1.119415    2.218441
H     -3.018810   -0.812960    1.968498
