34

N      0.634419    1.867337    3.673241
S     -0.301636    0.799123    2.687756
O     -0.725358   -0.361730    3.541702
O     -1.512906    1.541496    2.200517
C      0.654376    0.240374    1.299984
C      1.868631    0.894156    1.030438
C      2.663790    0.519866   -0.059133
C      3.876974    1.178025   -0.319336
C      4.661403    0.798416   -1.412107
C      4.242236   -0.236724   -2.251448
C      3.036328   -0.898069   -2.002679
C      2.240675   -0.525668   -0.906978
C      1.029824   -1.178307   -0.650520
C      0.225464   -0.812292    0.445149
C     -1.084870   -1.550720    0.639133
C     -2.274577   -0.727489    0.211312
C     -3.380760   -0.586359    1.067726
C     -4.497621    0.151141    0.663119
C     -4.527880    0.738652   -0.604036
C     -3.444155    0.583652   -1.471955
C     -2.325042   -0.152699   -1.071812
H      2.198041    1.705806    1.666467
H      4.217507    1.983598    0.320324
H      5.595797    1.307977   -1.609017
H      4.852781   -0.526816   -3.096788
H      2.726488   -1.697897   -2.664760
H      0.706234   -1.973523   -1.313009
H     -1.094786   -2.491293    0.046568
H     -1.177244   -1.881090    1.692295
H     -3.376282   -1.039087    2.051433
H     -5.341213    0.264877    1.331592
H     -5.393738    1.308282   -0.915860
H     -3.472967    1.030517   -2.457320
H     -1.499931   -0.273531   -1.761997
