34

N     -0.852366   -3.674373   -1.833118
S      0.166240   -2.708877   -0.823806
O      0.609648   -3.560648    0.331279
O      1.360256   -2.278715   -1.626911
C     -0.711974   -1.277917   -0.246600
C     -1.943490   -0.972752   -0.850543
C     -2.680379    0.151428   -0.459711
C     -3.911363    0.447155   -1.067919
C     -4.637188    1.574206   -0.672296
C     -4.141467    2.412618    0.329219
C     -2.917181    2.128640    0.940737
C     -2.179937    0.998347    0.551869
C     -0.951386    0.706373    1.154598
C     -0.205162   -0.424116    0.771721
C      1.128858   -0.656108    1.454695
C      2.295505   -0.285725    0.572710
C      3.361957   -1.185108    0.397237
C      4.458860   -0.833896   -0.395509
C      4.509482    0.422227   -1.004899
C      3.466494    1.332472   -0.816757
C      2.367458    0.985789   -0.025132
H     -2.332112   -1.608048   -1.636157
H     -4.310946   -0.191256   -1.846917
H     -5.585541    1.798438   -1.143323
H     -4.706830    3.284563    0.631865
H     -2.547664    2.790520    1.714978
H     -0.568334    1.368080    1.923614
H      1.197012   -1.706921    1.798173
H      1.202708   -0.050277    2.383901
H      3.341489   -2.161016    0.866111
H      5.271313   -1.535219   -0.535175
H      5.359894    0.692690   -1.617333
H      3.511577    2.309209   -1.280882
H      1.574573    1.708220    0.120436
