34

N      0.680055   -3.070221    2.157720
S     -0.571898   -3.258519    0.982703
O     -1.775149   -3.852405    1.660271
O     -0.119725   -4.201712   -0.096429
C     -0.976714   -1.685922    0.268465
C     -2.277474   -1.188499    0.457238
C     -2.677308    0.022508   -0.120209
C     -3.979449    0.512128    0.072786
C     -4.370182    1.718572   -0.515009
C     -3.468004    2.442671   -1.298336
C     -2.169801    1.964757   -1.497746
C     -1.766051    0.754530   -0.910916
C     -0.467964    0.268185   -1.100998
C     -0.048070   -0.935527   -0.503696
C      1.382146   -1.379824   -0.744127
C      2.364525   -0.344182   -0.255500
C      2.510417   -0.101206    1.120901
C      3.409828    0.868339    1.574675
C      4.168061    1.603371    0.659637
C      4.026881    1.371135   -0.711043
C      3.128553    0.402447   -1.169349
H     -2.988753   -1.748858    1.051358
H     -4.693071   -0.036825    0.675662
H     -5.374553    2.092552   -0.363700
H     -3.775316    3.376190   -1.751785
H     -1.483186    2.539821   -2.107639
H      0.227197    0.832480   -1.712745
H      1.628075   -2.336557   -0.248673
H      1.513366   -1.560179   -1.833299
H      1.923695   -0.656505    1.840422
H      3.517184    1.051479    2.635990
H      4.863214    2.354173    1.012480
H      4.612558    1.943172   -1.419020
H      3.026914    0.238430   -2.234891
