34

N     -1.036002   -3.879996   -1.034553
S      0.065096   -2.798792   -0.255430
O      1.210661   -2.532945   -1.189616
O      0.568757   -3.472944    0.988833
C     -0.746337   -1.271035    0.144077
C     -2.009541   -1.028463   -0.421589
C     -2.698025    0.163368   -0.166512
C     -3.961157    0.395940   -0.734931
C     -4.638225    1.591041   -0.476288
C     -4.061604    2.560476    0.347976
C     -2.804719    2.340207    0.918240
C     -2.115868    1.142631    0.666042
C     -0.855463    0.912977    1.228633
C     -0.157257   -0.284117    0.981808
C      1.214798   -0.445087    1.607456
C      2.326723   -0.249711    0.606658
C      3.362409   -1.195527    0.507727
C      4.410348   -1.003219   -0.397719
C      4.443353    0.141016   -1.198598
C      3.432116    1.098853   -1.090362
C      2.382054    0.910900   -0.186600
H     -2.461212   -1.766820   -1.071696
H     -4.423383   -0.344156   -1.377332
H     -5.611573    1.766283   -0.916065
H     -4.589466    3.484642    0.544940
H     -2.372377    3.103595    1.554161
H     -0.409971    1.674990    1.858589
H      1.361445    0.295450    2.423549
H      1.286398   -1.431251    2.106636
H      3.355278   -2.085756    1.124253
H      5.198667   -1.740643   -0.476453
H      5.255915    0.288642   -1.898149
H      3.464130    1.989930   -1.703891
H      1.614033    1.669521   -0.106592
