      -----------------------------------------------------------      
     |                   =====================                   |     
     |                           x T B                           |     
     |                   =====================                   |     
     |                         S. Grimme                         |     
     |          Mulliken Center for Theoretical Chemistry        |     
     |                    University of Bonn                     |     
      -----------------------------------------------------------      

   * xtb version 6.7.1 (edcfbbe) compiled by 'runner@sat12-gn217-0cbadaec-b866-44ae-a866-732403219ae3-6E01A8DFFD18.local' on 2026-06-10

   xtb is free software: you can redistribute it and/or modify it under
   the terms of the GNU Lesser General Public License as published by
   the Free Software Foundation, either version 3 of the License, or
   (at your option) any later version.
   
   xtb is distributed in the hope that it will be useful,
   but WITHOUT ANY WARRANTY; without even the implied warranty of
   MERCHANTABILITY or FITNESS FOR A PARTICULAR PURPOSE.  See the
   GNU Lesser General Public License for more details.
   
   Cite this work as:
   * C. Bannwarth, E. Caldeweyher, S. Ehlert, A. Hansen, P. Pracht,
     J. Seibert, S. Spicher, S. Grimme, WIREs Comput. Mol. Sci., 2020, 11,
     e01493. DOI: 10.1002/wcms.1493
   
   for GFN2-xTB:
   * C. Bannwarth, S. Ehlert and S. Grimme., J. Chem. Theory Comput., 2019,
     15, 1652-1671. DOI: 10.1021/acs.jctc.8b01176
   for GFN1-xTB:
   * S. Grimme, C. Bannwarth, P. Shushkov, J. Chem. Theory Comput., 2017,
     13, 1989-2009. DOI: 10.1021/acs.jctc.7b00118
   for GFN0-xTB:
   * P. Pracht, E. Caldeweyher, S. Ehlert, S. Grimme, ChemRxiv, 2019, preprint.
     DOI: 10.26434/chemrxiv.8326202.v1
   for GFN-FF:
   * S. Spicher and S. Grimme, Angew. Chem. Int. Ed., 2020, 59, 15665-15673.
     DOI: 10.1002/anie.202004239
   
   for ALPB and GBSA implicit solvation:
   * S. Ehlert, M. Stahn, S. Spicher, S. Grimme, J. Chem. Theory Comput.,
     2021, 17, 4250-4261. DOI: 10.1021/acs.jctc.1c00471
   
   for ddCOSMO and CPCM-X implicit solvation:
   * M. Stahn, S. Ehlert, S. Grimme, J. Phys. Chem. A,
     2023, XX, XXXX-XXXX. DOI: 10.1021/acs.jpca.3c04382
   
   for DFT-D4:
   * E. Caldeweyher, C. Bannwarth and S. Grimme, J. Chem. Phys., 2017,
     147, 034112. DOI: 10.1063/1.4993215
   * E. Caldeweyher, S. Ehlert, A. Hansen, H. Neugebauer, S. Spicher,
     C. Bannwarth and S. Grimme, J. Chem. Phys., 2019, 150, 154122.
     DOI: 10.1063/1.5090222
   * E. Caldeweyher, J.-M. Mewes, S. Ehlert and S. Grimme, Phys. Chem. Chem. Phys.
     2020, 22, 8499-8512. DOI: 10.1039/D0CP00502A
   
   for sTDA-xTB:
   * S. Grimme and C. Bannwarth, J. Chem. Phys., 2016, 145, 054103.
     DOI: 10.1063/1.4959605
   
   in the mass-spec context:
   * V. Asgeirsson, C. Bauer and S. Grimme, Chem. Sci., 2017, 8, 4879.
     DOI: 10.1039/c7sc00601b
   * J. Koopman and S. Grimme, ACS Omega 2019, 4, 12, 15120-15133.
     DOI: 10.1021/acsomega.9b02011
   
   for metadynamics refer to:
   * S. Grimme, J. Chem. Theory Comput., 2019, 155, 2847-2862
     DOI: 10.1021/acs.jctc.9b00143
   
   for SPH calculations refer to:
   * S. Spicher and S. Grimme, J. Chem. Theory Comput., 2021, 17, 1701-1714
     DOI: 10.1021/acs.jctc.0c01306
   
   for ONIOM refer to:
   * C. Plett, A. Katbashev, S. Ehlert, S. Grimme, M. Bursch,
     Phys. Chem. Chem. Phys., 2023, 25, 17860-17868. DOI: 10.1039/D3CP02178E
   
   for DIPRO refer to:
   * J. Kohn, N. Gildemeister, S. Grimme, D. Fazzi, A. Hansen,
     J. Chem. Phys., 2023, just accepted.
   
   for PTB refer to:
   * S. Grimme, M. Mueller, A. Hansen, J. Chem. Phys., 2023, 158, 124111.
     DOI: 10.1063/5.0137838
   
   with help from (in alphabetical order)
   P. Atkinson, C. Bannwarth, F. Bohle, G. Brandenburg, E. Caldeweyher
   M. Checinski, S. Dohm, S. Ehlert, S. Ehrlich, I. Gerasimov, C. Hölzer
   A. Katbashev, J. Kohn, J. Koopman, C. Lavigne, S. Lehtola, F. März, M. Müller,
   F. Musil, H. Neugebauer, J. Pisarek, C. Plett, P. Pracht, F. Pultar,
   J. Seibert, P. Shushkov, S. Spicher, M. Stahn, M. Steiner, T. Strunk,
   J. Stückrath, T. Rose, and J. Unsleber
   
 * started run on 2026/09/07 at 18:12:04.416     
   ID    Z sym.   atoms
    1    7 N      1, 2, 24, 25, 53, 55, 110, 112, 215
    2    6 C      3-5, 7, 9-12, 14, 16-20, 22, 23, 26-28, 30, 32-35, 37,
                  39-43, 45, 46, 49-52, 54, 57, 58, 61, 65, 67, 68, 70, 71,
                  73, 77, 81, 86-89, 91, 92, 106-109, 111, 114, 115, 118,
                  122, 124, 125, 127, 128, 130, 134, 138, 143-146, 148, 149,
                  171-174, 176, 178, 182-185, 187, 189, 193-196, 198, 200,
                  204-207, 209, 211, 216-229
    3    1 H      6, 8, 13, 15, 21, 29, 31, 36, 38, 44, 56, 59, 60, 62, 63,
                  69, 72, 74-76, 78-80, 90, 93-105, 113, 116, 117, 119, 120,
                  126, 129, 131-133, 135-137, 147, 150-166, 175, 177,
                  179-181, 186, 188, 190-192, 197, 199, 201-203, 208, 210,
                  212-214, 230-242
    4   26 Fe     47
    5   17 Cl     48
    6    8 O      64, 66, 82-85, 121, 123, 139-142, 167-170

           -------------------------------------------------
          |                Calculation Setup                |
           -------------------------------------------------

          program call               : /Users/haywoodau3/Documents/genaisubstrate/.chem-env/bin/xtb input.xyz --gfnff --alpb ether --opt --input xcontrol
          coordinate file            : input.xyz
          omp threads                :                     1

          GFN-FF topology read from file successfully!
           ------------------------------------------------- 
          |                   G F N - F F                   |
          |          A general generic force-field          |
          |                  Version 1.0.3                  | 
           ------------------------------------------------- 
      * Solvation model:               ALPB
        Solvent                        ether
        Parameter file                 internal GFN-FF/ALPB
        Dielectric constant                4.3300E+00
        Reference state                gsolv [1 M gas/solution]
        Free energy shift                  6.7832E-03 Eh       4.2565E+00 kcal/mol
        Temperature                        2.9815E+02 K
        Density                            7.1300E-01 kg/L
        Solvent mass                       7.4120E+01 g/mol
        Interaction kernel             P16
        Born radius scaling (c1)           1.8092E+00
        Born radii integrator          GBOBC
        Born offset                        0.0000E+00 a0       0.0000E+00 AA
        H-bond correction              true
        Ion screening                  false
        Surface tension                    1.0000E-05 Eh       1.5569E+01 dyn/cm
        Grid points                               230 per atom
          Number of HB bonds (bound hydrogen)     162570
          Number of HB bonds (unbound hydrogen)   11394
          Number of XB bonds                      780

 E+G (total)                   0 d,  0 h,  0 min,  0.019 sec
 distance/D3 list               ...        0 min,  0.000 sec (  0.405%)
 non bonded repulsion           ...        0 min,  0.001 sec (  4.693%)
 dCN                            ...        0 min,  0.000 sec (  1.748%)
 EEQ energy and q               ...        0 min,  0.001 sec (  3.218%)
 D3                             ...        0 min,  0.001 sec (  6.347%)
 EEQ gradient                   ...        0 min,  0.000 sec (  1.915%)
 bonds                          ...        0 min,  0.001 sec (  5.756%)
 bend and torsion               ...        0 min,  0.000 sec (  0.575%)
 bonded ATM                     ...        0 min,  0.000 sec (  0.667%)
 HB/XB (incl list setup)        ...        0 min,  0.010 sec ( 52.418%)
 GBSA                           ...        0 min,  0.005 sec ( 23.547%)

         :::::::::::::::::::::::::::::::::::::::::::::::::::::
         ::                     SUMMARY                     ::
         :::::::::::::::::::::::::::::::::::::::::::::::::::::
         :: total energy             -46.990986221440 Eh    ::
         :: total w/o Gsolv          -46.841725214773 Eh    ::
         :: total w/o Gsasa/hb       -46.872103051405 Eh    ::
         :: gradient norm              1.667071256599 Eh/a0 ::
         ::.................................................::
         :: bond energy              -50.356045211452 Eh    ::
         :: angle energy               1.345173915242 Eh    ::
         :: torsion energy             0.284212588378 Eh    ::
         :: repulsion energy           3.386271018001 Eh    ::
         :: electrostat energy        -1.131882774930 Eh    ::
         :: dispersion energy         -0.309533918814 Eh    ::
         :: HB energy                 -0.015433700971 Eh    ::
         :: XB energy                 -0.000102787920 Eh    ::
         :: bonded atm energy         -0.044384342307 Eh    ::
         :: external energy            0.000000000000 Eh    ::
         :: -> Gsolv                  -0.149261006666 Eh    ::
         ::    -> Gborn               -0.030377836632 Eh    ::
         ::    -> Gsasa               -0.119696418685 Eh    ::
         ::    -> Ghb                 -0.005969962815 Eh    ::
         ::    -> Gshift               0.006783211464 Eh    ::
         :: add. restraining           0.000000000000 Eh    ::
         :: total charge              -0.000000000000 e     ::
         :::::::::::::::::::::::::::::::::::::::::::::::::::::

      ----------------------------------------------------------- 
     |                   =====================                   |
     |                        A N C O P T                        |
     |                   =====================                   |
     |               Approximate Normal Coordinate               |
     |                Rational Function Optimizer                |
      ----------------------------------------------------------- 
      ----------------------------------------------------------- 
     |                   =====================                   |
     |                        A N C O P T                        |
     |                   =====================                   |
     |               Approximate Normal Coordinate               |
     |                Rational Function Optimizer                |
      ----------------------------------------------------------- 

          ...................................................
          :                      SETUP                      :
          :.................................................:
          :   optimization level            normal          :
          :   max. optcycles                   726          :
          :   ANC micro-cycles                  20          :
          :   degrees of freedom                81          :
          :.................................................:
          :   RF solver                   davidson          :
          :   write xtbopt.log                true          :
          :   linear?                        false          :
          :   energy convergence         0.5000000E-05 Eh   :
          :   grad. convergence          0.1000000E-02 Eh/α :
          :   maxmium RF displ.          1.0000000          :
          :   Hlow (freq-cutoff)         0.1000000E-01      :
          :   Hmax (freq-cutoff)         5.0000000          :
          :   S6 in model hess.         20.0000000          :
          ...................................................

generating ANC from exact Hessian ...
Using GFN-FF Lindh-Hessian
 Shifting diagonal of input Hessian by    9.9918353984869892E-003
 Lowest  eigenvalues of input Hessian
    0.000000    0.000000    0.000000    0.000000    0.000000    0.010000
    0.000000    0.010004    0.010007    0.010010    0.010024    0.010033
    0.010040    0.010044    0.010055    0.010059    0.010082    0.010150
 Highest eigenvalues
    3.860180    4.047610    4.277662   10.068660   20.561042 2195.631727


........................................................................
.............................. CYCLE    1 ..............................
........................................................................
     iter. time                 ...        0 min,  0.019 sec
 * total energy  :   -46.9909862 Eh     change        0.0000000E+00 Eh
   gradient norm :     0.5594556 Eh/α   predicted     0.0000000E+00 (   0.00%)
   displ. norm   :     0.1674050 α      lambda       -0.9099554E-01
   maximum displ.:     0.0685865 α      in ANC's #76, #75, #3, ...

........................................................................
.............................. CYCLE    2 ..............................
........................................................................
     iter. time                 ...        0 min,  0.018 sec
 * total energy  :   -47.1155179 Eh     change       -0.1245317E+00 Eh
   gradient norm :     0.3003916 Eh/α   predicted    -0.4677283E-01 ( -62.44%)
   displ. norm   :     0.1796744 α      lambda       -0.5200217E-01
   maximum displ.:     0.0698408 α      in ANC's #75, #76, #33, ...

........................................................................
.............................. CYCLE    3 ..............................
........................................................................
     iter. time                 ...        0 min,  0.019 sec
 * total energy  :   -47.1719062 Eh     change       -0.5638825E-01 Eh
   gradient norm :     0.1922773 Eh/α   predicted    -0.2684056E-01 ( -52.40%)
   displ. norm   :     0.2014168 α      lambda       -0.3407357E-01
   maximum displ.:     0.0806821 α      in ANC's #75, #81, #76, ...

........................................................................
.............................. CYCLE    4 ..............................
........................................................................
     iter. time                 ...        0 min,  0.018 sec
 * total energy  :   -47.1895635 Eh     change       -0.1765733E-01 Eh
   gradient norm :     0.1810335 Eh/α   predicted    -0.1772811E-01 (   0.40%)
   displ. norm   :     0.2404172 α      lambda       -0.2849950E-01
   maximum displ.:     0.1124571 α      in ANC's #81, #75, #76, ...

........................................................................
.............................. CYCLE    5 ..............................
........................................................................
     iter. time                 ...        0 min,  0.018 sec
 * total energy  :   -47.1790701 Eh     change        0.1049342E-01 Eh
   gradient norm :     0.2183061 Eh/α   predicted    -0.1507789E-01 (-243.69%)
   displ. norm   :     0.4028597 α      lambda       -0.4395027E-01
   maximum displ.:     0.2226716 α      in ANC's #81, #75, #79, ...

........................................................................
.............................. CYCLE    6 ..............................
........................................................................
     iter. time                 ...        0 min,  0.019 sec
 * total energy  :   -47.1186318 Eh     change        0.6043823E-01 Eh
   gradient norm :     0.2559470 Eh/α   predicted    -0.2554201E-01 (-142.26%)
   displ. norm   :     0.3699787 α      lambda       -0.4041737E-01
   maximum displ.:     0.2308117 α      in ANC's #81, #79, #75, ...

........................................................................
.............................. CYCLE    7 ..............................
........................................................................
     iter. time                 ...        0 min,  0.019 sec
 * total energy  :   -47.0414455 Eh     change        0.7718634E-01 Eh
   gradient norm :     0.2293860 Eh/α   predicted    -0.2297570E-01 (-129.77%)
   displ. norm   :     0.2482768 α      lambda       -0.3496744E-01
   maximum displ.:     0.1566126 α      in ANC's #81, #79, #3, ...

........................................................................
.............................. CYCLE    8 ..............................
........................................................................
     iter. time                 ...        0 min,  0.018 sec
 * total energy  :   -47.0102051 Eh     change        0.3124044E-01 Eh
   gradient norm :     0.1699013 Eh/α   predicted    -0.1856297E-01 (-159.42%)
   displ. norm   :     0.1990495 α      lambda       -0.2983071E-01
   maximum displ.:     0.0787165 α      in ANC's #3, #74, #7, ...

........................................................................
.............................. CYCLE    9 ..............................
........................................................................
     iter. time                 ...        0 min,  0.019 sec
 * total energy  :   -47.0460167 Eh     change       -0.3581163E-01 Eh
   gradient norm :     0.1215538 Eh/α   predicted    -0.1550666E-01 ( -56.70%)
   displ. norm   :     0.1973467 α      lambda       -0.1684180E-01
   maximum displ.:     0.0838010 α      in ANC's #76, #7, #77, ...

........................................................................
.............................. CYCLE   10 ..............................
........................................................................
     iter. time                 ...        0 min,  0.019 sec
 * total energy  :   -47.1079929 Eh     change       -0.6197620E-01 Eh
   gradient norm :     0.0973988 Eh/α   predicted    -0.8748905E-02 ( -85.88%)
   displ. norm   :     0.0967147 α      lambda       -0.5792449E-02
   maximum displ.:     0.0459461 α      in ANC's #76, #77, #73, ...

........................................................................
.............................. CYCLE   11 ..............................
........................................................................
     iter. time                 ...        0 min,  0.018 sec
 * total energy  :   -47.1223815 Eh     change       -0.1438858E-01 Eh
   gradient norm :     0.0796648 Eh/α   predicted    -0.2924454E-02 ( -79.68%)
   displ. norm   :     0.0971031 α      lambda       -0.5517928E-02
   maximum displ.:     0.0436069 α      in ANC's #76, #4, #73, ...

........................................................................
.............................. CYCLE   12 ..............................
........................................................................
     iter. time                 ...        0 min,  0.018 sec
 * total energy  :   -47.1155051 Eh     change        0.6876340E-02 Eh
   gradient norm :     0.0638625 Eh/α   predicted    -0.2785005E-02 (-140.50%)
   displ. norm   :     0.0661216 α      lambda       -0.2829491E-02
   maximum displ.:     0.0278297 α      in ANC's #76, #4, #73, ...

........................................................................
.............................. CYCLE   13 ..............................
........................................................................
     iter. time                 ...        0 min,  0.019 sec
 * total energy  :   -47.0999108 Eh     change        0.1559432E-01 Eh
   gradient norm :     0.0653927 Eh/α   predicted    -0.1421943E-02 (-109.12%)
   displ. norm   :     0.0969283 α      lambda       -0.3756630E-02
   maximum displ.:     0.0392072 α      in ANC's #76, #77, #74, ...

........................................................................
.............................. CYCLE   14 ..............................
........................................................................
     iter. time                 ...        0 min,  0.019 sec
 * total energy  :   -47.0659964 Eh     change        0.3391446E-01 Eh
   gradient norm :     0.0746518 Eh/α   predicted    -0.1896024E-02 (-105.59%)
   displ. norm   :     0.1536596 α      lambda       -0.5448566E-02
   maximum displ.:     0.0608344 α      in ANC's #76, #77, #74, ...

........................................................................
.............................. CYCLE   15 ..............................
........................................................................
     iter. time                 ...        0 min,  0.019 sec
 * total energy  :   -46.9926514 Eh     change        0.7334493E-01 Eh
   gradient norm :     0.0852496 Eh/α   predicted    -0.2788708E-02 (-103.80%)
   displ. norm   :     0.2013562 α      lambda       -0.6448768E-02
   maximum displ.:     0.0826723 α      in ANC's #77, #76, #79, ...

........................................................................
.............................. CYCLE   16 ..............................
........................................................................
     iter. time                 ...        0 min,  0.019 sec
 * total energy  :   -46.8587870 Eh     change        0.1338644E+00 Eh
   gradient norm :     0.0893779 Eh/α   predicted    -0.3355127E-02 (-102.51%)
   displ. norm   :     0.2166824 α      lambda       -0.6147825E-02
   maximum displ.:     0.0948157 α      in ANC's #77, #76, #79, ...

........................................................................
.............................. CYCLE   17 ..............................
........................................................................
     iter. time                 ...        0 min,  0.019 sec
 * total energy  :   -46.6584305 Eh     change        0.2003565E+00 Eh
   gradient norm :     0.0874976 Eh/α   predicted    -0.3218474E-02 (-101.61%)
   displ. norm   :     0.1900270 α      lambda       -0.5173007E-02
   maximum displ.:     0.0888304 α      in ANC's #77, #76, #80, ...

........................................................................
.............................. CYCLE   18 ..............................
........................................................................
     iter. time                 ...        0 min,  0.019 sec
 * total energy  :   -46.4342777 Eh     change        0.2241529E+00 Eh
   gradient norm :     0.0814027 Eh/α   predicted    -0.2679946E-02 (-101.20%)
   displ. norm   :     0.1446344 α      lambda       -0.4799938E-02
   maximum displ.:     0.0669923 α      in ANC's #77, #76, #80, ...

........................................................................
.............................. CYCLE   19 ..............................
........................................................................
     iter. time                 ...        0 min,  0.019 sec
 * total energy  :   -46.2450256 Eh     change        0.1892521E+00 Eh
   gradient norm :     0.0725379 Eh/α   predicted    -0.2450231E-02 (-101.29%)
   displ. norm   :     0.1067027 α      lambda       -0.4685664E-02
   maximum displ.:     0.0413688 α      in ANC's #80, #59, #74, ...

........................................................................
.............................. CYCLE   20 ..............................
........................................................................
     iter. time                 ...        0 min,  0.019 sec
 * total energy  :   -46.1155385 Eh     change        0.1294871E+00 Eh
   gradient norm :     0.0650867 Eh/α   predicted    -0.2369940E-02 (-101.83%)
   displ. norm   :     0.1156435 α      lambda       -0.4682160E-02
   maximum displ.:     0.0445774 α      in ANC's #59, #35, #80, ...
 * RMSD in coord.:     0.1395577 α      energy gain   0.8754477E+00 Eh

generating ANC from exact Hessian ...
Using GFN-FF Lindh-Hessian
 Shifting diagonal of input Hessian by    9.9919185370116442E-003
 Lowest  eigenvalues of input Hessian
    0.000000    0.000000    0.000000    0.000000    0.000000    0.010000
    0.000000    0.010004    0.010007    0.010010    0.010025    0.010033
    0.010042    0.010044    0.010054    0.010058    0.010083    0.010144
 Highest eigenvalues
    4.630114    5.545982    5.620387    7.883632   10.274470   10.600886


........................................................................
.............................. CYCLE   21 ..............................
........................................................................
     iter. time                 ...        0 min,  0.019 sec
 * total energy  :   -46.0065664 Eh     change        0.1089721E+00 Eh
   gradient norm :     0.0923579 Eh/α   predicted     0.0000000E+00 (-100.00%)
   displ. norm   :     0.0409907 α      lambda       -0.3694335E-02
   maximum displ.:     0.0317176 α      in ANC's #1, #17, #23, ...

........................................................................
.............................. CYCLE   22 ..............................
........................................................................
     iter. time                 ...        0 min,  0.019 sec
 * total energy  :   -46.0020278 Eh     change        0.4538647E-02 Eh
   gradient norm :     0.0609811 Eh/α   predicted    -0.1887076E-02 (-141.58%)
   displ. norm   :     0.0785862 α      lambda       -0.4748919E-02
   maximum displ.:     0.0629370 α      in ANC's #1, #17, #23, ...

........................................................................
.............................. CYCLE   23 ..............................
........................................................................
     iter. time                 ...        0 min,  0.019 sec
 * total energy  :   -45.9856003 Eh     change        0.1642746E-01 Eh
   gradient norm :     0.0244617 Eh/α   predicted    -0.2389147E-02 (-114.54%)
   displ. norm   :     0.0126325 α      lambda       -0.2450853E-03
   maximum displ.:     0.0076167 α      in ANC's #1, #29, #71, ...

........................................................................
.............................. CYCLE   24 ..............................
........................................................................
     iter. time                 ...        0 min,  0.019 sec
 * total energy  :   -45.9803249 Eh     change        0.5275384E-02 Eh
   gradient norm :     0.0190659 Eh/α   predicted    -0.1266043E-03 (-102.40%)
   displ. norm   :     0.0259574 α      lambda       -0.4405018E-03
   maximum displ.:     0.0170990 α      in ANC's #29, #71, #1, ...

........................................................................
.............................. CYCLE   25 ..............................
........................................................................
     iter. time                 ...        0 min,  0.019 sec
 * total energy  :   -45.9669819 Eh     change        0.1334298E-01 Eh
   gradient norm :     0.0121221 Eh/α   predicted    -0.2204295E-03 (-101.65%)
   displ. norm   :     0.0060449 α      lambda       -0.5078648E-04
   maximum displ.:     0.0033370 α      in ANC's #29, #75, #17, ...

........................................................................
.............................. CYCLE   26 ..............................
........................................................................
     iter. time                 ...        0 min,  0.019 sec
 * total energy  :   -45.9617971 Eh     change        0.5184810E-02 Eh
   gradient norm :     0.0120144 Eh/α   predicted    -0.2543623E-04 (-100.49%)
   displ. norm   :     0.0274675 α      lambda       -0.2386409E-03
   maximum displ.:     0.0116130 α      in ANC's #29, #75, #76, ...

........................................................................
.............................. CYCLE   27 ..............................
........................................................................
     iter. time                 ...        0 min,  0.019 sec
 * total energy  :   -45.9342007 Eh     change        0.2759645E-01 Eh
   gradient norm :     0.0141551 Eh/α   predicted    -0.1195750E-03 (-100.43%)
   displ. norm   :     0.0277505 α      lambda       -0.1792769E-03
   maximum displ.:     0.0097756 α      in ANC's #64, #76, #75, ...

........................................................................
.............................. CYCLE   28 ..............................
........................................................................
     iter. time                 ...        0 min,  0.019 sec
 * total energy  :   -45.9027954 Eh     change        0.3140530E-01 Eh
   gradient norm :     0.0169109 Eh/α   predicted    -0.8976769E-04 (-100.29%)
   displ. norm   :     0.0488187 α      lambda       -0.2993898E-03
   maximum displ.:     0.0194399 α      in ANC's #64, #76, #77, ...

........................................................................
.............................. CYCLE   29 ..............................
........................................................................
     iter. time                 ...        0 min,  0.019 sec
 * total energy  :   -45.8428983 Eh     change        0.5989711E-01 Eh
   gradient norm :     0.0213104 Eh/α   predicted    -0.1501314E-03 (-100.25%)
   displ. norm   :     0.0703954 α      lambda       -0.4000109E-03
   maximum displ.:     0.0302493 α      in ANC's #64, #76, #77, ...

........................................................................
.............................. CYCLE   30 ..............................
........................................................................
     iter. time                 ...        0 min,  0.019 sec
 * total energy  :   -45.7496090 Eh     change        0.9328931E-01 Eh
   gradient norm :     0.0260805 Eh/α   predicted    -0.2010216E-03 (-100.22%)
   displ. norm   :     0.1133873 α      lambda       -0.6291053E-03
   maximum displ.:     0.0507831 α      in ANC's #64, #76, #77, ...

........................................................................
.............................. CYCLE   31 ..............................
........................................................................
     iter. time                 ...        0 min,  0.019 sec
 * total energy  :   -45.5865237 Eh     change        0.1630852E+00 Eh
   gradient norm :     0.0296623 Eh/α   predicted    -0.3186084E-03 (-100.20%)
   displ. norm   :     0.1373243 α      lambda       -0.7369861E-03
   maximum displ.:     0.0629986 α      in ANC's #64, #76, #77, ...

........................................................................
.............................. CYCLE   32 ..............................
........................................................................
     iter. time                 ...        0 min,  0.019 sec
 * total energy  :   -45.3729680 Eh     change        0.2135557E+00 Eh
   gradient norm :     0.0274318 Eh/α   predicted    -0.3754273E-03 (-100.18%)
   displ. norm   :     0.1082916 α      lambda       -0.5803613E-03
   maximum displ.:     0.0502354 α      in ANC's #64, #76, #77, ...

........................................................................
.............................. CYCLE   33 ..............................
........................................................................
     iter. time                 ...        0 min,  0.019 sec
 * total energy  :   -45.1985002 Eh     change        0.1744678E+00 Eh
   gradient norm :     0.0186882 Eh/α   predicted    -0.2936250E-03 (-100.17%)
   displ. norm   :     0.0359538 α      lambda       -0.2449720E-03
   maximum displ.:     0.0162092 α      in ANC's #64, #76, #77, ...

........................................................................
.............................. CYCLE   34 ..............................
........................................................................
     iter. time                 ...        0 min,  0.018 sec
 * total energy  :   -45.1464123 Eh     change        0.5208797E-01 Eh
   gradient norm :     0.0113090 Eh/α   predicted    -0.1226643E-03 (-100.24%)
   displ. norm   :     0.0124945 α      lambda       -0.8890556E-04
   maximum displ.:     0.0049926 α      in ANC's #75, #44, #1, ...

........................................................................
.............................. CYCLE   35 ..............................
........................................................................
     iter. time                 ...        0 min,  0.019 sec
 * total energy  :   -45.1646236 Eh     change       -0.1821130E-01 Eh
   gradient norm :     0.0089687 Eh/α   predicted    -0.4471473E-04 ( -99.75%)
   displ. norm   :     0.0151906 α      lambda       -0.5309039E-04
   maximum displ.:     0.0069837 α      in ANC's #44, #79, #78, ...

........................................................................
.............................. CYCLE   36 ..............................
........................................................................
     iter. time                 ...        0 min,  0.019 sec
 * total energy  :   -45.1917145 Eh     change       -0.2709095E-01 Eh
   gradient norm :     0.0088490 Eh/α   predicted    -0.2660923E-04 ( -99.90%)
   displ. norm   :     0.0118120 α      lambda       -0.6197346E-04
   maximum displ.:     0.0065430 α      in ANC's #44, #79, #23, ...

........................................................................
.............................. CYCLE   37 ..............................
........................................................................
     iter. time                 ...        0 min,  0.019 sec
 * total energy  :   -45.2094235 Eh     change       -0.1770900E-01 Eh
   gradient norm :     0.0100601 Eh/α   predicted    -0.3105136E-04 ( -99.82%)
   displ. norm   :     0.0270695 α      lambda       -0.1346882E-03
   maximum displ.:     0.0107598 α      in ANC's #23, #64, #77, ...

........................................................................
.............................. CYCLE   38 ..............................
........................................................................
     iter. time                 ...        0 min,  0.018 sec
 * total energy  :   -45.2133158 Eh     change       -0.3892249E-02 Eh
   gradient norm :     0.0141748 Eh/α   predicted    -0.6770148E-04 ( -98.26%)
   displ. norm   :     0.0687305 α      lambda       -0.2717875E-03
   maximum displ.:     0.0328493 α      in ANC's #64, #77, #76, ...

........................................................................
.............................. CYCLE   39 ..............................
........................................................................
     iter. time                 ...        0 min,  0.019 sec
 * total energy  :   -45.1866762 Eh     change        0.2663951E-01 Eh
   gradient norm :     0.0211550 Eh/α   predicted    -0.1365703E-03 (-100.51%)
   displ. norm   :     0.1408852 α      lambda       -0.5202712E-03
   maximum displ.:     0.0690778 α      in ANC's #64, #77, #76, ...

........................................................................
.............................. CYCLE   40 ..............................
........................................................................
     iter. time                 ...        0 min,  0.020 sec
 * total energy  :   -45.1096238 Eh     change        0.7705243E-01 Eh
   gradient norm :     0.0282572 Eh/α   predicted    -0.2653414E-03 (-100.34%)
   displ. norm   :     0.1986011 α      lambda       -0.7538624E-03
   maximum displ.:     0.0963017 α      in ANC's #64, #77, #76, ...

........................................................................
.............................. CYCLE   41 ..............................
........................................................................
     iter. time                 ...        0 min,  0.020 sec
 * total energy  :   -44.9943906 Eh     change        0.1152333E+00 Eh
   gradient norm :     0.0284125 Eh/α   predicted    -0.3917451E-03 (-100.34%)
   displ. norm   :     0.1460865 α      lambda       -0.6563471E-03
   maximum displ.:     0.0657056 α      in ANC's #64, #77, #76, ...

........................................................................
.............................. CYCLE   42 ..............................
........................................................................
     iter. time                 ...        0 min,  0.019 sec
 * total energy  :   -44.9352876 Eh     change        0.5910298E-01 Eh
   gradient norm :     0.0183016 Eh/α   predicted    -0.3352026E-03 (-100.57%)
   displ. norm   :     0.0364406 α      lambda       -0.2828397E-03
   maximum displ.:     0.0202826 α      in ANC's #44, #79, #46, ...
 * RMSD in coord.:     0.0666972 α      energy gain   0.1180251E+01 Eh

generating ANC from exact Hessian ...
Using GFN-FF Lindh-Hessian
 Shifting diagonal of input Hessian by    9.9920852371959516E-003
 Lowest  eigenvalues of input Hessian
    0.000000    0.000000    0.000000    0.000000    0.000000    0.010000
    0.000000    0.010004    0.010007    0.010010    0.010024    0.010033
    0.010041    0.010044    0.010054    0.010058    0.010079    0.010142
 Highest eigenvalues
    5.143349    5.244141    5.336918    5.955579    7.424726   21.789485


........................................................................
.............................. CYCLE   43 ..............................
........................................................................
     iter. time                 ...        0 min,  0.020 sec
 * total energy  :   -44.9665598 Eh     change       -0.3127227E-01 Eh
   gradient norm :     0.0979066 Eh/α   predicted     0.0000000E+00 (-100.00%)
   displ. norm   :     0.0301554 α      lambda       -0.2106071E-02
   maximum displ.:     0.0144333 α      in ANC's #75, #23, #48, ...

........................................................................
.............................. CYCLE   44 ..............................
........................................................................
     iter. time                 ...        0 min,  0.019 sec
 * total energy  :   -44.9801233 Eh     change       -0.1356340E-01 Eh
   gradient norm :     0.0903143 Eh/α   predicted    -0.1413634E-02 ( -89.58%)
   displ. norm   :     0.2336854 α      lambda       -0.2015496E-01
   maximum displ.:     0.1313505 α      in ANC's #75, #23, #73, ...

........................................................................
.............................. CYCLE   45 ..............................
........................................................................
     iter. time                 ...        0 min,  0.019 sec
 * total energy  :   -45.0716913 Eh     change       -0.9156808E-01 Eh
   gradient norm :     0.0881577 Eh/α   predicted    -0.1063082E-01 ( -88.39%)
   displ. norm   :     0.1119985 α      lambda       -0.4924321E-02
   maximum displ.:     0.0792981 α      in ANC's #75, #73, #74, ...

........................................................................
.............................. CYCLE   46 ..............................
........................................................................
     iter. time                 ...        0 min,  0.019 sec
 * total energy  :   -45.1062746 Eh     change       -0.3458324E-01 Eh
   gradient norm :     0.0914331 Eh/α   predicted    -0.2493665E-02 ( -92.79%)
   displ. norm   :     0.2169956 α      lambda       -0.9478793E-02
   maximum displ.:     0.1700668 α      in ANC's #75, #73, #74, ...

........................................................................
.............................. CYCLE   47 ..............................
........................................................................
     iter. time                 ...        0 min,  0.019 sec
 * total energy  :   -45.1566773 Eh     change       -0.5040270E-01 Eh
   gradient norm :     0.0864924 Eh/α   predicted    -0.4963351E-02 ( -90.15%)
   displ. norm   :     0.2353045 α      lambda       -0.8513961E-02
   maximum displ.:     0.1927142 α      in ANC's #75, #74, #73, ...

........................................................................
.............................. CYCLE   48 ..............................
........................................................................
     iter. time                 ...        0 min,  0.019 sec
 * total energy  :   -45.1892501 Eh     change       -0.3257286E-01 Eh
   gradient norm :     0.0920031 Eh/α   predicted    -0.4492851E-02 ( -86.21%)
   displ. norm   :     0.2902661 α      lambda       -0.9548560E-02
   maximum displ.:     0.2355982 α      in ANC's #75, #74, #73, ...

........................................................................
.............................. CYCLE   49 ..............................
........................................................................
     iter. time                 ...        0 min,  0.019 sec
 * total energy  :   -45.2047047 Eh     change       -0.1545456E-01 Eh
   gradient norm :     0.1083082 Eh/α   predicted    -0.5176561E-02 ( -66.50%)
   displ. norm   :     0.2002829 α      lambda       -0.8158886E-02
   maximum displ.:     0.1478291 α      in ANC's #75, #74, #23, ...

........................................................................
.............................. CYCLE   50 ..............................
........................................................................
     iter. time                 ...        0 min,  0.019 sec
 * total energy  :   -45.1888870 Eh     change        0.1581765E-01 Eh
   gradient norm :     0.1024660 Eh/α   predicted    -0.4243313E-02 (-126.83%)
   displ. norm   :     0.1375829 α      lambda       -0.9509433E-02
   maximum displ.:     0.0812721 α      in ANC's #23, #34, #20, ...

........................................................................
.............................. CYCLE   51 ..............................
........................................................................
     iter. time                 ...        0 min,  0.019 sec
 * total energy  :   -45.1413894 Eh     change        0.4749762E-01 Eh
   gradient norm :     0.0752130 Eh/α   predicted    -0.4844834E-02 (-110.20%)
   displ. norm   :     0.1382917 α      lambda       -0.5688630E-02
   maximum displ.:     0.0603192 α      in ANC's #34, #23, #48, ...

........................................................................
.............................. CYCLE   52 ..............................
........................................................................
     iter. time                 ...        0 min,  0.019 sec
 * total energy  :   -45.1024419 Eh     change        0.3894756E-01 Eh
   gradient norm :     0.0438159 Eh/α   predicted    -0.2898787E-02 (-107.44%)
   displ. norm   :     0.0588731 α      lambda        0.1896865E-03
   maximum displ.:     0.0263360 α      in ANC's #23, #34, #75, ...

........................................................................
.............................. CYCLE   53 ..............................
........................................................................
     iter. time                 ...        0 min,  0.018 sec
 * total energy  :   -45.0883540 Eh     change        0.1408783E-01 Eh
   gradient norm :     0.0410396 Eh/α   predicted     0.9516232E-04 ( -99.32%)
   displ. norm   :     0.0826831 α      lambda       -0.1668802E-02
   maximum displ.:     0.0665746 α      in ANC's #75, #74, #23, ...

........................................................................
.............................. CYCLE   54 ..............................
........................................................................
     iter. time                 ...        0 min,  0.019 sec
 * total energy  :   -45.0936275 Eh     change       -0.5273446E-02 Eh
   gradient norm :     0.0198159 Eh/α   predicted    -0.8408021E-03 ( -84.06%)
   displ. norm   :     0.0360912 α      lambda       -0.4785069E-03
   maximum displ.:     0.0174390 α      in ANC's #75, #23, #73, ...

........................................................................
.............................. CYCLE   55 ..............................
........................................................................
     iter. time                 ...        0 min,  0.018 sec
 * total energy  :   -45.1001977 Eh     change       -0.6570196E-02 Eh
   gradient norm :     0.0129023 Eh/α   predicted    -0.2397744E-03 ( -96.35%)
   displ. norm   :     0.0094268 α      lambda       -0.8355491E-04
   maximum displ.:     0.0043044 α      in ANC's #3, #23, #74, ...

........................................................................
.............................. CYCLE   56 ..............................
........................................................................
     iter. time                 ...        0 min,  0.019 sec
 * total energy  :   -45.0995026 Eh     change        0.6950765E-03 Eh
   gradient norm :     0.0125898 Eh/α   predicted    -0.4183832E-04 (-106.02%)
   displ. norm   :     0.0215865 α      lambda       -0.1879598E-03
   maximum displ.:     0.0115408 α      in ANC's #74, #3, #79, ...

........................................................................
.............................. CYCLE   57 ..............................
........................................................................
     iter. time                 ...        0 min,  0.019 sec
 * total energy  :   -45.0936482 Eh     change        0.5854390E-02 Eh
   gradient norm :     0.0147292 Eh/α   predicted    -0.9423471E-04 (-101.61%)
   displ. norm   :     0.0479160 α      lambda       -0.3745354E-03
   maximum displ.:     0.0278766 α      in ANC's #74, #3, #79, ...

........................................................................
.............................. CYCLE   58 ..............................
........................................................................
     iter. time                 ...        0 min,  0.019 sec
 * total energy  :   -45.0765760 Eh     change        0.1707225E-01 Eh
   gradient norm :     0.0207231 Eh/α   predicted    -0.1880503E-03 (-101.10%)
   displ. norm   :     0.0896671 α      lambda       -0.6301070E-03
   maximum displ.:     0.0531938 α      in ANC's #74, #3, #79, ...

........................................................................
.............................. CYCLE   59 ..............................
........................................................................
     iter. time                 ...        0 min,  0.019 sec
 * total energy  :   -45.0431824 Eh     change        0.3339353E-01 Eh
   gradient norm :     0.0290940 Eh/α   predicted    -0.3176204E-03 (-100.95%)
   displ. norm   :     0.1612778 α      lambda       -0.1065152E-02
   maximum displ.:     0.0954098 α      in ANC's #74, #3, #79, ...

........................................................................
.............................. CYCLE   60 ..............................
........................................................................
     iter. time                 ...        0 min,  0.018 sec
 * total energy  :   -44.9880219 Eh     change        0.5516054E-01 Eh
   gradient norm :     0.0381055 Eh/α   predicted    -0.5464956E-03 (-100.99%)
   displ. norm   :     0.2659454 α      lambda       -0.1701094E-02
   maximum displ.:     0.1553211 α      in ANC's #74, #79, #3, ...

........................................................................
.............................. CYCLE   61 ..............................
........................................................................
     iter. time                 ...        0 min,  0.019 sec
 * total energy  :   -44.9027298 Eh     change        0.8529211E-01 Eh
   gradient norm :     0.0444494 Eh/α   predicted    -0.9107685E-03 (-101.07%)
   displ. norm   :     0.3646091 α      lambda       -0.2284273E-02
   maximum displ.:     0.2082637 α      in ANC's #74, #79, #3, ...

........................................................................
.............................. CYCLE   62 ..............................
........................................................................
     iter. time                 ...        0 min,  0.019 sec
 * total energy  :   -44.7184396 Eh     change        0.1842902E+00 Eh
   gradient norm :     0.0435462 Eh/α   predicted    -0.1294059E-02 (-100.70%)
   displ. norm   :     0.3146898 α      lambda       -0.1876521E-02
   maximum displ.:     0.1718487 α      in ANC's #74, #79, #3, ...

........................................................................
.............................. CYCLE   63 ..............................
........................................................................
     iter. time                 ...        0 min,  0.019 sec
 * total energy  :   -44.4280982 Eh     change        0.2903413E+00 Eh
   gradient norm :     0.0350793 Eh/α   predicted    -0.1031177E-02 (-100.36%)
   displ. norm   :     0.1785795 α      lambda       -0.1100945E-02
   maximum displ.:     0.0871031 α      in ANC's #74, #79, #3, ...

........................................................................
.............................. CYCLE   64 ..............................
........................................................................
     iter. time                 ...        0 min,  0.019 sec
 * total energy  :   -44.2342613 Eh     change        0.1938369E+00 Eh
   gradient norm :     0.0281217 Eh/α   predicted    -0.5680573E-03 (-100.29%)
   displ. norm   :     0.1125526 α      lambda       -0.6620368E-03
   maximum displ.:     0.0535449 α      in ANC's #79, #3, #74, ...

........................................................................
.............................. CYCLE   65 ..............................
........................................................................
     iter. time                 ...        0 min,  0.019 sec
 * total energy  :   -44.1257909 Eh     change        0.1084704E+00 Eh
   gradient norm :     0.0282500 Eh/α   predicted    -0.3352791E-03 (-100.31%)
   displ. norm   :     0.1076129 α      lambda       -0.6090359E-03
   maximum displ.:     0.0523193 α      in ANC's #79, #3, #2, ...

........................................................................
.............................. CYCLE   66 ..............................
........................................................................
     iter. time                 ...        0 min,  0.019 sec
 * total energy  :   -44.0432948 Eh     change        0.8249609E-01 Eh
   gradient norm :     0.0310480 Eh/α   predicted    -0.3080883E-03 (-100.37%)
   displ. norm   :     0.1723751 α      lambda       -0.1170955E-02
   maximum displ.:     0.0848817 α      in ANC's #79, #3, #2, ...
 * RMSD in coord.:     0.1684933 α      energy gain   0.8919927E+00 Eh

generating ANC from exact Hessian ...
Using GFN-FF Lindh-Hessian
 Shifting diagonal of input Hessian by    9.9922037958382025E-003
 Lowest  eigenvalues of input Hessian
    0.000000    0.000000    0.000000    0.000000    0.000000    0.010000
    0.000000    0.010004    0.010007    0.010010    0.010023    0.010032
    0.010040    0.010044    0.010054    0.010058    0.010076    0.010141
 Highest eigenvalues
    3.726074    3.892515    6.243019    7.879809   13.752563   42.157096


........................................................................
.............................. CYCLE   67 ..............................
........................................................................
     iter. time                 ...        0 min,  0.019 sec
 * total energy  :   -43.9927711 Eh     change        0.5052374E-01 Eh
   gradient norm :     0.0436006 Eh/α   predicted     0.0000000E+00 (-100.00%)
   displ. norm   :     0.0148189 α      lambda       -0.4519494E-03
   maximum displ.:     0.0092872 α      in ANC's #5, #64, #61, ...

........................................................................
.............................. CYCLE   68 ..............................
........................................................................
     iter. time                 ...        0 min,  0.019 sec
 * total energy  :   -43.9858591 Eh     change        0.6911966E-02 Eh
   gradient norm :     0.0339198 Eh/α   predicted    -0.3097174E-03 (-104.48%)
   displ. norm   :     0.0391644 α      lambda       -0.1248739E-02
   maximum displ.:     0.0198881 α      in ANC's #5, #64, #81, ...

........................................................................
.............................. CYCLE   69 ..............................
........................................................................
     iter. time                 ...        0 min,  0.019 sec
 * total energy  :   -43.9595994 Eh     change        0.2625976E-01 Eh
   gradient norm :     0.0320709 Eh/α   predicted    -0.6253735E-03 (-102.38%)
   displ. norm   :     0.0226792 α      lambda       -0.4516590E-03
   maximum displ.:     0.0132443 α      in ANC's #81, #64, #66, ...

........................................................................
.............................. CYCLE   70 ..............................
........................................................................
     iter. time                 ...        0 min,  0.018 sec
 * total energy  :   -43.9388778 Eh     change        0.2072158E-01 Eh
   gradient norm :     0.0372418 Eh/α   predicted    -0.2260041E-03 (-101.09%)
   displ. norm   :     0.1510216 α      lambda       -0.3216019E-02
   maximum displ.:     0.0928111 α      in ANC's #81, #64, #58, ...

........................................................................
.............................. CYCLE   71 ..............................
........................................................................
     iter. time                 ...        0 min,  0.019 sec
 * total energy  :   -43.7989565 Eh     change        0.1399213E+00 Eh
   gradient norm :     0.0660744 Eh/α   predicted    -0.1649013E-02 (-101.18%)
   displ. norm   :     0.2561932 α      lambda       -0.4783634E-02
   maximum displ.:     0.1603352 α      in ANC's #81, #64, #58, ...

........................................................................
.............................. CYCLE   72 ..............................
........................................................................
     iter. time                 ...        0 min,  0.019 sec
 * total energy  :   -43.5878172 Eh     change        0.2111393E+00 Eh
   gradient norm :     0.0920409 Eh/α   predicted    -0.2550924E-02 (-101.21%)
   displ. norm   :     0.4514763 α      lambda       -0.8673246E-02
   maximum displ.:     0.2841454 α      in ANC's #81, #64, #58, ...

........................................................................
.............................. CYCLE   73 ..............................
........................................................................
     iter. time                 ...        0 min,  0.019 sec
 * total energy  :   -43.3657783 Eh     change        0.2220389E+00 Eh
   gradient norm :     0.0996570 Eh/α   predicted    -0.5223813E-02 (-102.35%)
   displ. norm   :     0.4946361 α      lambda       -0.9748542E-02
   maximum displ.:     0.3111975 α      in ANC's #81, #58, #64, ...

........................................................................
.............................. CYCLE   74 ..............................
........................................................................
     iter. time                 ...        0 min,  0.019 sec
 * total energy  :   -43.1585333 Eh     change        0.2072450E+00 Eh
   gradient norm :     0.0748284 Eh/α   predicted    -0.6066629E-02 (-102.93%)
   displ. norm   :     0.3640584 α      lambda       -0.6020700E-02
   maximum displ.:     0.2274173 α      in ANC's #81, #58, #61, ...

........................................................................
.............................. CYCLE   75 ..............................
........................................................................
     iter. time                 ...        0 min,  0.018 sec
 * total energy  :   -42.9775397 Eh     change        0.1809936E+00 Eh
   gradient norm :     0.0574715 Eh/α   predicted    -0.3409439E-02 (-101.88%)
   displ. norm   :     0.1657638 α      lambda       -0.2685459E-02
   maximum displ.:     0.0994899 α      in ANC's #81, #58, #61, ...

........................................................................
.............................. CYCLE   76 ..............................
........................................................................
     iter. time                 ...        0 min,  0.019 sec
 * total energy  :   -42.8908063 Eh     change        0.8673344E-01 Eh
   gradient norm :     0.0602603 Eh/α   predicted    -0.1379823E-02 (-101.59%)
   displ. norm   :     0.1828898 α      lambda       -0.5024712E-02
   maximum displ.:     0.0918860 α      in ANC's #22, #81, #58, ...

........................................................................
.............................. CYCLE   77 ..............................
........................................................................
     iter. time                 ...        0 min,  0.018 sec
 * total energy  :   -42.8078272 Eh     change        0.8297909E-01 Eh
   gradient norm :     0.0722203 Eh/α   predicted    -0.2598446E-02 (-103.13%)
   displ. norm   :     0.1992835 α      lambda       -0.6675626E-02
   maximum displ.:     0.1499982 α      in ANC's #22, #58, #81, ...

........................................................................
.............................. CYCLE   78 ..............................
........................................................................
     iter. time                 ...        0 min,  0.019 sec
 * total energy  :   -42.7587010 Eh     change        0.4912623E-01 Eh
   gradient norm :     0.0733576 Eh/α   predicted    -0.3470469E-02 (-107.06%)
   displ. norm   :     0.1627109 α      lambda       -0.4962925E-02
   maximum displ.:     0.1398349 α      in ANC's #22, #58, #74, ...

........................................................................
.............................. CYCLE   79 ..............................
........................................................................
     iter. time                 ...        0 min,  0.019 sec
 * total energy  :   -42.7479927 Eh     change        0.1070830E-01 Eh
   gradient norm :     0.0450667 Eh/α   predicted    -0.2547198E-02 (-123.79%)
   displ. norm   :     0.0586098 α      lambda       -0.1406756E-02
   maximum displ.:     0.0513614 α      in ANC's #22, #58, #74, ...

........................................................................
.............................. CYCLE   80 ..............................
........................................................................
     iter. time                 ...        0 min,  0.018 sec
 * total energy  :   -42.7491146 Eh     change       -0.1121986E-02 Eh
   gradient norm :     0.0179961 Eh/α   predicted    -0.7058137E-03 ( -37.09%)
   displ. norm   :     0.0128471 α      lambda       -0.1888105E-03
   maximum displ.:     0.0069033 α      in ANC's #61, #81, #55, ...

........................................................................
.............................. CYCLE   81 ..............................
........................................................................
     iter. time                 ...        0 min,  0.019 sec
 * total energy  :   -42.7536431 Eh     change       -0.4528472E-02 Eh
   gradient norm :     0.0119296 Eh/α   predicted    -0.9504335E-04 ( -97.90%)
   displ. norm   :     0.0102411 α      lambda       -0.7998635E-04
   maximum displ.:     0.0062549 α      in ANC's #81, #58, #22, ...

........................................................................
.............................. CYCLE   82 ..............................
........................................................................
     iter. time                 ...        0 min,  0.019 sec
 * total energy  :   -42.7559607 Eh     change       -0.2317532E-02 Eh
   gradient norm :     0.0118751 Eh/α   predicted    -0.4003453E-04 ( -98.27%)
   displ. norm   :     0.0169013 α      lambda       -0.1394718E-03
   maximum displ.:     0.0085361 α      in ANC's #64, #81, #66, ...

........................................................................
.............................. CYCLE   83 ..............................
........................................................................
     iter. time                 ...        0 min,  0.019 sec
 * total energy  :   -42.7541885 Eh     change        0.1772182E-02 Eh
   gradient norm :     0.0149927 Eh/α   predicted    -0.6990384E-04 (-103.94%)
   displ. norm   :     0.0388928 α      lambda       -0.2750551E-03
   maximum displ.:     0.0200715 α      in ANC's #64, #66, #72, ...

........................................................................
.............................. CYCLE   84 ..............................
........................................................................
     iter. time                 ...        0 min,  0.019 sec
 * total energy  :   -42.7430370 Eh     change        0.1115150E-01 Eh
   gradient norm :     0.0221541 Eh/α   predicted    -0.1377505E-03 (-101.24%)
   displ. norm   :     0.1045772 α      lambda       -0.6507610E-03
   maximum displ.:     0.0509040 α      in ANC's #64, #61, #66, ...

........................................................................
.............................. CYCLE   85 ..............................
........................................................................
     iter. time                 ...        0 min,  0.019 sec
 * total energy  :   -42.7051733 Eh     change        0.3786368E-01 Eh
   gradient norm :     0.0347769 Eh/α   predicted    -0.3292021E-03 (-100.87%)
   displ. norm   :     0.2425756 α      lambda       -0.1374833E-02
   maximum displ.:     0.1138258 α      in ANC's #64, #58, #61, ...

........................................................................
.............................. CYCLE   86 ..............................
........................................................................
     iter. time                 ...        0 min,  0.019 sec
 * total energy  :   -42.5889089 Eh     change        0.1162644E+00 Eh
   gradient norm :     0.0505018 Eh/α   predicted    -0.7282317E-03 (-100.63%)
   displ. norm   :     0.4565645 α      lambda       -0.2382295E-02
   maximum displ.:     0.2113580 α      in ANC's #64, #58, #61, ...

........................................................................
.............................. CYCLE   87 ..............................
........................................................................
     iter. time                 ...        0 min,  0.019 sec
 * total energy  :   -42.3832086 Eh     change        0.2057003E+00 Eh
   gradient norm :     0.0601040 Eh/α   predicted    -0.1439554E-02 (-100.70%)
   displ. norm   :     0.5895892 α      lambda       -0.3492056E-02
   maximum displ.:     0.2629374 α      in ANC's #58, #64, #61, ...

........................................................................
.............................. CYCLE   88 ..............................
........................................................................
     iter. time                 ...        0 min,  0.019 sec
 * total energy  :   -42.1867193 Eh     change        0.1964893E+00 Eh
   gradient norm :     0.0496279 Eh/α   predicted    -0.2353383E-02 (-101.20%)
   displ. norm   :     0.6416598 α      lambda       -0.4258635E-02
   maximum displ.:     0.3047202 α      in ANC's #58, #64, #61, ...

........................................................................
.............................. CYCLE   89 ..............................
........................................................................
     iter. time                 ...        0 min,  0.019 sec
 * total energy  :   -41.8477028 Eh     change        0.3390165E+00 Eh
   gradient norm :     0.0146505 Eh/α   predicted    -0.3006303E-02 (-100.89%)
   displ. norm   :     0.7140021 α      lambda       -0.2274927E-02
   maximum displ.:     0.3262880 α      in ANC's #58, #64, #61, ...

........................................................................
.............................. CYCLE   90 ..............................
........................................................................
     iter. time                 ...        0 min,  0.018 sec
 * total energy  :   -41.0547162 Eh     change        0.7929866E+00 Eh
   gradient norm :     0.0075304 Eh/α   predicted    -0.1717445E-02 (-100.22%)
   displ. norm   :     0.3500635 α      lambda       -0.3979396E-03
   maximum displ.:     0.1564718 α      in ANC's #58, #64, #61, ...

........................................................................
.............................. CYCLE   91 ..............................
........................................................................
     iter. time                 ...        0 min,  0.019 sec
 * total energy  :   -40.4709533 Eh     change        0.5837628E+00 Eh
   gradient norm :     0.0053025 Eh/α   predicted    -0.2235557E-03 (-100.04%)
   displ. norm   :     0.1317035 α      lambda       -0.7200775E-04
   maximum displ.:     0.0623866 α      in ANC's #64, #58, #61, ...

........................................................................
.............................. CYCLE   92 ..............................
........................................................................
     iter. time                 ...        0 min,  0.019 sec
 * total energy  :   -40.2091440 Eh     change        0.2618093E+00 Eh
   gradient norm :     0.0047947 Eh/α   predicted    -0.3676722E-04 (-100.01%)
   displ. norm   :     0.3660355 α      lambda       -0.1705597E-03
   maximum displ.:     0.1769125 α      in ANC's #64, #58, #61, ...
 * RMSD in coord.:     0.3566188 α      energy gain   0.3834151E+01 Eh

generating ANC from exact Hessian ...
Using GFN-FF Lindh-Hessian
 Shifting diagonal of input Hessian by    1.0010873904472533E-002
 Lowest  eigenvalues of input Hessian
    0.010000    0.000000    0.000000    0.000000    0.000000    0.000000
    0.000000    0.010018    0.010019    0.010023    0.010023    0.010026
    0.010031    0.010033    0.010040    0.010050    0.010054    0.010060
 Highest eigenvalues
    5.575480    6.112217    7.101427   21.071022   23.366855   35.727941


........................................................................
.............................. CYCLE   93 ..............................
........................................................................
     iter. time                 ...        0 min,  0.019 sec
 * total energy  :   -39.3571156 Eh     change        0.8520285E+00 Eh
   gradient norm :     0.0098025 Eh/α   predicted     0.0000000E+00 (-100.00%)
   displ. norm   :     0.0036160 α      lambda       -0.3505690E-04
   maximum displ.:     0.0021544 α      in ANC's #45, #55, #49, ...

........................................................................
.............................. CYCLE   94 ..............................
........................................................................
     iter. time                 ...        0 min,  0.019 sec
 * total energy  :   -39.3555586 Eh     change        0.1557004E-02 Eh
   gradient norm :     0.0056904 Eh/α   predicted    -0.1768475E-04 (-101.14%)
   displ. norm   :     0.0050463 α      lambda       -0.2857905E-04
   maximum displ.:     0.0032317 α      in ANC's #45, #55, #49, ...

........................................................................
.............................. CYCLE   95 ..............................
........................................................................
     iter. time                 ...        0 min,  0.019 sec
 * total energy  :   -39.3518058 Eh     change        0.3752789E-02 Eh
   gradient norm :     0.0012360 Eh/α   predicted    -0.1430318E-04 (-100.38%)
   displ. norm   :     0.0007013 α      lambda       -0.8544887E-07
   maximum displ.:     0.0005042 α      in ANC's #19, #45, #78, ...

........................................................................
.............................. CYCLE   96 ..............................
........................................................................
     iter. time                 ...        0 min,  0.019 sec
 * total energy  :   -39.3493378 Eh     change        0.2468010E-02 Eh
   gradient norm :     0.0011213 Eh/α   predicted    -0.2601816E-06 (-100.01%)
   displ. norm   :     0.0040160 α      lambda       -0.2650635E-05
   maximum displ.:     0.0033123 α      in ANC's #19, #78, #45, ...

........................................................................
.............................. CYCLE   97 ..............................
........................................................................
     iter. time                 ...        0 min,  0.019 sec
 * total energy  :   -39.3331472 Eh     change        0.1619056E-01 Eh
   gradient norm :     0.0018195 Eh/α   predicted    -0.1350224E-05 (-100.01%)
   displ. norm   :     0.0054541 α      lambda       -0.1929872E-05
   maximum displ.:     0.0047819 α      in ANC's #19, #78, #80, ...

........................................................................
.............................. CYCLE   98 ..............................
........................................................................
     iter. time                 ...        0 min,  0.018 sec
 * total energy  :   -39.3098758 Eh     change        0.2327143E-01 Eh
   gradient norm :     0.0027596 Eh/α   predicted    -0.1315042E-05 (-100.01%)
   displ. norm   :     0.0168493 α      lambda       -0.1229928E-04
   maximum displ.:     0.0149381 α      in ANC's #19, #78, #80, ...

........................................................................
.............................. CYCLE   99 ..............................
........................................................................
     iter. time                 ...        0 min,  0.019 sec
 * total energy  :   -39.2355784 Eh     change        0.7429734E-01 Eh
   gradient norm :     0.0046056 Eh/α   predicted    -0.6183704E-05 (-100.01%)
   displ. norm   :     0.0565001 α      lambda       -0.3711778E-04
   maximum displ.:     0.0502280 α      in ANC's #19, #78, #80, ...

........................................................................
.............................. CYCLE  100 ..............................
........................................................................
     iter. time                 ...        0 min,  0.019 sec
 * total energy  :   -38.9657455 Eh     change        0.2698329E+00 Eh
   gradient norm :     0.0091807 Eh/α   predicted    -0.1868339E-04 (-100.01%)
   displ. norm   :     0.0643636 α      lambda       -0.3199795E-04
   maximum displ.:     0.0573064 α      in ANC's #19, #78, #80, ...

........................................................................
.............................. CYCLE  101 ..............................
........................................................................
     iter. time                 ...        0 min,  0.019 sec
 * total energy  :   -38.6142390 Eh     change        0.3515065E+00 Eh
   gradient norm :     0.0121379 Eh/α   predicted    -0.1852852E-04 (-100.01%)
   displ. norm   :     0.1903398 α      lambda       -0.1217417E-03
   maximum displ.:     0.1695435 α      in ANC's #19, #78, #80, ...

........................................................................
.............................. CYCLE  102 ..............................
........................................................................
     iter. time                 ...        0 min,  0.019 sec
 * total energy  :   -37.1955438 Eh     change        0.1418695E+01 Eh
   gradient norm :     0.0167288 Eh/α   predicted    -0.6313653E-04 (-100.00%)
   displ. norm   :     0.2464822 α      lambda       -0.1670317E-03
   maximum displ.:     0.2195264 α      in ANC's #19, #78, #80, ...

........................................................................
.............................. CYCLE  103 ..............................
........................................................................
     iter. time                 ...        0 min,  0.019 sec
 * total energy  :   -33.7222238 Eh     change        0.3473320E+01 Eh
   gradient norm :     0.0172901 Eh/α   predicted    -0.8861271E-04 (-100.00%)
   displ. norm   :     0.1512680 α      lambda       -0.1576505E-03
   maximum displ.:     0.1344497 α      in ANC's #19, #78, #80, ...

........................................................................
.............................. CYCLE  104 ..............................
........................................................................
     iter. time                 ...        0 min,  0.019 sec
 * total energy  :   -29.6761984 Eh     change        0.4046025E+01 Eh
   gradient norm :     0.0104311 Eh/α   predicted    -0.8064191E-04 (-100.00%)
   displ. norm   :     0.0190618 α      lambda       -0.9305109E-04
   maximum displ.:     0.0146672 α      in ANC's #19, #45, #78, ...

........................................................................
.............................. CYCLE  105 ..............................
........................................................................
     iter. time                 ...        0 min,  0.019 sec
 * total energy  :   -29.0647704 Eh     change        0.6114279E+00 Eh
   gradient norm :     0.0013380 Eh/α   predicted    -0.4710382E-04 (-100.01%)
   displ. norm   :     0.0719101 α      lambda       -0.6128462E-05
   maximum displ.:     0.0642167 α      in ANC's #19, #78, #80, ...

........................................................................
.............................. CYCLE  106 ..............................
........................................................................
     iter. time                 ...        0 min,  0.019 sec
 * total energy  :   -31.4212101 Eh     change       -0.2356440E+01 Eh
   gradient norm :     0.0013480 Eh/α   predicted    -0.3115554E-05 (-100.00%)
   displ. norm   :     0.0010858 α      lambda       -0.8494447E-06
   maximum displ.:     0.0008163 α      in ANC's #45, #55, #15, ...

........................................................................
.............................. CYCLE  107 ..............................
........................................................................
     iter. time                 ...        0 min,  0.019 sec
 * total energy  :   -31.4158641 Eh     change        0.5345920E-02 Eh
   gradient norm :     0.0008536 Eh/α   predicted    -0.4340566E-06 (-100.01%)
   displ. norm   :     0.0006951 α      lambda       -0.2273591E-06
   maximum displ.:     0.0006457 α      in ANC's #19, #78, #55, ...

........................................................................
.............................. CYCLE  108 ..............................
........................................................................
     iter. time                 ...        0 min,  0.019 sec
 * total energy  :   -31.4271112 Eh     change       -0.1124711E-01 Eh
   gradient norm :     0.0008715 Eh/α   predicted    -0.1262475E-06 (-100.00%)
   displ. norm   :     0.0203361 α      lambda       -0.5346967E-05
   maximum displ.:     0.0201948 α      in ANC's #19, #78, #15, ...

........................................................................
.............................. CYCLE  109 ..............................
........................................................................
     iter. time                 ...        0 min,  0.019 sec
 * total energy  :   -31.8395967 Eh     change       -0.4124854E+00 Eh
   gradient norm :     0.0023838 Eh/α   predicted    -0.2686245E-05 (-100.00%)
   displ. norm   :     0.0177481 α      lambda       -0.4693151E-05
   maximum displ.:     0.0176917 α      in ANC's #19, #78, #20, ...

........................................................................
.............................. CYCLE  110 ..............................
........................................................................
     iter. time                 ...        0 min,  0.019 sec
 * total energy  :   -32.1624484 Eh     change       -0.3228517E+00 Eh
   gradient norm :     0.0030999 Eh/α   predicted    -0.2479155E-05 (-100.00%)
   displ. norm   :     0.0447915 α      lambda       -0.2512918E-04
   maximum displ.:     0.0270005 α      in ANC's #78, #19, #80, ...

........................................................................
.............................. CYCLE  111 ..............................
........................................................................
     iter. time                 ...        0 min,  0.018 sec
 * total energy  :   -31.9464132 Eh     change        0.2160352E+00 Eh
   gradient norm :     0.0063315 Eh/α   predicted    -0.1265678E-04 (-100.01%)
   displ. norm   :     0.0837136 α      lambda       -0.4209895E-04
   maximum displ.:     0.0600461 α      in ANC's #78, #80, #20, ...

........................................................................
.............................. CYCLE  112 ..............................
........................................................................
     iter. time                 ...        0 min,  0.019 sec
 * total energy  :   -30.6215024 Eh     change        0.1324911E+01 Eh
   gradient norm :     0.0103782 Eh/α   predicted    -0.2128909E-04 (-100.00%)
   displ. norm   :     0.2173224 α      lambda       -0.1079331E-03
   maximum displ.:     0.1576378 α      in ANC's #78, #80, #20, ...

........................................................................
.............................. CYCLE  113 ..............................
........................................................................
     iter. time                 ...        0 min,  0.019 sec
 * total energy  :   -26.5972125 Eh     change        0.4024290E+01 Eh
   gradient norm :     0.0168024 Eh/α   predicted    -0.5720059E-04 (-100.00%)
   displ. norm   :     0.3934888 α      lambda       -0.1967987E-03
   maximum displ.:     0.2901378 α      in ANC's #78, #80, #20, ...

........................................................................
.............................. CYCLE  114 ..............................
........................................................................
     iter. time                 ...        0 min,  0.018 sec
 * total energy  :   -26.2732476 Eh     change        0.3239649E+00 Eh
   gradient norm :     0.0236891 Eh/α   predicted    -0.1176128E-03 (-100.04%)
   displ. norm   :     0.7450638 α      lambda       -0.4723958E-03
   maximum displ.:     0.5500699 α      in ANC's #78, #80, #20, ...

........................................................................
.............................. CYCLE  115 ..............................
........................................................................
     iter. time                 ...        0 min,  0.019 sec
 * total energy  :   -36.8854006 Eh     change       -0.1061215E+02 Eh
   gradient norm :     0.0281407 Eh/α   predicted    -0.3910444E-03 (-100.00%)
   displ. norm   :     0.6253282 α      lambda       -0.7807903E-03
   maximum displ.:     0.4595412 α      in ANC's #78, #80, #20, ...

........................................................................
.............................. CYCLE  116 ..............................
........................................................................
     iter. time                 ...        0 min,  0.019 sec
 * total energy  :   -36.7773863 Eh     change        0.1080143E+00 Eh
   gradient norm :     0.0198066 Eh/α   predicted    -0.5700343E-03 (-100.53%)
   displ. norm   :     0.5241751 α      lambda       -0.6541443E-03
   maximum displ.:     0.3837124 α      in ANC's #78, #80, #20, ...

........................................................................
.............................. CYCLE  117 ..............................
........................................................................
     iter. time                 ...        0 min,  0.018 sec
 * total energy  :   -34.5533060 Eh     change        0.2224080E+01 Eh
   gradient norm :     0.0097052 Eh/α   predicted    -0.4326380E-03 (-100.02%)
   displ. norm   :     0.8718000 α      lambda       -0.6288143E-03
   maximum displ.:     0.6434132 α      in ANC's #78, #80, #20, ...

........................................................................
.............................. CYCLE  118 ..............................
........................................................................
     iter. time                 ...        0 min,  0.019 sec
 * total energy  :   -30.3712312 Eh     change        0.4182075E+01 Eh
   gradient norm :     0.0051654 Eh/α   predicted    -0.5912117E-03 (-100.01%)
   displ. norm   :     0.8921000 α      lambda       -0.8951517E-03
   maximum displ.:     0.6585217 α      in ANC's #78, #80, #20, ...

........................................................................
.............................. CYCLE  119 ..............................
........................................................................
     iter. time                 ...        0 min,  0.019 sec
 * total energy  :   -22.4311953 Eh     change        0.7940036E+01 Eh
   gradient norm :     0.0082195 Eh/α   predicted    -0.8598709E-03 (-100.01%)
   displ. norm   :     0.8915614 α      lambda       -0.1253324E-02
   maximum displ.:     0.6580387 α      in ANC's #78, #80, #20, ...

........................................................................
.............................. CYCLE  120 ..............................
........................................................................
     iter. time                 ...        0 min,  0.019 sec
 * total energy  :    -9.7560255 Eh     change        0.1267517E+02 Eh
   gradient norm :     0.0214757 Eh/α   predicted    -0.1203082E-02 (-100.01%)
   displ. norm   :     0.9246974 α      lambda       -0.1312638E-02
   maximum displ.:     0.6825809 α      in ANC's #78, #80, #20, ...
 * RMSD in coord.:     0.4204086 α      energy gain   0.3045312E+02 Eh

generating ANC from exact Hessian ...
Using GFN-FF Lindh-Hessian
 Shifting diagonal of input Hessian by    1.0182400697556415E-002
 Lowest  eigenvalues of input Hessian
    0.010000    0.010099    0.010156    0.010165    0.010172    0.010173
    0.010174    0.000000    0.000000    0.000000    0.000000    0.000000
    0.010190    0.010193    0.000000    0.010195    0.010197    0.010197
 Highest eigenvalues
   27.355385   28.179633   29.497650   35.726766   51.463338  108.931948


........................................................................
.............................. CYCLE  121 ..............................
........................................................................
     iter. time                 ...        0 min,  0.019 sec
 * total energy  :     0.9911507 Eh     change        0.1074718E+02 Eh
   gradient norm :     0.1070293 Eh/α   predicted     0.0000000E+00 (-100.00%)
   displ. norm   :     0.0357117 α      lambda       -0.3820040E-02
   maximum displ.:     0.0311671 α      in ANC's #47, #45, #61, ...

........................................................................
.............................. CYCLE  122 ..............................
........................................................................
     iter. time                 ...        0 min,  0.019 sec
 * total energy  :     0.9914990 Eh     change        0.3482573E-03 Eh
   gradient norm :     0.0681374 Eh/α   predicted    -0.1913386E-02 (-649.42%)
   displ. norm   :     0.0634732 α      lambda       -0.4324116E-02
   maximum displ.:     0.0505139 α      in ANC's #47, #45, #61, ...

........................................................................
.............................. CYCLE  123 ..............................
........................................................................
     iter. time                 ...        0 min,  0.019 sec
 * total energy  :     0.9983699 Eh     change        0.6870939E-02 Eh
   gradient norm :     0.0138742 Eh/α   predicted    -0.2171185E-02 (-131.60%)
   displ. norm   :     0.0078332 α      lambda       -0.7844254E-04
   maximum displ.:     0.0073432 α      in ANC's #45, #47, #61, ...

........................................................................
.............................. CYCLE  124 ..............................
........................................................................
     iter. time                 ...        0 min,  0.019 sec
 * total energy  :     1.0026566 Eh     change        0.4286691E-02 Eh
   gradient norm :     0.0086608 Eh/α   predicted    -0.4578189E-04 (-101.07%)
   displ. norm   :     0.0060730 α      lambda       -0.4728221E-04
   maximum displ.:     0.0056919 α      in ANC's #45, #47, #61, ...

........................................................................
.............................. CYCLE  125 ..............................
........................................................................
     iter. time                 ...        0 min,  0.019 sec
 * total energy  :     1.0094288 Eh     change        0.6772181E-02 Eh
   gradient norm :     0.0042744 Eh/α   predicted    -0.2375565E-04 (-100.35%)
   displ. norm   :     0.0023918 α      lambda       -0.8749776E-05
   maximum displ.:     0.0016802 α      in ANC's #47, #45, #61, ...

........................................................................
.............................. CYCLE  126 ..............................
........................................................................
     iter. time                 ...        0 min,  0.019 sec
 * total energy  :     1.0148426 Eh     change        0.5413823E-02 Eh
   gradient norm :     0.0036747 Eh/α   predicted    -0.4472735E-05 (-100.08%)
   displ. norm   :     0.0027067 α      lambda       -0.6658544E-05
   maximum displ.:     0.0016405 α      in ANC's #61, #47, #63, ...

........................................................................
.............................. CYCLE  127 ..............................
........................................................................
     iter. time                 ...        0 min,  0.019 sec
 * total energy  :     1.0238462 Eh     change        0.9003588E-02 Eh
   gradient norm :     0.0041941 Eh/α   predicted    -0.3861995E-05 (-100.04%)
   displ. norm   :     0.0067701 α      lambda       -0.1764122E-04
   maximum displ.:     0.0047552 α      in ANC's #61, #63, #47, ...

........................................................................
.............................. CYCLE  128 ..............................
........................................................................
     iter. time                 ...        0 min,  0.019 sec
 * total energy  :     1.0494908 Eh     change        0.2564463E-01 Eh
   gradient norm :     0.0060637 Eh/α   predicted    -0.8929305E-05 (-100.03%)
   displ. norm   :     0.0186536 α      lambda       -0.4584614E-04
   maximum displ.:     0.0137063 α      in ANC's #61, #63, #76, ...

........................................................................
.............................. CYCLE  129 ..............................
........................................................................
     iter. time                 ...        0 min,  0.019 sec
 * total energy  :     1.1193439 Eh     change        0.6985307E-01 Eh
   gradient norm :     0.0099234 Eh/α   predicted    -0.2307013E-04 (-100.03%)
   displ. norm   :     0.0471468 α      lambda       -0.1089215E-03
   maximum displ.:     0.0352013 α      in ANC's #61, #63, #76, ...

........................................................................
.............................. CYCLE  130 ..............................
........................................................................
     iter. time                 ...        0 min,  0.019 sec
 * total energy  :     1.2708439 Eh     change        0.1515000E+00 Eh
   gradient norm :     0.0158061 Eh/α   predicted    -0.5529276E-04 (-100.04%)
   displ. norm   :     0.1074963 α      lambda       -0.2425067E-03
   maximum displ.:     0.0808359 α      in ANC's #61, #63, #76, ...

........................................................................
.............................. CYCLE  131 ..............................
........................................................................
     iter. time                 ...        0 min,  0.019 sec
 * total energy  :     1.4614473 Eh     change        0.1906034E+00 Eh
   gradient norm :     0.0227742 Eh/α   predicted    -0.1226773E-03 (-100.06%)
   displ. norm   :     0.1986918 α      lambda       -0.4402336E-03
   maximum displ.:     0.1500752 α      in ANC's #61, #63, #76, ...

........................................................................
.............................. CYCLE  132 ..............................
........................................................................
     iter. time                 ...        0 min,  0.019 sec
 * total energy  :     1.2323924 Eh     change       -0.2290549E+00 Eh
   gradient norm :     0.0271965 Eh/α   predicted    -0.2289088E-03 ( -99.90%)
   displ. norm   :     0.2654058 α      lambda       -0.5957394E-03
   maximum displ.:     0.2012743 α      in ANC's #61, #63, #76, ...

........................................................................
.............................. CYCLE  133 ..............................
........................................................................
     iter. time                 ...        0 min,  0.019 sec
 * total energy  :    -0.0690069 Eh     change       -0.1301399E+01 Eh
   gradient norm :     0.0248301 Eh/α   predicted    -0.3189266E-03 ( -99.98%)
   displ. norm   :     0.2407241 α      lambda       -0.5597649E-03
   maximum displ.:     0.1834688 α      in ANC's #61, #63, #76, ...

........................................................................
.............................. CYCLE  134 ..............................
........................................................................
     iter. time                 ...        0 min,  0.019 sec
 * total energy  :    -1.8541910 Eh     change       -0.1785184E+01 Eh
   gradient norm :     0.0198922 Eh/α   predicted    -0.2961332E-03 ( -99.98%)
   displ. norm   :     0.1708343 α      lambda       -0.4213231E-03
   maximum displ.:     0.1309217 α      in ANC's #61, #63, #76, ...

........................................................................
.............................. CYCLE  135 ..............................
........................................................................
     iter. time                 ...        0 min,  0.019 sec
 * total energy  :    -3.2753006 Eh     change       -0.1421110E+01 Eh
   gradient norm :     0.0208781 Eh/α   predicted    -0.2169675E-03 ( -99.98%)
   displ. norm   :     0.1581231 α      lambda       -0.4300200E-03
   maximum displ.:     0.1214988 α      in ANC's #61, #63, #76, ...

........................................................................
.............................. CYCLE  136 ..............................
........................................................................
     iter. time                 ...        0 min,  0.019 sec
 * total energy  :    -4.6216208 Eh     change       -0.1346320E+01 Eh
   gradient norm :     0.0239769 Eh/α   predicted    -0.2204095E-03 ( -99.98%)
   displ. norm   :     0.1700018 α      lambda       -0.4877880E-03
   maximum displ.:     0.1306337 α      in ANC's #61, #63, #76, ...

........................................................................
.............................. CYCLE  137 ..............................
........................................................................
     iter. time                 ...        0 min,  0.019 sec
 * total energy  :    -6.0494008 Eh     change       -0.1427780E+01 Eh
   gradient norm :     0.0224921 Eh/α   predicted    -0.2509556E-03 ( -99.98%)
   displ. norm   :     0.1201288 α      lambda       -0.3366727E-03
   maximum displ.:     0.0922863 α      in ANC's #61, #63, #76, ...

........................................................................
.............................. CYCLE  138 ..............................
........................................................................
     iter. time                 ...        0 min,  0.019 sec
 * total energy  :    -6.8066549 Eh     change       -0.7572542E+00 Eh
   gradient norm :     0.0223746 Eh/α   predicted    -0.1709074E-03 ( -99.98%)
   displ. norm   :     0.1891764 α      lambda       -0.1010801E-02
   maximum displ.:     0.1267112 α      in ANC's #61, #63, #1, ...

........................................................................
.............................. CYCLE  139 ..............................
........................................................................
     iter. time                 ...        0 min,  0.019 sec
 * total energy  :    -5.5040525 Eh     change        0.1302602E+01 Eh
   gradient norm :     0.0360268 Eh/α   predicted    -0.5235196E-03 (-100.04%)
   displ. norm   :     0.0702397 α      lambda       -0.1518964E-02
   maximum displ.:     0.0549202 α      in ANC's #1, #61, #57, ...

........................................................................
.............................. CYCLE  140 ..............................
........................................................................
     iter. time                 ...        0 min,  0.019 sec
 * total energy  :    -5.8610236 Eh     change       -0.3569711E+00 Eh
   gradient norm :     0.0122379 Eh/α   predicted    -0.7632935E-03 ( -99.79%)
   displ. norm   :     0.0473680 α      lambda       -0.9799739E-04
   maximum displ.:     0.0347114 α      in ANC's #61, #63, #76, ...

........................................................................
.............................. CYCLE  141 ..............................
........................................................................
     iter. time                 ...        0 min,  0.018 sec
 * total energy  :    -6.2443391 Eh     change       -0.3833155E+00 Eh
   gradient norm :     0.0102358 Eh/α   predicted    -0.4928902E-04 ( -99.99%)
   displ. norm   :     0.1089967 α      lambda       -0.1356404E-03
   maximum displ.:     0.0833034 α      in ANC's #61, #63, #76, ...

........................................................................
.............................. CYCLE  142 ..............................
........................................................................
     iter. time                 ...        0 min,  0.019 sec
 * total energy  :    -6.9204738 Eh     change       -0.6761347E+00 Eh
   gradient norm :     0.0167646 Eh/α   predicted    -0.6873364E-04 ( -99.99%)
   displ. norm   :     0.0320494 α      lambda       -0.1634884E-03
   maximum displ.:     0.0240773 α      in ANC's #61, #63, #57, ...

........................................................................
.............................. CYCLE  143 ..............................
........................................................................
     iter. time                 ...        0 min,  0.019 sec
 * total energy  :    -5.1572812 Eh     change        0.1763193E+01 Eh
   gradient norm :     0.4099304 Eh/α   predicted    -0.8186427E-04 (-100.00%)
   displ. norm   :     0.4831620 α      lambda       -0.1045793E+00
   maximum displ.:     0.3268088 α      in ANC's #61, #63, #76, ...

........................................................................
.............................. CYCLE  144 ..............................
........................................................................
     iter. time                 ...        0 min,  0.019 sec
 * total energy  :    -2.9519742 Eh     change        0.2205307E+01 Eh
   gradient norm :     0.0275378 Eh/α   predicted    -0.6449264E-01 (-102.92%)
   displ. norm   :     0.1307377 α      lambda       -0.8050654E-03
   maximum displ.:     0.1001311 α      in ANC's #61, #63, #76, ...

........................................................................
.............................. CYCLE  145 ..............................
........................................................................
     iter. time                 ...        0 min,  0.019 sec
 * total energy  :    -4.1281559 Eh     change       -0.1176182E+01 Eh
   gradient norm :     0.0102443 Eh/α   predicted    -0.4098975E-03 ( -99.97%)
   displ. norm   :     0.3501457 α      lambda       -0.9895830E-03
   maximum displ.:     0.2706203 α      in ANC's #61, #63, #76, ...

........................................................................
.............................. CYCLE  146 ..............................
........................................................................
     iter. time                 ...        0 min,  0.019 sec
 * total energy  :    -7.2947125 Eh     change       -0.3166557E+01 Eh
   gradient norm :     0.0132842 Eh/α   predicted    -0.5556602E-03 ( -99.98%)
   displ. norm   :     0.4919431 α      lambda       -0.9199951E-03
   maximum displ.:     0.3811110 α      in ANC's #61, #63, #76, ...

........................................................................
.............................. CYCLE  147 ..............................
........................................................................
     iter. time                 ...        0 min,  0.019 sec
 * total energy  :   -11.4961657 Eh     change       -0.4201453E+01 Eh
   gradient norm :     0.0243484 Eh/α   predicted    -0.5716432E-03 ( -99.99%)
   displ. norm   :     0.6374004 α      lambda       -0.1151785E-02
   maximum displ.:     0.4941748 α      in ANC's #61, #63, #76, ...

........................................................................
.............................. CYCLE  148 ..............................
........................................................................
     iter. time                 ...        0 min,  0.019 sec
 * total energy  :   -15.8463197 Eh     change       -0.4350154E+01 Eh
   gradient norm :     0.0250691 Eh/α   predicted    -0.8105316E-03 ( -99.98%)
   displ. norm   :     0.4867609 α      lambda       -0.8202100E-03
   maximum displ.:     0.3772038 α      in ANC's #61, #63, #76, ...

........................................................................
.............................. CYCLE  149 ..............................
........................................................................
     iter. time                 ...        0 min,  0.019 sec
 * total energy  :   -18.3743759 Eh     change       -0.2528056E+01 Eh
   gradient norm :     0.0133392 Eh/α   predicted    -0.5075125E-03 ( -99.98%)
   displ. norm   :     0.1102557 α      lambda       -0.1470553E-03
   maximum displ.:     0.0847377 α      in ANC's #61, #63, #76, ...

........................................................................
.............................. CYCLE  150 ..............................
........................................................................
     iter. time                 ...        0 min,  0.019 sec
 * total energy  :   -18.8494769 Eh     change       -0.4751010E+00 Eh
   gradient norm :     0.0046644 Eh/α   predicted    -0.7443857E-04 ( -99.98%)
   displ. norm   :     0.0092669 α      lambda       -0.9924933E-05
   maximum displ.:     0.0071207 α      in ANC's #61, #63, #76, ...
 * RMSD in coord.:     0.2127872 α      energy gain  -0.9093451E+01 Eh

generating ANC from exact Hessian ...
Using GFN-FF Lindh-Hessian
 Shifting diagonal of input Hessian by    1.0177002429859697E-002
 Lowest  eigenvalues of input Hessian
    0.010000    0.010093    0.010150    0.010160    0.010162    0.010167
    0.010167    0.010169    0.000000    0.000000    0.000000    0.000000
    0.000000    0.010185    0.010188    0.010189    0.010189    0.000000
 Highest eigenvalues
   14.719647   16.401997   51.310741   51.976317  120.544628  502.887079


........................................................................
.............................. CYCLE  151 ..............................
........................................................................
     iter. time                 ...        0 min,  0.019 sec
 * total energy  :   -18.8107115 Eh     change        0.3876543E-01 Eh
   gradient norm :     0.0280287 Eh/α   predicted     0.0000000E+00 (-100.00%)
   displ. norm   :     0.0100370 α      lambda       -0.2812609E-03
   maximum displ.:     0.0095746 α      in ANC's #36, #42, #30, ...

........................................................................
.............................. CYCLE  152 ..............................
........................................................................
     iter. time                 ...        0 min,  0.019 sec
 * total energy  :   -18.8105810 Eh     change        0.1304872E-03 Eh
   gradient norm :     0.0182323 Eh/α   predicted    -0.1406693E-03 (-207.80%)
   displ. norm   :     0.0187888 α      lambda       -0.3411283E-03
   maximum displ.:     0.0182212 α      in ANC's #36, #42, #30, ...

........................................................................
.............................. CYCLE  153 ..............................
........................................................................
     iter. time                 ...        0 min,  0.019 sec
 * total energy  :   -18.8097292 Eh     change        0.8518287E-03 Eh
   gradient norm :     0.0020993 Eh/α   predicted    -0.1713215E-03 (-120.11%)
   displ. norm   :     0.0007681 α      lambda       -0.9414929E-06
   maximum displ.:     0.0006239 α      in ANC's #42, #13, #36, ...

........................................................................
.............................. CYCLE  154 ..............................
........................................................................
     iter. time                 ...        0 min,  0.019 sec
 * total energy  :   -18.8093931 Eh     change        0.3361395E-03 Eh
   gradient norm :     0.0014050 Eh/α   predicted    -0.7893201E-06 (-100.23%)
   displ. norm   :     0.0026014 α      lambda       -0.2374925E-05
   maximum displ.:     0.0017659 α      in ANC's #13, #42, #36, ...

........................................................................
.............................. CYCLE  155 ..............................
........................................................................
     iter. time                 ...        0 min,  0.019 sec
 * total energy  :   -18.8077701 Eh     change        0.1622987E-02 Eh
   gradient norm :     0.0015821 Eh/α   predicted    -0.1208480E-05 (-100.07%)
   displ. norm   :     0.0006660 α      lambda       -0.5465554E-06
   maximum displ.:     0.0005629 α      in ANC's #13, #42, #36, ...

........................................................................
.............................. CYCLE  156 ..............................
........................................................................
     iter. time                 ...        0 min,  0.019 sec
 * total energy  :   -18.8072486 Eh     change        0.5214276E-03 Eh
   gradient norm :     0.0012587 Eh/α   predicted    -0.3223785E-06 (-100.06%)
   displ. norm   :     0.0086345 α      lambda       -0.5171853E-05
   maximum displ.:     0.0084238 α      in ANC's #13, #42, #36, ...

........................................................................
.............................. CYCLE  157 ..............................
........................................................................
     iter. time                 ...        0 min,  0.019 sec
 * total energy  :   -18.7992530 Eh     change        0.7995618E-02 Eh
   gradient norm :     0.0017871 Eh/α   predicted    -0.3096038E-05 (-100.04%)
   displ. norm   :     0.0206555 α      lambda       -0.9634104E-05
   maximum displ.:     0.0205496 α      in ANC's #13, #42, #36, ...

........................................................................
.............................. CYCLE  158 ..............................
........................................................................
     iter. time                 ...        0 min,  0.019 sec
 * total energy  :   -18.7779874 Eh     change        0.2126564E-01 Eh
   gradient norm :     0.0041604 Eh/α   predicted    -0.5321136E-05 (-100.03%)
   displ. norm   :     0.0513584 α      lambda       -0.3579546E-04
   maximum displ.:     0.0512700 α      in ANC's #13, #42, #45, ...

........................................................................
.............................. CYCLE  159 ..............................
........................................................................
     iter. time                 ...        0 min,  0.019 sec
 * total energy  :   -18.7123883 Eh     change        0.6559911E-01 Eh
   gradient norm :     0.0076386 Eh/α   predicted    -0.1798881E-04 (-100.03%)
   displ. norm   :     0.1896011 α      lambda       -0.1193938E-03
   maximum displ.:     0.1894122 α      in ANC's #13, #42, #45, ...

........................................................................
.............................. CYCLE  160 ..............................
........................................................................
     iter. time                 ...        0 min,  0.019 sec
 * total energy  :   -18.2087551 Eh     change        0.5036332E+00 Eh
   gradient norm :     0.0168772 Eh/α   predicted    -0.6228106E-04 (-100.01%)
   displ. norm   :     0.2612424 α      lambda       -0.1448621E-03
   maximum displ.:     0.2610988 α      in ANC's #13, #45, #42, ...

........................................................................
.............................. CYCLE  161 ..............................
........................................................................
     iter. time                 ...        0 min,  0.019 sec
 * total energy  :   -15.5618412 Eh     change        0.2646914E+01 Eh
   gradient norm :     0.0248598 Eh/α   predicted    -0.7812569E-04 (-100.00%)
   displ. norm   :     0.0894695 α      lambda       -0.1314744E-03
   maximum displ.:     0.0894261 α      in ANC's #13, #45, #42, ...

........................................................................
.............................. CYCLE  162 ..............................
........................................................................
     iter. time                 ...        0 min,  0.019 sec
 * total energy  :   -13.2669481 Eh     change        0.2294893E+01 Eh
   gradient norm :     0.0230863 Eh/α   predicted    -0.6586080E-04 (-100.00%)
   displ. norm   :     0.1043088 α      lambda       -0.1358632E-03
   maximum displ.:     0.1042692 α      in ANC's #13, #45, #42, ...

........................................................................
.............................. CYCLE  163 ..............................
........................................................................
     iter. time                 ...        0 min,  0.019 sec
 * total energy  :    -8.2111774 Eh     change        0.5055771E+01 Eh
   gradient norm :     0.0219532 Eh/α   predicted    -0.6824343E-04 (-100.00%)
   displ. norm   :     0.1180350 α      lambda       -0.1468297E-03
   maximum displ.:     0.1179958 α      in ANC's #13, #45, #56, ...

........................................................................
.............................. CYCLE  164 ..............................
........................................................................
     iter. time                 ...        0 min,  0.019 sec
 * total energy  :     6.0146450 Eh     change        0.1422582E+02 Eh
   gradient norm :     0.0212521 Eh/α   predicted    -0.7388763E-04 (-100.00%)
   displ. norm   :     0.1316954 α      lambda       -0.1634551E-03
   maximum displ.:     0.1316536 α      in ANC's #13, #45, #56, ...

........................................................................
.............................. CYCLE  165 ..............................
........................................................................
     iter. time                 ...        0 min,  0.018 sec
 * total energy  :   117.3010820 Eh     change        0.1112864E+03 Eh
   gradient norm :     0.0174159 Eh/α   predicted    -0.8242174E-04 (-100.00%)
   displ. norm   :     0.1738826 α      lambda       -0.2999937E-03
   maximum displ.:     0.1735850 α      in ANC's #13, #36, #42, ...

........................................................................
.............................. CYCLE  166 ..............................
........................................................................
     iter. time                 ...        0 min,  0.019 sec
 * total energy  :     7.7666923 Eh     change       -0.1095344E+03 Eh
   gradient norm :     0.0187887 Eh/α   predicted    -0.1529714E-03 (-100.00%)
   displ. norm   :     0.4080053 α      lambda       -0.5067022E-03
   maximum displ.:     0.4075997 α      in ANC's #13, #36, #45, ...

........................................................................
.............................. CYCLE  167 ..............................
........................................................................
     iter. time                 ...        0 min,  0.019 sec
 * total energy  :   -17.1157502 Eh     change       -0.2488244E+02 Eh
   gradient norm :     0.0231249 Eh/α   predicted    -0.2888563E-03 (-100.00%)
   displ. norm   :     0.3315351 α      lambda       -0.3582970E-03
   maximum displ.:     0.3313383 α      in ANC's #13, #45, #36, ...

........................................................................
.............................. CYCLE  168 ..............................
........................................................................
     iter. time                 ...        0 min,  0.019 sec
 * total energy  :   -18.9327682 Eh     change       -0.1817018E+01 Eh
   gradient norm :     0.0284830 Eh/α   predicted    -0.1971636E-03 ( -99.99%)
   displ. norm   :     0.1848308 α      lambda       -0.2720423E-03
   maximum displ.:     0.1847609 α      in ANC's #13, #45, #30, ...

........................................................................
.............................. CYCLE  169 ..............................
........................................................................
     iter. time                 ...        0 min,  0.019 sec
 * total energy  :   -19.1327729 Eh     change       -0.2000047E+00 Eh
   gradient norm :     0.0286412 Eh/α   predicted    -0.1411311E-03 ( -99.93%)
   displ. norm   :     0.1922572 α      lambda       -0.2913637E-03
   maximum displ.:     0.1921917 α      in ANC's #13, #45, #56, ...

........................................................................
.............................. CYCLE  170 ..............................
........................................................................
     iter. time                 ...        0 min,  0.018 sec
 * total energy  :   -19.1866994 Eh     change       -0.5392656E-01 Eh
   gradient norm :     0.0289892 Eh/α   predicted    -0.1513114E-03 ( -99.72%)
   displ. norm   :     0.2017421 α      lambda       -0.3137839E-03
   maximum displ.:     0.2016743 α      in ANC's #13, #45, #56, ...

........................................................................
.............................. CYCLE  171 ..............................
........................................................................
     iter. time                 ...        0 min,  0.018 sec
 * total energy  :   -19.1702263 Eh     change        0.1647312E-01 Eh
   gradient norm :     0.0294697 Eh/α   predicted    -0.1635048E-03 (-100.99%)
   displ. norm   :     0.2074041 α      lambda       -0.3333433E-03
   maximum displ.:     0.2073355 α      in ANC's #13, #45, #56, ...

........................................................................
.............................. CYCLE  172 ..............................
........................................................................
     iter. time                 ...        0 min,  0.019 sec
 * total energy  :   -19.1039829 Eh     change        0.6624335E-01 Eh
   gradient norm :     0.0299665 Eh/α   predicted    -0.1740708E-03 (-100.26%)
   displ. norm   :     0.2088251 α      lambda       -0.3399510E-03
   maximum displ.:     0.2087563 α      in ANC's #13, #45, #56, ...

........................................................................
.............................. CYCLE  173 ..............................
........................................................................
     iter. time                 ...        0 min,  0.019 sec
 * total energy  :   -18.9881325 Eh     change        0.1158504E+00 Eh
   gradient norm :     0.0304307 Eh/α   predicted    -0.1775995E-03 (-100.15%)
   displ. norm   :     0.1869938 α      lambda       -0.4263146E-03
   maximum displ.:     0.1868874 α      in ANC's #13, #45, #36, ...

........................................................................
.............................. CYCLE  174 ..............................
........................................................................
     iter. time                 ...        0 min,  0.019 sec
 * total energy  :   -18.8496984 Eh     change        0.1384342E+00 Eh
   gradient norm :     0.0266403 Eh/α   predicted    -0.2209038E-03 (-100.16%)
   displ. norm   :     0.2741779 α      lambda       -0.6541595E-03
   maximum displ.:     0.2739222 α      in ANC's #13, #36, #45, ...

........................................................................
.............................. CYCLE  175 ..............................
........................................................................
     iter. time                 ...        0 min,  0.019 sec
 * total energy  :   -18.6031166 Eh     change        0.2465818E+00 Eh
   gradient norm :     0.0187833 Eh/α   predicted    -0.3522595E-03 (-100.14%)
   displ. norm   :     0.3490829 α      lambda       -0.6615528E-03
   maximum displ.:     0.3487532 α      in ANC's #13, #36, #45, ...

........................................................................
.............................. CYCLE  176 ..............................
........................................................................
     iter. time                 ...        0 min,  0.019 sec
 * total energy  :   -18.2058009 Eh     change        0.3973157E+00 Eh
   gradient norm :     0.0119764 Eh/α   predicted    -0.3718653E-03 (-100.09%)
   displ. norm   :     0.2901404 α      lambda       -0.3389916E-03
   maximum displ.:     0.2899165 α      in ANC's #13, #36, #45, ...

........................................................................
.............................. CYCLE  177 ..............................
........................................................................
     iter. time                 ...        0 min,  0.019 sec
 * total energy  :   -17.8448722 Eh     change        0.3609287E+00 Eh
   gradient norm :     0.0110482 Eh/α   predicted    -0.1840254E-03 (-100.05%)
   displ. norm   :     0.1546494 α      lambda       -0.1090302E-03
   maximum displ.:     0.1545543 α      in ANC's #13, #45, #36, ...

........................................................................
.............................. CYCLE  178 ..............................
........................................................................
     iter. time                 ...        0 min,  0.019 sec
 * total energy  :   -17.6717896 Eh     change        0.1730825E+00 Eh
   gradient norm :     0.0097750 Eh/α   predicted    -0.5586393E-04 (-100.03%)
   displ. norm   :     0.0985895 α      lambda       -0.6093243E-04
   maximum displ.:     0.0985041 α      in ANC's #13, #42, #45, ...

........................................................................
.............................. CYCLE  179 ..............................
........................................................................
     iter. time                 ...        0 min,  0.019 sec
 * total energy  :   -17.5783614 Eh     change        0.9342828E-01 Eh
   gradient norm :     0.0066915 Eh/α   predicted    -0.3082325E-04 (-100.03%)
   displ. norm   :     0.0807535 α      lambda       -0.3826124E-04
   maximum displ.:     0.0806358 α      in ANC's #13, #42, #45, ...

........................................................................
.............................. CYCLE  180 ..............................
........................................................................
     iter. time                 ...        0 min,  0.019 sec
 * total energy  :   -17.5151182 Eh     change        0.6324320E-01 Eh
   gradient norm :     0.0030557 Eh/α   predicted    -0.1934801E-04 (-100.03%)
   displ. norm   :     0.0224826 α      lambda       -0.4950603E-05
   maximum displ.:     0.0224155 α      in ANC's #13, #42, #36, ...

........................................................................
.............................. CYCLE  181 ..............................
........................................................................
     iter. time                 ...        0 min,  0.019 sec
 * total energy  :   -17.4999393 Eh     change        0.1517892E-01 Eh
   gradient norm :     0.0021288 Eh/α   predicted    -0.2546984E-05 (-100.02%)
   displ. norm   :     0.0013891 α      lambda       -0.8877743E-06
   maximum displ.:     0.0012159 α      in ANC's #13, #36, #42, ...

........................................................................
.............................. CYCLE  182 ..............................
........................................................................
     iter. time                 ...        0 min,  0.018 sec
 * total energy  :   -17.4991373 Eh     change        0.8019750E-03 Eh
   gradient norm :     0.0018005 Eh/α   predicted    -0.5071736E-06 (-100.06%)
   displ. norm   :     0.0018363 α      lambda       -0.1055746E-05
   maximum displ.:     0.0013505 α      in ANC's #36, #13, #30, ...

........................................................................
.............................. CYCLE  183 ..............................
........................................................................
     iter. time                 ...        0 min,  0.019 sec
 * total energy  :   -17.4997375 Eh     change       -0.6002269E-03 Eh
   gradient norm :     0.0013649 Eh/α   predicted    -0.5735407E-06 ( -99.90%)
   displ. norm   :     0.0005461 α      lambda       -0.2605614E-06
   maximum displ.:     0.0003922 α      in ANC's #42, #13, #30, ...
 * RMSD in coord.:     0.2791365 α      energy gain   0.1349739E+01 Eh

generating ANC from exact Hessian ...
Using GFN-FF Lindh-Hessian
 Shifting diagonal of input Hessian by    1.0181247552868457E-002
 Lowest  eigenvalues of input Hessian
    0.010000    0.010092    0.010158    0.010159    0.010165    0.010169
    0.010172    0.010173    0.000000    0.000000    0.000000    0.000000
    0.000000    0.010188    0.010191    0.010192    0.010193    0.010195
 Highest eigenvalues
   14.423007   16.377237   51.591810   64.968923  121.188889  485.742540


........................................................................
.............................. CYCLE  184 ..............................
........................................................................
     iter. time                 ...        0 min,  0.019 sec
 * total energy  :   -17.4998582 Eh     change       -0.1206677E-03 Eh
   gradient norm :     0.0065673 Eh/α   predicted     0.0000000E+00 (-100.00%)
   displ. norm   :     0.0023349 α      lambda       -0.1518968E-04
   maximum displ.:     0.0020281 α      in ANC's #31, #55, #35, ...

........................................................................
.............................. CYCLE  185 ..............................
........................................................................
     iter. time                 ...        0 min,  0.019 sec
 * total energy  :   -17.5010590 Eh     change       -0.1200781E-02 Eh
   gradient norm :     0.0048171 Eh/α   predicted    -0.7653345E-05 ( -99.36%)
   displ. norm   :     0.0063239 α      lambda       -0.3017180E-04
   maximum displ.:     0.0049881 α      in ANC's #31, #55, #35, ...

........................................................................
.............................. CYCLE  186 ..............................
........................................................................
     iter. time                 ...        0 min,  0.018 sec
 * total energy  :   -17.5054504 Eh     change       -0.4391488E-02 Eh
   gradient norm :     0.0033472 Eh/α   predicted    -0.1515261E-04 ( -99.65%)
   displ. norm   :     0.0019013 α      lambda       -0.4451322E-05
   maximum displ.:     0.0018082 α      in ANC's #55, #31, #69, ...

........................................................................
.............................. CYCLE  187 ..............................
........................................................................
     iter. time                 ...        0 min,  0.019 sec
 * total energy  :   -17.5076716 Eh     change       -0.2221155E-02 Eh
   gradient norm :     0.0035291 Eh/α   predicted    -0.2252798E-05 ( -99.90%)
   displ. norm   :     0.0172923 α      lambda       -0.4391465E-04
   maximum displ.:     0.0171608 α      in ANC's #55, #31, #69, ...

........................................................................
.............................. CYCLE  188 ..............................
........................................................................
     iter. time                 ...        0 min,  0.019 sec
 * total energy  :   -17.5299089 Eh     change       -0.2223733E-01 Eh
   gradient norm :     0.0047173 Eh/α   predicted    -0.2215795E-04 ( -99.90%)
   displ. norm   :     0.0112015 α      lambda       -0.1997878E-04
   maximum displ.:     0.0111146 α      in ANC's #55, #31, #69, ...

........................................................................
.............................. CYCLE  189 ..............................
........................................................................
     iter. time                 ...        0 min,  0.019 sec
 * total energy  :   -17.5457513 Eh     change       -0.1584234E-01 Eh
   gradient norm :     0.0038493 Eh/α   predicted    -0.1018760E-04 ( -99.94%)
   displ. norm   :     0.0069106 α      lambda       -0.1093291E-04
   maximum displ.:     0.0062841 α      in ANC's #55, #31, #69, ...

........................................................................
.............................. CYCLE  190 ..............................
........................................................................
     iter. time                 ...        0 min,  0.019 sec
 * total energy  :   -17.5560946 Eh     change       -0.1034330E-01 Eh
   gradient norm :     0.0017454 Eh/α   predicted    -0.6457928E-05 ( -99.94%)
   displ. norm   :     0.0021227 α      lambda       -0.1707869E-05
   maximum displ.:     0.0017067 α      in ANC's #31, #55, #35, ...

........................................................................
.............................. CYCLE  191 ..............................
........................................................................
     iter. time                 ...        0 min,  0.019 sec
 * total energy  :   -17.5571357 Eh     change       -0.1041121E-02 Eh
   gradient norm :     0.0009311 Eh/α   predicted    -0.1029508E-05 ( -99.90%)
   displ. norm   :     0.0008248 α      lambda       -0.7222843E-07
   maximum displ.:     0.0006955 α      in ANC's #55, #31, #69, ...

........................................................................
.............................. CYCLE  192 ..............................
........................................................................
     iter. time                 ...        0 min,  0.019 sec
 * total energy  :   -17.5579949 Eh     change       -0.8591687E-03 Eh
   gradient norm :     0.0007048 Eh/α   predicted    -0.1531486E-06 ( -99.98%)
   displ. norm   :     0.0009747 α      lambda       -0.3717240E-06
   maximum displ.:     0.0007748 α      in ANC's #69, #31, #35, ...

........................................................................
.............................. CYCLE  193 ..............................
........................................................................
     iter. time                 ...        0 min,  0.019 sec
 * total energy  :   -17.5638337 Eh     change       -0.5838854E-02 Eh
   gradient norm :     0.0007685 Eh/α   predicted    -0.2136823E-06 (-100.00%)
   displ. norm   :     0.0015682 α      lambda       -0.4781748E-06
   maximum displ.:     0.0014911 α      in ANC's #69, #31, #35, ...

........................................................................
.............................. CYCLE  194 ..............................
........................................................................
     iter. time                 ...        0 min,  0.019 sec
 * total energy  :   -17.5754780 Eh     change       -0.1164426E-01 Eh
   gradient norm :     0.0011220 Eh/α   predicted    -0.2688931E-06 (-100.00%)
   displ. norm   :     0.0071464 α      lambda       -0.2270832E-05
   maximum displ.:     0.0068192 α      in ANC's #69, #55, #31, ...

........................................................................
.............................. CYCLE  195 ..............................
........................................................................
     iter. time                 ...        0 min,  0.019 sec
 * total energy  :   -17.6286240 Eh     change       -0.5314604E-01 Eh
   gradient norm :     0.0023713 Eh/α   predicted    -0.1170922E-05 (-100.00%)
   displ. norm   :     0.0114188 α      lambda       -0.4966816E-05
   maximum displ.:     0.0108426 α      in ANC's #69, #55, #35, ...

........................................................................
.............................. CYCLE  196 ..............................
........................................................................
     iter. time                 ...        0 min,  0.019 sec
 * total energy  :   -17.7098027 Eh     change       -0.8117869E-01 Eh
   gradient norm :     0.0036136 Eh/α   predicted    -0.2518052E-05 (-100.00%)
   displ. norm   :     0.0501285 α      lambda       -0.2121838E-04
   maximum displ.:     0.0474561 α      in ANC's #69, #55, #35, ...

........................................................................
.............................. CYCLE  197 ..............................
........................................................................
     iter. time                 ...        0 min,  0.019 sec
 * total energy  :   -18.0146620 Eh     change       -0.3048593E+00 Eh
   gradient norm :     0.0077111 Eh/α   predicted    -0.1064886E-04 (-100.00%)
   displ. norm   :     0.0618894 α      lambda       -0.2332404E-04
   maximum displ.:     0.0583675 α      in ANC's #69, #55, #35, ...

........................................................................
.............................. CYCLE  198 ..............................
........................................................................
     iter. time                 ...        0 min,  0.019 sec
 * total energy  :   -18.2958678 Eh     change       -0.2812057E+00 Eh
   gradient norm :     0.0109431 Eh/α   predicted    -0.1173491E-04 (-100.00%)
   displ. norm   :     0.2142407 α      lambda       -0.9134017E-04
   maximum displ.:     0.2016815 α      in ANC's #69, #55, #60, ...

........................................................................
.............................. CYCLE  199 ..............................
........................................................................
     iter. time                 ...        0 min,  0.019 sec
 * total energy  :   -18.7789083 Eh     change       -0.4830406E+00 Eh
   gradient norm :     0.0183612 Eh/α   predicted    -0.4778192E-04 ( -99.99%)
   displ. norm   :     0.3765069 α      lambda       -0.1739253E-03
   maximum displ.:     0.3540981 α      in ANC's #69, #55, #60, ...

........................................................................
.............................. CYCLE  200 ..............................
........................................................................
     iter. time                 ...        0 min,  0.019 sec
 * total energy  :   -18.9096239 Eh     change       -0.1307155E+00 Eh
   gradient norm :     0.0260836 Eh/α   predicted    -0.9986311E-04 ( -99.92%)
   displ. norm   :     0.6240142 α      lambda       -0.3817875E-03
   maximum displ.:     0.5864888 α      in ANC's #69, #55, #60, ...

........................................................................
.............................. CYCLE  201 ..............................
........................................................................
     iter. time                 ...        0 min,  0.018 sec
 * total energy  :   -18.6812829 Eh     change        0.2283410E+00 Eh
   gradient norm :     0.0318078 Eh/α   predicted    -0.2661804E-03 (-100.12%)
   displ. norm   :     0.5961629 α      lambda       -0.4523053E-03
   maximum displ.:     0.5583717 α      in ANC's #69, #55, #60, ...

........................................................................
.............................. CYCLE  202 ..............................
........................................................................
     iter. time                 ...        0 min,  0.019 sec
 * total energy  :   -18.2749361 Eh     change        0.4063468E+00 Eh
   gradient norm :     0.0389923 Eh/α   predicted    -0.3067029E-03 (-100.08%)
   displ. norm   :     0.8180645 α      lambda       -0.9515370E-03
   maximum displ.:     0.7635412 α      in ANC's #69, #55, #60, ...

........................................................................
.............................. CYCLE  203 ..............................
........................................................................
     iter. time                 ...        0 min,  0.019 sec
 * total energy  :   -17.5988675 Eh     change        0.6760687E+00 Eh
   gradient norm :     0.0571738 Eh/α   predicted    -0.7950524E-03 (-100.12%)
   displ. norm   :     0.5355446 α      lambda       -0.5226221E-02
   maximum displ.:     0.4688275 α      in ANC's #69, #35, #55, ...

........................................................................
.............................. CYCLE  204 ..............................
........................................................................
     iter. time                 ...        0 min,  0.019 sec
 * total energy  :   -17.9959170 Eh     change       -0.3970495E+00 Eh
   gradient norm :     0.2590518 Eh/α   predicted    -0.3362066E-02 ( -99.15%)
   displ. norm   :     0.1856117 α      lambda       -0.4636545E-01
   maximum displ.:     0.1334811 α      in ANC's #35, #31, #55, ...

........................................................................
.............................. CYCLE  205 ..............................
........................................................................
     iter. time                 ...        0 min,  0.019 sec
 * total energy  :   -18.0245636 Eh     change       -0.2864667E-01 Eh
   gradient norm :     0.0293167 Eh/α   predicted    -0.2401102E-01 ( -16.18%)
   displ. norm   :     0.4574576 α      lambda        0.1075931E-04
   maximum displ.:     0.4424814 α      in ANC's #69, #55, #60, ...

........................................................................
.............................. CYCLE  206 ..............................
........................................................................
     iter. time                 ...        0 min,  0.019 sec
 * total energy  :   -17.6420784 Eh     change        0.3824852E+00 Eh
   gradient norm :     0.0398336 Eh/α   predicted    -0.1723453E-03 (-100.05%)
   displ. norm   :     0.3090480 α      lambda       -0.5640573E-03
   maximum displ.:     0.3059002 α      in ANC's #69, #55, #60, ...

........................................................................
.............................. CYCLE  207 ..............................
........................................................................
     iter. time                 ...        0 min,  0.019 sec
 * total energy  :   -17.3667992 Eh     change        0.2752792E+00 Eh
   gradient norm :     0.0428704 Eh/α   predicted    -0.3091408E-03 (-100.11%)
   displ. norm   :     0.7855708 α      lambda       -0.2274729E-02
   maximum displ.:     0.7785879 α      in ANC's #69, #55, #31, ...

........................................................................
.............................. CYCLE  208 ..............................
........................................................................
     iter. time                 ...        0 min,  0.019 sec
 * total energy  :   -16.6767741 Eh     change        0.6900251E+00 Eh
   gradient norm :     0.0703309 Eh/α   predicted    -0.1905222E-02 (-100.28%)
   displ. norm   :     0.4072538 α      lambda       -0.1181878E-02
   maximum displ.:     0.3934335 α      in ANC's #69, #55, #31, ...

........................................................................
.............................. CYCLE  209 ..............................
........................................................................
     iter. time                 ...        0 min,  0.019 sec
 * total energy  :   -16.4085363 Eh     change        0.2682377E+00 Eh
   gradient norm :     0.0682895 Eh/α   predicted    -0.6912149E-03 (-100.26%)
   displ. norm   :     0.0879097 α      lambda       -0.8353853E-03
   maximum displ.:     0.0857545 α      in ANC's #69, #39, #55, ...

........................................................................
.............................. CYCLE  210 ..............................
........................................................................
     iter. time                 ...        0 min,  0.019 sec
 * total energy  :   -16.4578229 Eh     change       -0.4928652E-01 Eh
   gradient norm :     0.0471902 Eh/α   predicted    -0.4222411E-03 ( -99.14%)
   displ. norm   :     0.0266168 α      lambda       -0.6389881E-03
   maximum displ.:     0.0170060 α      in ANC's #39, #55, #31, ...

........................................................................
.............................. CYCLE  211 ..............................
........................................................................
     iter. time                 ...        0 min,  0.019 sec
 * total energy  :   -16.4580097 Eh     change       -0.1868526E-03 Eh
   gradient norm :     0.0482611 Eh/α   predicted    -0.3200005E-03 (  71.26%)
   displ. norm   :     0.8735997 α      lambda       -0.4683794E-03
   maximum displ.:     0.8618432 α      in ANC's #69, #55, #60, ...

........................................................................
.............................. CYCLE  212 ..............................
........................................................................
     iter. time                 ...        0 min,  0.019 sec
 * total energy  :   -17.1615488 Eh     change       -0.7035391E+00 Eh
   gradient norm :     0.0682179 Eh/α   predicted    -0.4550243E-03 ( -99.94%)
   displ. norm   :     0.0568635 α      lambda       -0.9820332E-03
   maximum displ.:     0.0409975 α      in ANC's #69, #31, #55, ...

........................................................................
.............................. CYCLE  213 ..............................
........................................................................
     iter. time                 ...        0 min,  0.018 sec
 * total energy  :   -17.1189894 Eh     change        0.4255942E-01 Eh
   gradient norm :     0.0537839 Eh/α   predicted    -0.4976222E-03 (-101.17%)
   displ. norm   :     0.1610713 α      lambda       -0.1542645E-02
   maximum displ.:     0.1513015 α      in ANC's #69, #55, #39, ...

........................................................................
.............................. CYCLE  214 ..............................
........................................................................
     iter. time                 ...        0 min,  0.018 sec
 * total energy  :   -17.2702352 Eh     change       -0.1512458E+00 Eh
   gradient norm :     0.0390208 Eh/α   predicted    -0.7943689E-03 ( -99.47%)
   displ. norm   :     0.3602992 α      lambda       -0.7146513E-03
   maximum displ.:     0.3565709 α      in ANC's #69, #55, #28, ...

........................................................................
.............................. CYCLE  215 ..............................
........................................................................
     iter. time                 ...        0 min,  0.019 sec
 * total energy  :   -16.9385627 Eh     change        0.3316726E+00 Eh
   gradient norm :     0.0442923 Eh/α   predicted    -0.4028581E-03 (-100.12%)
   displ. norm   :     0.5296162 α      lambda       -0.4777168E-03
   maximum displ.:     0.5236585 α      in ANC's #69, #55, #60, ...

........................................................................
.............................. CYCLE  216 ..............................
........................................................................
     iter. time                 ...        0 min,  0.019 sec
 * total energy  :   -16.5188340 Eh     change        0.4197287E+00 Eh
   gradient norm :     0.0641205 Eh/α   predicted    -0.3033083E-03 (-100.07%)
   displ. norm   :     0.1531851 α      lambda       -0.4666808E-02
   maximum displ.:     0.0888267 α      in ANC's #55, #69, #39, ...

........................................................................
.............................. CYCLE  217 ..............................
........................................................................
     iter. time                 ...        0 min,  0.019 sec
 * total energy  :   -16.4747645 Eh     change        0.4406943E-01 Eh
   gradient norm :     0.1169048 Eh/α   predicted    -0.2407138E-02 (-105.46%)
   displ. norm   :     0.0836411 α      lambda       -0.9070134E-02
   maximum displ.:     0.0455913 α      in ANC's #55, #28, #39, ...

........................................................................
.............................. CYCLE  218 ..............................
........................................................................
     iter. time                 ...        0 min,  0.019 sec
 * total energy  :   -16.4935664 Eh     change       -0.1880184E-01 Eh
   gradient norm :     0.0581594 Eh/α   predicted    -0.3004550E-02 ( -84.02%)
   displ. norm   :     0.2557151 α      lambda       -0.2577687E-02
   maximum displ.:     0.2497324 α      in ANC's #69, #55, #60, ...

........................................................................
.............................. CYCLE  219 ..............................
........................................................................
     iter. time                 ...        0 min,  0.019 sec
 * total energy  :   -16.6759044 Eh     change       -0.1823380E+00 Eh
   gradient norm :     0.0396584 Eh/α   predicted    -0.5277822E-03 ( -99.71%)
   displ. norm   :     0.2920094 α      lambda       -0.8787826E-02
   maximum displ.:     0.2681602 α      in ANC's #69, #55, #28, ...
 * RMSD in coord.:     0.2259616 α      energy gain   0.8238331E+00 Eh

generating ANC from exact Hessian ...
Using GFN-FF Lindh-Hessian
 Shifting diagonal of input Hessian by    1.0229120465845879E-002
 Lowest  eigenvalues of input Hessian
    0.010000    0.010117    0.010185    0.010203    0.010204    0.010211
    0.010217    0.010219    0.010220    0.010221    0.010224    0.000000
    0.000000    0.000000    0.000000    0.000000    0.010234    0.010238
 Highest eigenvalues
   14.378234   16.323727   51.585098  117.397250  123.459737  436.715040


........................................................................
.............................. CYCLE  220 ..............................
........................................................................
     iter. time                 ...        0 min,  0.019 sec
 * total energy  :   -16.9202275 Eh     change       -0.2443231E+00 Eh
   gradient norm :     0.0242109 Eh/α   predicted     0.0000000E+00 (-100.00%)
   displ. norm   :     0.0094023 α      lambda       -0.2231928E-03
   maximum displ.:     0.0071112 α      in ANC's #10, #43, #38, ...

........................................................................
.............................. CYCLE  221 ..............................
........................................................................
     iter. time                 ...        0 min,  0.019 sec
 * total energy  :   -16.9203965 Eh     change       -0.1690419E-03 Eh
   gradient norm :     0.0127820 Eh/α   predicted    -0.1133242E-03 ( -32.96%)
   displ. norm   :     0.0104759 α      lambda       -0.1332621E-03
   maximum displ.:     0.0076937 α      in ANC's #10, #43, #30, ...

........................................................................
.............................. CYCLE  222 ..............................
........................................................................
     iter. time                 ...        0 min,  0.019 sec
 * total energy  :   -16.9204587 Eh     change       -0.6221825E-04 Eh
   gradient norm :     0.0011399 Eh/α   predicted    -0.6667163E-04 (   7.16%)
   displ. norm   :     0.0007065 α      lambda        0.1070995E-07
   maximum displ.:     0.0004646 α      in ANC's #34, #30, #38, ...

........................................................................
.............................. CYCLE  223 ..............................
........................................................................
     iter. time                 ...        0 min,  0.019 sec
 * total energy  :   -16.9204587 Eh     change        0.3598092E-07 Eh
   gradient norm :     0.0005612 Eh/α   predicted    -0.2523368E-06 (-801.31%)
   displ. norm   :     0.0005153 α      lambda       -0.6523300E-07
   maximum displ.:     0.0004049 α      in ANC's #34, #30, #10, ...

........................................................................
.............................. CYCLE  224 ..............................
........................................................................
     iter. time                 ...        0 min,  0.019 sec
 * total energy  :   -16.9204564 Eh     change        0.2278036E-05 Eh
   gradient norm :     0.0000706 Eh/α   predicted    -0.9496477E-07 (-104.17%)
   displ. norm   :     0.0005153 α      lambda        0.0000000E+00
   maximum displ.:     0.0004049 α      in ANC's #34, #30, #10, ...

........................................................................
.............................. CYCLE  225 ..............................
........................................................................
     iter. time                 ...        0 min,  0.019 sec
 * total energy  :   -16.9204539 Eh     change        0.2551310E-05 Eh
   gradient norm :     0.0005161 Eh/α   predicted     0.8318682E-07 ( -96.74%)
   displ. norm   :     0.0004901 α      lambda       -0.1417572E-06
   maximum displ.:     0.0003504 α      in ANC's #34, #10, #30, ...

........................................................................
.............................. CYCLE  226 ..............................
........................................................................
     iter. time                 ...        0 min,  0.019 sec
 * total energy  :   -16.9204540 Eh     change       -0.1154600E-06 Eh
   gradient norm :     0.0000575 Eh/α   predicted    -0.8375059E-07 ( -27.46%)
   displ. norm   :     0.0004901 α      lambda        0.0000000E+00
   maximum displ.:     0.0003504 α      in ANC's #34, #10, #30, ...

   *** GEOMETRY OPTIMIZATION CONVERGED AFTER 226 ITERATIONS ***

------------------------------------------------------------------------
 total energy gain   :        30.0705322 Eh    18869.5439 kcal/mol
 total RMSD          :         0.7786201 a0        0.4120 Å
 total power (kW/mol):       349.3370423 (step)14812.3403 (real)
------------------------------------------------------------------------

 ANCopt (total)                0 d,  0 h,  0 min,  5.330 sec
 optimizer setup                ...        0 min,  0.000 sec (  0.007%)
 model hessian                  ...        0 min,  0.566 sec ( 10.610%)
 ANC generation                 ...        0 min,  0.420 sec (  7.888%)
 coordinate transformation      ...        0 min,  0.004 sec (  0.068%)
 single point calculation       ...        0 min,  4.281 sec ( 80.325%)
 optimization log               ...        0 min,  0.048 sec (  0.893%)
 hessian update                 ...        0 min,  0.001 sec (  0.019%)
 rational function              ...        0 min,  0.007 sec (  0.131%)

================
 final structure:
================
242
 xtb: 6.7.1 (edcfbbe)
N            0.24114460728484       -1.92058189034860       -1.08222785559994
N            0.10657799463961       -1.37557903729782        1.73234305866297
C           -0.44546683082273       -0.75274701208284       -2.72065604821673
C           -0.00589762663457       -1.96303625341685       -2.28432212032757
C            0.42058137722462       -3.28436984287501       -2.70123164176087
H            0.38946700326270       -3.74823628470148       -3.65220302048463
C            0.91382381655266       -4.03883268487879       -1.51832040851383
H            1.23785439693286       -4.90330461190445       -1.36670397596900
C            0.54943925876162       -2.76770365855801       -0.44898541894782
C            0.99399955117662       -3.27507800291071        1.16262904846349
C            0.29636026178229       -1.93026222200505        1.89311530538545
C            0.49398789370283       -2.97474937206941        3.40312246780041
H            0.72899549371082       -3.65331965008488        3.75338508054267
C           -0.23825302736379       -1.54218439417542        3.93831044297039
H           -0.41443817769434       -1.63103109468115        5.10987353876726
C           -0.46079198139646       -0.69658714784851        3.20844279031111
C            1.27575253855707       -4.71530568001394        0.96219829992240
C            2.19839953755283       -3.83449834210188        1.83384079730646
C            3.35150539027805       -5.88929119059073        2.13116237642961
C            2.53579868087129       -7.48286516954070        2.09751363532942
H            2.81898996493531       -7.94009515815375        2.29668189727424
C            0.91115836183815       -6.79968365483743        1.56409554729021
C            1.07187930681866       -5.99678843684944        1.37931312144780
N           -0.73154444509959        1.52731787858917        0.81282325965694
N            0.80056684270203        1.07987562981873       -1.35878206366026
C           -0.99092039759470        0.63688960165073        3.27874179478344
C           -1.15168074512881        1.69313173425690        2.50217599703381
C           -1.52114146770304        2.90588275951713        2.93567314102273
H           -1.75934431925135        3.32796345221317        3.72983606669332
C           -1.30721137974761        3.83632054292251        1.14934551106799
H           -1.55525606294583        4.81141490217153        1.58286744356027
C           -1.02088899787765        2.86777281006622        1.06324890935520
C           -0.81389615410209        3.18463463112207       -0.67572118806349
C           -0.76754376013773        2.36087794981953       -2.66705906771960
C           -1.23781081090609        2.43564230211097       -2.66982360029081
H           -1.13548552429518        3.57133778280647       -3.70259690365810
C           -1.17403924129435        1.48627295582449       -3.43831667457884
H           -1.09907268027595        1.13160212240170       -5.04453399940369
C           -0.64192609344753        0.03972805333915       -3.78214528071281
C           -0.82156437148919        4.66362079037186       -1.20361726426432
C            0.21539891647490        5.30941041133028       -1.52465458953449
C            0.16362492686673        6.77856755693058       -1.99171679090686
C           -0.94016396918386        7.32524604667094       -2.00239821422737
H           -1.06838510682061        8.42925985065944       -2.32801912074590
C           -2.26407066818301        6.67068531313093       -1.61276909062017
C           -2.15827313854858        5.44272934089950       -1.27010371061040
Fe          -1.17897744421106       -0.16912219195589        0.12763917088973
Cl          -2.34205655572805       -0.66337254931951        0.06792669617404
C           -1.55850889055877        0.81031295189351        4.74142194693292
C           -0.81045200883352        1.35217028343376        5.78493466913410
C           -2.96084956937336        0.44591948679474        4.97528444126782
C           -1.36408221025069        1.54271689692750        7.04881129161834
N            0.56144639005823        1.71305823114264        5.49373822081249
C           -3.49048452709255        0.66029423802206        6.21522796393285
N           -3.64287724687498       -0.13380278247560        3.91999634417357
H           -0.73998606780527        1.95555373118248        7.87251514647106
C           -2.70429863468495        1.21276932243577        7.29458467940385
C            1.52598896332669        2.12484654881768        6.38515588364104
H            0.80860079350309        1.60524399394811        4.51682034632372
H           -4.55439423901476        0.40511109587478        6.40628657717655
C           -4.99383538962916       -0.52051812724528        3.89698936095941
H           -3.14516523675208       -0.32189549009429        3.04240291104956
H           -3.15355412782508        1.35859767517971        8.25430031428930
O            1.39539385532586        2.23494918789010        7.58537911597142
C            2.83846431374963        2.44417816169741        5.69876836651213
O           -5.79345069163268       -0.27657478957704        4.82439868469622
C           -5.43207944451215       -1.27942823695318        2.66425720392280
C            4.12486766508920        2.06825097589931        6.42412401543617
H            2.90186879193239        2.44650395315586        4.60264251310815
C            3.69597333931134        3.51267894935806        6.40883860846294
C           -6.77074009692673       -0.97444411407771        2.08733255870326
H           -4.63155514979671       -1.58963042036656        1.95846778601744
C           -6.58472882510549       -2.24126741844353        2.89222045195159
H            3.99821931435284        1.54128061351399        7.39297994061727
H            4.97822160705097        1.78284772335217        5.80889565882490
H            3.25955888617152        3.91965677050169        7.33640160523168
C            4.45871135833311        4.49490492524975        5.58336061864127
H           -7.36467731995934       -0.18520823652916        2.57435508813816
H           -6.87226593764882       -1.07161675302238        0.98821430780102
H           -6.99751836784457       -2.24098793843646        3.91101121359876
C           -6.56390129242068       -3.55575794341286        2.18960764751620
O            4.55295606684269        5.67158165578543        6.16543921968976
O            4.96488235321341        4.21056466312367        4.45889364904718
O           -7.17512602751946       -4.51460177457155        2.96623030220294
O           -6.09323431803457       -3.78768059906741        1.09497657966212
C            5.29823534124499        6.74846368906181        5.49158308499384
C           -7.26474677299410       -5.85728368111517        2.42229153306585
C            4.31010245289322        7.61318181419806        4.71244921362685
C            6.06384434063635        7.49921630912873        6.57241260629534
H            5.99558337873611        6.25000016174558        4.78374857268055
C           -7.24917033635124       -6.80365958995339        3.62020252963147
C           -8.52568684962191       -5.97655425159642        1.56233170100128
H           -6.36949659566390       -6.02059964908577        1.78293380746883
H            3.78768820906961        7.01985847119938        3.93605235851899
H            3.55130047013721        8.05489334162675        5.39143561370949
H            4.84617765244447        8.44247041694010        4.20484104385386
H            6.75228765699096        6.82211840940585        7.11677070825791
H            6.66625558602009        8.31270807092992        6.11775534803535
H            5.36848666701918        7.95304122602962        7.30922621477301
H           -6.32340597414693       -6.66895364011190        4.21474847877029
H           -8.11853905247207       -6.61428930668478        4.28422662102938
H           -7.29538350847874       -7.85782800740221        3.27972846922659
H           -8.48243189396146       -5.27248105814059        0.70817033251883
H           -8.62083120774735       -7.00373806133703        1.15486890559034
H           -9.43240781738690       -5.75415365317376        2.16330170731626
C           -0.68962988953425       -1.49552033536198       -4.76053627072760
C            0.28418514749527       -1.28985655327617       -5.73380815466037
C           -1.90862948670769       -2.21372991302232       -4.98980184711676
C            0.07081099451105       -1.77361877129375       -6.87013725011803
N            1.42175956953561       -0.49012972265943       -5.34424877801470
C           -2.05296951334185       -2.67201892104447       -6.13438135598342
N           -2.84291059437592       -2.24342094052356       -3.90309971034573
H            0.82675855160069       -1.64592246756153       -7.77301612540624
C           -1.12175597928965       -2.58235905139316       -7.33224121812582
C            2.36025402254490        0.04563474717370       -6.21436767652493
H            1.45088539728044       -0.16235471299485       -4.41338642804661
H           -3.01889987633915       -3.29036628715662       -6.44679429448956
C           -4.07816504832988       -2.88053530634315       -3.95815625162732
H           -2.64471713504604       -1.75078921849813       -3.07216514996335
H           -1.26460768751052       -2.94954174621996       -8.19092798483194
O            2.46063164226184       -0.21319416449309       -7.43874331837281
C            3.25851005236819        1.05975354082677       -5.58874820135615
O           -4.47656792860378       -3.62339246770353       -4.89263352405674
C           -4.96180947138945       -2.61381017885597       -2.78342996116492
C            3.57988770294090        2.31731043190844       -6.33552442439065
H            3.21306017539809        1.18090229563062       -4.46272059169098
C            4.65836999994909        1.26661502392564       -6.17333800124474
C           -5.84970854640877       -3.68483309688909       -2.23564688248336
H           -4.59194246584993       -1.86433978241979       -2.01680850105226
C           -6.46478727690156       -2.57266750798842       -3.05746274509156
H            3.12243535698288        2.38581131803926       -7.36267180757209
H            3.68207385043007        3.25148239851746       -5.79251277069354
H            4.88389484962973        0.63650645227797       -7.05151197258205
C            5.75336535632173        1.57435884288730       -5.26402167983438
H           -5.78276787576745       -4.66879016747540       -2.75422748526822
H           -6.02923345227764       -3.69904643242310       -1.15829444917822
H           -6.73347040067288       -2.81733640570449       -4.10247288916927
C           -7.29687833795280       -1.54143580212223       -2.38561174752439
O            6.96091821992563        1.11267408512272       -5.73242689766466
O            5.67075203893420        2.19299608566966       -4.18221039426227
O           -8.30944309341317       -1.13445249094742       -3.22048994610891
O           -7.13614312358569       -1.10227031107837       -1.26673393956903
C            8.15998754087611        1.35577305227069       -4.97302770162884
C           -9.22800774483451       -0.12649096809249       -2.71021042705704
C            9.07007270622402        0.15233119318126       -5.19745890299130
C            8.77679930726001        2.68760164192525       -5.41175408836501
H            7.86525002244780        1.42832125042441       -3.89897230053924
C           -8.66512693354862        1.26570558138238       -3.00012827948214
C          -10.57366434439755       -0.39946350208086       -3.37807164851920
H           -9.29983161626488       -0.26853137901244       -1.61059542153346
H            8.56626375052502       -0.78224756139540       -4.87970134723538
H            9.33456464691807        0.05687173357436       -6.27191491004666
H           10.00818133005654        0.26168375639096       -4.61771665947751
H            8.07722028913920        3.52590354508446       -5.22414819329468
H            9.71045240784185        2.88710459648774       -4.84907218088455
H            9.02092704373768        2.66397499949910       -6.49480882652193
H           -7.69592934817545        1.41008725784898       -2.48345481580832
H           -8.51520769924438        1.40946974866234       -4.09057945632530
H           -9.36403895582309        2.04747797514972       -2.63799561619127
H          -10.92708432290880       -1.42482829984601       -3.14894926489653
H          -11.33553450987566        0.32030982796256       -3.01529937548482
H          -10.49588434440479       -0.29765880681476       -4.48055116847249
H            4.34066263416885       -6.08715111920133        2.42134626218333
H            0.41672029100397       -7.91552882040475        1.61582768859195
H            1.14091657560014        7.20107453023631       -2.28030185914944
H           -3.16468581052040        7.25268032819643       -1.65759516318455
O            4.79087064595058       -5.32811552242108        1.51594229500271
O           -0.76881685731487       -5.47623599329450        0.82559131641552
O            1.40270200674359        4.58565255858119       -1.54477940373883
O           -3.26862535887606        4.62274385687955       -0.81931868228961
C            4.08837000570067       -1.09440373211384        2.64780404774029
C            7.74316185608675       -2.96125122784807        1.07826900577369
C            4.91606017282257       -4.30029770581692        2.77759928292195
C            5.15230214614423       -5.38585085569477        1.69912975092527
H            5.39878097607905       -4.16089942939568        0.05686288406420
C            6.59669645073350       -2.91149733546770        2.05257888912549
H            4.72682150117366       -3.39031364411833        5.16831952442350
C            7.42764216920636       -4.09493937148724        4.02572933220497
H            8.18471801930893       -4.00435738509108        0.80239218989332
H            6.77407005342025       -2.96869472845505        4.95025811597137
H            8.62269725988559       -3.47814852421294        3.18337747399091
C           -1.71073384675838       -6.60437896007612        1.11271377105220
C           -1.84390314412361       -6.80092421026714        2.27753797664968
C           -2.45940576465366       -7.12798344976283       -0.12030941374141
C           -3.20068629189776       -8.03531345464544        2.34241175191871
H           -1.55710781568920       -6.60961091999508        3.18732842848788
C           -3.20645234344690       -7.79776475523716       -0.08115444963961
H           -1.99742359320095       -6.60024815159380       -1.12091932815136
C           -3.73370218672530       -8.43221141832938        1.45089779631479
H           -3.34409566658888       -8.26298627908006        3.44518137093950
H           -3.89881236375497       -8.33262044688438       -0.87416063321748
H           -4.52905376882088       -9.14477464882781        1.37836922754793
C            2.65682511840846        5.22771058981404       -1.36258293328241
C            2.95166637376170        6.15384993824451       -0.60786417386334
C            3.77398669990913        4.51428579929379       -2.19724594565461
C            4.38601364651288        6.61987383182304       -0.50313596531070
H            2.19408165389711        6.69559912234516        0.04319760089817
C            4.93756618749150        4.89742062760168       -2.09609522967765
H            3.41468098331134        3.67212091543930       -2.83586008099762
C            5.30647614451112        6.09476351097015       -1.14719104334436
H            4.55979190347284        7.48817523952596        0.21847558511530
H            5.79602432741994        4.43920891414029       -2.64745984060991
H            6.38237983943675        6.36627847593111       -1.13416335598727
C           -4.56912350479808        5.07612140466633       -1.23929238549272
C           -4.89183164264079        5.26023270343801       -2.51447584244822
C           -5.52171946900025        5.16075289686980       -0.13847859007965
C           -6.26584200696027        5.60126681142796       -2.79020370346185
H           -4.18251102187820        5.16598422485021       -3.33105975141609
C           -6.79003340320232        5.47069540409223       -0.42226820517914
H           -5.17666444044842        4.96711799485806        0.87938896751541
C           -7.23757568712332        5.72677005962394       -1.86405510185433
H           -6.55514898026818        5.76885285687221       -3.88198382706800
H           -7.57494871413609        5.56045630871500        0.33965224685168
H           -8.24497322123727        5.96975383526302       -2.02619305673010
N            1.59984539705003        0.38337000802133        0.15026079940242
C            2.51366983678934        1.08904897878295        0.66937532527562
C            2.77231438790162        2.39492713595431        0.25959081179323
C            3.80893971383098        3.16146323823819        0.72805202536466
C            4.69796226851178        2.59960822585579        1.69779529662642
C            4.48122847098798        1.30145007345262        2.13162135337814
C            3.43220816534128        0.51860108481174        1.66551011779113
C            3.23420663627730       -0.86976516055549        2.13413572179654
C            3.98616468141399       -1.91818253477200        1.11219410124441
C            5.41285208742199       -1.97613729282848        0.85797449645250
C            6.30403709384915       -1.66106710977413        2.45503041967302
C            7.74857124898511       -2.09605798880071        1.81244125614971
C            8.12505393201350       -1.28684340128689        0.81607927843163
C            7.32341471329377       -0.80935586671483       -0.08585681443569
C            5.78365006363197       -0.98765304575284       -0.00769407479993
H            2.08823279860067        2.83483201145331       -0.49645550720798
H            3.97862505131258        4.16648276531633        0.39264365874781
H            5.51385152291893        3.18956058824609        2.06481902698065
H            5.18131954217291        0.88067999789731        2.86688400336913
H            2.17297512808351       -1.12881132550112        2.24580507428095
H            3.71718271326504       -1.03649952576618        3.12172673737702
H            3.10487020065453       -2.82159387756315        1.23428547484371
H            3.38517287270876       -1.79348644810001        0.13651371780413
H            5.85438492302551       -2.79226857089246        3.08112600104029
H            8.24657540079587       -2.48245596074996        2.61678289378820
H            9.19235104906245       -1.19584927446045        0.79615131702192
H            7.71115064400197       -0.19759872711474       -0.93476834528167
H            5.28638077906532       -0.52341706449903       -0.78594520541627

 Bond Distances (Angstroems)
 ---------------------------
N1-C4=1.2280         N1-C9=1.1017         N2-C11=0.6079        N2-C16=1.7210        N2-Fe47=2.3840       C3-C4=1.3596         
C3-C39=1.3392        C4-N1=1.2280         C4-C3=1.3596         C4-C5=1.4497         C5-C4=1.4497         C5-H6=1.0585         
C5-C7=1.4872         H6-C5=1.0585         C7-C5=1.4872         C7-H8=0.9356         C7-C9=1.7006         H8-C7=0.9356         
C9-N1=1.1017         C9-C7=1.7006         C9-C10=1.7471        C10-C9=1.7471        C10-C11=1.6819       C10-C17=1.4812       
C10-C18=1.4880       C11-N2=0.6079        C11-C10=1.6819       C11-C12=1.8467       C12-C11=1.8467       C12-H13=0.7990       
C12-C14=1.6955       H13-C12=0.7990       C14-C12=1.6955       C14-H15=1.1881       C14-C16=1.1390       H15-C14=1.1881       
C16-N2=1.7210        C16-C14=1.1390       C16-C26=1.4367       C17-C10=1.4812       C17-C18=1.5449       C17-C23=1.3630       
C18-C10=1.4880       C18-C17=1.5449       C19-C20=1.7905       C19-H163=1.0497      C19-O167=1.6629      C19-C174=1.9191      
C20-C19=1.7905       C20-H21=0.5735       C20-C22=1.8414       H21-C20=0.5735       C22-C20=1.8414       C22-C23=0.8394       
C22-H164=1.2216      C23-C17=1.3630       C23-C22=0.8394       N24-C27=1.7487       N24-C32=1.3940       N24-Fe47=1.8835      
N25-N215=1.8442      C26-C16=1.4367       C26-C27=1.3208       C26-C49=1.5785       C27-N24=1.7487       C27-C26=1.3208       
C27-C28=1.3398       C27-C32=1.8621       C28-C27=1.3398       C28-H29=0.9304       C28-C32=1.9385       H29-C28=0.9304       
C30-H31=1.0956       C30-C32=1.0136       H31-C30=1.0956       C32-N24=1.3940       C32-C27=1.8621       C32-C28=1.9385       
C32-C30=1.0136       C32-C33=1.7797       C33-C32=1.7797       C33-C40=1.5704       C34-C35=0.4762       C34-C37=1.2349       
C35-C34=0.4762       C35-C37=1.2231       C37-C34=1.2349       C37-C35=1.2231       C37-C39=1.5792       C39-C3=1.3392        
C39-C37=1.5792       C39-C106=1.8211      C40-C33=1.5704       C40-C41=1.2631       C40-C46=1.5486       C41-C40=1.2631       
C41-C42=1.5425       C41-O169=1.3907      C42-C41=1.5425       C42-C43=1.2318       C42-H165=1.1031      C43-C42=1.2318       
C43-H44=1.1582       C43-C45=1.5274       H44-C43=1.1582       C45-C43=1.5274       C45-C46=1.2793       C45-H166=1.0732      
C46-C40=1.5486       C46-C45=1.2793       C46-O170=1.4521      Fe47-N2=2.3840       Fe47-N24=1.8835      Fe47-Cl48=1.2651     
Cl48-Fe47=1.2651     C49-C26=1.5785       C49-C50=1.3936       C49-C51=1.4677       C50-C49=1.3936       C50-C52=1.3929       
C50-N53=1.4482       C51-C49=1.4677       C51-C54=1.3653       C51-N55=1.3838       C52-C50=1.3929       C52-H56=1.1128       
C52-C57=1.4019       N53-C50=1.4482       N53-C58=1.3764       N53-H59=1.0134       C54-C51=1.3653       C54-C57=1.4451       
C54-H60=1.1106       N55-C51=1.3838       N55-C61=1.4054       N55-H62=1.0263       H56-C52=1.1128       C57-C52=1.4019       
C57-C54=1.4451       C57-H63=1.0696       C58-N53=1.3764       C58-O64=1.2123       C58-C65=1.5152       H59-N53=1.0134       
H60-C54=1.1106       C61-N55=1.4054       C61-O66=1.2486       C61-C67=1.5125       H62-N55=1.0263       H63-C57=1.0696       
O64-C58=1.2123       C65-C58=1.5152       C65-C68=1.5239       C65-H69=1.0980       C65-C70=1.5431       O66-C61=1.2486       
C67-C61=1.5125       C67-C71=1.4893       C67-H72=1.1114       C67-C73=1.5185       C68-C65=1.5239       C68-C70=1.5068       
C68-H74=1.1101       C68-H75=1.0900       H69-C65=1.0980       C70-C65=1.5431       C70-C68=1.5068       C70-H76=1.1029       
C70-C77=1.4926       C71-C67=1.4893       C71-C73=1.5124       C71-H78=1.1013       C71-H79=1.1081       H72-C67=1.1114       
C73-C67=1.5185       C73-C71=1.5124       C73-H80=1.0992       C73-C81=1.4906       H74-C68=1.1101       H75-C68=1.0900       
H76-C70=1.1029       C77-C70=1.4926       C77-O82=1.3162       C77-O83=1.2655       H78-C71=1.1013       H79-C71=1.1081       
H80-C73=1.0992       C81-C73=1.4906       C81-O84=1.3770       C81-O85=1.2139       O82-C77=1.3162       O82-C86=1.4728       
O83-C77=1.2655       O84-C81=1.3770       O84-C87=1.4514       O85-C81=1.2139       C86-O82=1.4728       C86-C88=1.5268       
C86-C89=1.5225       C86-H90=1.1117       C87-O84=1.4514       C87-C91=1.5267       C87-C92=1.5309       C87-H93=1.1122       
C88-C86=1.5268       C88-H94=1.1080       C88-H95=1.1099       C88-H96=1.1103       C89-C86=1.5225       C89-H97=1.1085       
C89-H98=1.1097       C89-H99=1.1101       H90-C86=1.1117       C91-C87=1.5267       C91-H100=1.1085      C91-H101=1.1102      
C91-H102=1.1088      C92-C87=1.5309       C92-H103=1.1078      C92-H104=1.1091      C92-H105=1.1103      H93-C87=1.1122       
H94-C88=1.1080       H95-C88=1.1099       H96-C88=1.1103       H97-C89=1.1085       H98-C89=1.1097       H99-C89=1.1101       
H100-C91=1.1085      H101-C91=1.1102      H102-C91=1.1088      H103-C92=1.1078      H104-C92=1.1091      H105-C92=1.1103      
C106-C39=1.8211      C106-C107=1.3921     C106-C108=1.4333     C107-C106=1.3921     C107-C109=1.2533     C107-N110=1.4441     
C108-C106=1.4333     C108-C111=1.2413     C108-N112=1.4334     C109-C107=1.2533     C109-H113=1.1845     C109-C114=1.5132     
N110-C107=1.4441     N110-C115=1.3874     N110-H116=0.9873     C111-C108=1.2413     C111-C114=1.5199     C111-H117=1.1887     
N112-C108=1.4334     N112-C118=1.3910     N112-H119=0.9861     H113-C109=1.1845     C114-C109=1.5132     C114-C111=1.5199     
C114-H120=0.9448     C115-N110=1.3874     C115-O121=1.2555     C115-C122=1.4922     H116-N110=0.9873     H117-C111=1.1887     
C118-N112=1.3910     C118-O123=1.2585     C118-C124=1.4940     H119-N112=0.9861     H120-C114=0.9448     O121-C115=1.2555     
C122-C115=1.4922     C122-C125=1.4975     C122-H126=1.1334     C122-C127=1.5311     O123-C118=1.2585     C124-C118=1.4940     
C124-C128=1.4952     C124-H129=1.1341     C124-C130=1.5283     C125-C122=1.4975     C125-C127=1.5144     C125-H131=1.1265     
C125-H132=1.0853     H126-C122=1.1334     C127-C122=1.5311     C127-C125=1.5144     C127-H133=1.1041     C127-C134=1.4562     
C128-C124=1.4952     C128-C130=1.5135     C128-H135=1.1143     C128-H136=1.0923     H129-C124=1.1341     C130-C124=1.5283     
C130-C128=1.5135     C130-H137=1.1064     C130-C138=1.4857     H131-C125=1.1265     H132-C125=1.0853     H133-C127=1.1041     
C134-C127=1.4562     C134-O139=1.3750     C134-O140=1.2489     H135-C128=1.1143     H136-C128=1.0923     H137-C130=1.1064     
C138-C130=1.4857     C138-O141=1.3740     C138-O142=1.2127     O139-C134=1.3750     O139-C143=1.4400     O140-C134=1.2489     
O141-C138=1.3740     O141-C144=1.4561     O142-C138=1.2127     C143-O139=1.4400     C143-C145=1.5254     C143-C146=1.5319     
C143-H147=1.1161     C144-O141=1.4561     C144-C148=1.5294     C144-C149=1.5269     C144-H150=1.1111     C145-C143=1.5254     
C145-H151=1.1083     C145-H152=1.1106     C145-H153=1.1082     C146-C143=1.5319     C146-H154=1.1079     C146-H155=1.1082     
C146-H156=1.1105     H147-C143=1.1161     C148-C144=1.5294     C148-H157=1.1078     C148-H158=1.1101     C148-H159=1.1094     
C149-C144=1.5269     C149-H160=1.1085     C149-H161=1.1091     C149-H162=1.1099     H150-C144=1.1111     H151-C145=1.1083     
H152-C145=1.1106     H153-C145=1.1082     H154-C146=1.1079     H155-C146=1.1082     H156-C146=1.1105     H157-C148=1.1078     
H158-C148=1.1101     H159-C148=1.1094     H160-C149=1.1085     H161-C149=1.1091     H162-C149=1.1099     H163-C19=1.0497      
H163-C174=1.2931     H164-C22=1.2216      H165-C42=1.1031      H166-C45=1.0732      O167-C19=1.6629      O167-C173=1.6321     
O167-C174=0.4093     O168-C182=1.4974     O169-C41=1.3907      O169-C193=1.4207     O170-C46=1.4521      O170-C204=1.4399     
C171-C222=1.0217     C171-C223=1.7456     C171-H235=0.6048     C172-C176=1.5054     C172-H179=1.1658     C172-C226=1.1347     
C172-C227=1.7373     C173-O167=1.6321     C173-C174=1.5483     C174-C19=1.9191      C174-H163=1.2931     C174-O167=0.4093     
C174-C173=1.5483     C176-C172=1.5054     C176-C224=1.9244     C176-C225=1.3458     C176-C226=1.4316     C176-H238=1.2740     
H179-C172=1.1658     C182-O168=1.4974     C182-C183=1.1888     C182-C184=1.5346     C183-C182=1.1888     C183-C185=1.8354     
C183-H186=0.9729     C184-C182=1.5346     C184-C187=1.0041     C184-H188=1.2219     C185-C183=1.8354     C185-C189=1.1119     
C185-H190=1.1351     H186-C183=0.9729     C187-C184=1.0041     C187-C189=1.7400     C187-H191=1.1808     H188-C184=1.2219     
C189-C185=1.1119     C189-C187=1.7400     C189-H192=1.0703     H190-C185=1.1351     H191-C187=1.1808     H192-C189=1.0703     
C193-O169=1.4207     C193-C194=1.2306     C193-C195=1.5664     C194-C193=1.2306     C194-C196=1.5118     C194-H197=1.1364     
C195-C193=1.5664     C195-C198=1.2292     C195-H199=1.1163     C196-C194=1.5118     C196-C200=1.2401     C196-H201=1.1423     
H197-C194=1.1364     C198-C195=1.2292     C198-C200=1.5717     C198-H202=1.1184     H199-C195=1.1163     C200-C196=1.2401     
C200-C198=1.5717     C200-H203=1.1097     H201-C196=1.1423     H202-C198=1.1184     H203-C200=1.1097     C204-O170=1.4399     
C204-C205=1.3282     C204-C206=1.4582     C205-C204=1.3282     C205-C207=1.4423     C205-H208=1.0857     C206-C204=1.4582     
C206-C209=1.3361     C206-H210=1.0921     C207-C205=1.4423     C207-C211=1.3482     C207-H212=1.1418     H208-C205=1.0857     
C209-C206=1.3361     C209-C211=1.5312     C209-H213=1.0976     H210-C206=1.0921     C211-C207=1.3482     C211-C209=1.5312     
C211-H214=1.0489     H212-C207=1.1418     H213-C209=1.0976     H214-C211=1.0489     N215-N25=1.8442      N215-C216=1.2659     
C216-N215=1.2659     C216-C217=1.3929     C216-C221=1.4702     C217-C216=1.3929     C217-C218=1.3717     C217-H230=1.1104     
C218-C217=1.3717     C218-C219=1.4305     C218-H231=1.0730     C219-C218=1.4305     C219-C220=1.3858     C219-H232=1.0716     
C220-C219=1.3858     C220-C221=1.3894     C220-H233=1.0990     C221-C216=1.4702     C221-C220=1.3894     C221-C222=1.4786     
C222-C171=1.0217     C222-C221=1.4786     C222-C223=1.6459     C222-H234=1.0981     C222-H235=1.1119     C223-C171=1.7456     
C223-C222=1.6459     C223-C224=1.4503     C223-H236=1.2680     C223-H237=1.1527     C224-C176=1.9244     C224-C223=1.4503     
C224-C225=1.8558     C224-C229=1.3653     C225-C176=1.3458     C225-C224=1.8558     C225-C226=1.6398     C225-H238=1.3689     
C226-C172=1.1347     C226-C176=1.4316     C226-C225=1.6398     C226-C227=1.3376     C226-H239=1.0219     C227-C172=1.7373     
C227-C226=1.3376     C227-C228=1.2977     C227-H240=1.0714     C228-C227=1.2977     C228-C229=1.5520     C228-H241=1.1159     
C229-C224=1.3653     C229-C228=1.5520     C229-H242=1.0337     H230-C217=1.1104     H231-C218=1.0730     H232-C219=1.0716     
H233-C220=1.0990     H234-C222=1.0981     H235-C171=0.6048     H235-C222=1.1119     H236-C223=1.2680     H237-C223=1.1527     
H238-C176=1.2740     H238-C225=1.3689     H239-C226=1.0219     H240-C227=1.0714     H241-C228=1.1159     H242-C229=1.0337     
 C  H  Rav=1.0978 sigma=0.1023  Rmin=0.5735  Rmax=1.3689    94
 C  C  Rav=1.4675 sigma=0.2154  Rmin=0.4762  Rmax=1.9385   120
 N  H  Rav=1.0033 sigma=0.0172  Rmin=0.9861  Rmax=1.0263     4
 N  C  Rav=1.3558 sigma=0.2537  Rmin=0.6079  Rmax=1.7487    15
 N  N  Rav=1.8442 sigma=0.0000  Rmin=1.8442  Rmax=1.8442     1
 O  C  Rav=1.3368 sigma=0.2286  Rmin=0.4093  Rmax=1.6629    24
 Fe N  Rav=2.1337 sigma=0.2502  Rmin=1.8835  Rmax=2.3840     2
 Fe Cl Rav=1.2651 sigma=0.0000  Rmin=1.2651  Rmax=1.2651     1

 selected bond angles (degree)
 --------------------
C9-N1-C4=126.33                C16-N2-C11=103.66              Fe47-N2-C11=143.92             Fe47-N2-C16=101.53             
C39-C3-C4=145.96               C3-C4-N1=110.39                C5-C4-N1=104.71                C5-C4-C3=144.51                
H6-C5-C4=130.48                C7-C5-C4=109.34                C7-C5-H6=120.13                H8-C7-C5=135.44                
C9-C7-C5= 92.86                C9-C7-H8=131.53                C7-C9-N1=105.86                C10-C9-N1=145.56               
C10-C9-C7=107.97               C11-C10-C9= 93.61              C17-C10-C9=101.89              C17-C10-C11=156.23             
C18-C10-C9=136.99              C18-C10-C11=116.13             C18-C10-C17= 62.71             

 selected dihedral angles (degree)
 ---------------------------------
C3-C4-N1-C9=175.74            C5-C4-N1-C9=350.38            N1-C4-C3-C39=161.05           C5-C4-C3-C39=350.00           
H6-C5-C4-N1=179.72            H6-C5-C4-C3=351.04            C7-C5-C4-N1=  2.31            C7-C5-C4-C3=173.63            
H8-C7-C5-C4=177.62            H8-C7-C5-H6=359.90            C9-C7-C5-C4=  2.23            C9-C7-C5-H6=184.51            
C7-C9-N1-C4= 11.20            C10-C9-N1-C4=180.13           N1-C9-C7-C5=353.08            N1-C9-C7-H8=177.40            
C10-C9-C7-C5=179.64           C10-C9-C7-H8=  3.96           C11-C10-C9-N1= 19.16          C11-C10-C9-C7=187.95          
C17-C10-C9-N1=181.02          C17-C10-C9-C7=349.82          C18-C10-C9-N1=243.55          C18-C10-C9-C7= 52.35          
           -------------------------------------------------
          |                Final Singlepoint                |
           -------------------------------------------------
         :::::::::::::::::::::::::::::::::::::::::::::::::::::
         ::                     SUMMARY                     ::
         :::::::::::::::::::::::::::::::::::::::::::::::::::::
         :: total energy             -16.920453988529 Eh    ::
         :: total w/o Gsolv          -16.773600949372 Eh    ::
         :: total w/o Gsasa/hb       -16.798967981983 Eh    ::
         :: gradient norm             47.371359084660 Eh/a0 ::
         ::.................................................::
         :: bond energy              -44.283515310042 Eh    ::
         :: angle energy               1.252401717266 Eh    ::
         :: torsion energy             0.377597317381 Eh    ::
         :: repulsion energy          27.535940682506 Eh    ::
         :: electrostat energy        -1.224592281213 Eh    ::
         :: dispersion energy         -0.315899351204 Eh    ::
         :: HB energy                 -0.016440138698 Eh    ::
         :: XB energy                 -0.000109574417 Eh    ::
         :: bonded atm energy         -0.098984010951 Eh    ::
         :: external energy            0.000000000000 Eh    ::
         :: -> Gsolv                  -0.146853039157 Eh    ::
         ::    -> Gborn               -0.025367032611 Eh    ::
         ::    -> Gsasa               -0.121371266437 Eh    ::
         ::    -> Ghb                 -0.006897951572 Eh    ::
         ::    -> Gshift               0.006783211464 Eh    ::
         :: add. restraining           0.000000000000 Eh    ::
         :: total charge              -0.000000000000 e     ::
         :::::::::::::::::::::::::::::::::::::::::::::::::::::

           -------------------------------------------------
          |                Property Printout                |
           -------------------------------------------------

molecular dipole:
                 x           y           z       tot (Debye)
 q only:        2.442       0.621       0.671       6.628
           -------------------------------------------------
          |                Geometry Summary                 |
           -------------------------------------------------

      molecular mass/u    :     1944.3747980
   center of mass at/Å    :       -0.0216257      -0.0246865       0.1626905
  moments of inertia/u·Å² :        0.4927775E+05   0.6579680E+05   0.6719019E+05
rotational constants/cm⁻¹ :        0.3420942E-03   0.2562075E-03   0.2508943E-03

 * 167 selected distances

     #   Z          #   Z                                           value/Å
     1   7 N        4   6 C                                       1.2279508
     3   6 C        4   6 C                                       1.3595620
     4   6 C        5   6 C                                       1.4496968
     5   6 C        6   1 H                                       1.0585306
     7   6 C        8   1 H                                       0.9355721
     1   7 N        9   6 C                                       1.1016611
     2   7 N       11   6 C                                       0.6078968
    12   6 C       13   1 H                                       0.7989807
    14   6 C       16   6 C                                       1.1389756
    10   6 C       17   6 C                                       1.4811527
    20   6 C       21   1 H                                       0.5735195
    17   6 C       23   6 C                                       1.3629921
    22   6 C       23   6 C                                       0.8394145
    16   6 C       26   6 C                                       1.4367111
    26   6 C       27   6 C                                       1.3208127
    27   6 C       28   6 C                                       1.3398457
    28   6 C       29   1 H                                       0.9303696
    30   6 C       31   1 H                                       1.0955714
    24   7 N       32   6 C                                       1.3940061
    30   6 C       32   6 C                                       1.0136459
    34   6 C       35   6 C                                       0.4761812
    34   6 C       37   6 C                                       1.2349134
    35   6 C       37   6 C                                       1.2230907
     3   6 C       39   6 C                                       1.3391687
    40   6 C       41   6 C                                       1.2630924
    42   6 C       43   6 C                                       1.2317961
    45   6 C       46   6 C                                       1.2792532
    47  26 Fe      48  17 Cl                                      1.2651491
    49   6 C       50   6 C                                       1.3935988
    50   6 C       52   6 C                                       1.3929102
    51   6 C       54   6 C                                       1.3652582
    51   6 C       55   7 N                                       1.3837894
    52   6 C       57   6 C                                       1.4019452
    53   7 N       58   6 C                                       1.3764221
    53   7 N       59   1 H                                       1.0134485
    55   7 N       61   6 C                                       1.4054061
    55   7 N       62   1 H                                       1.0262877
    57   6 C       63   1 H                                       1.0696498
    58   6 C       64   8 O                                       1.2123175
    65   6 C       68   6 C                                       1.5239082
    65   6 C       69   1 H                                       1.0979607
    68   6 C       70   6 C                                       1.5068366
    67   6 C       71   6 C                                       1.4892515
    67   6 C       72   1 H                                       1.1113971
    67   6 C       73   6 C                                       1.5184541
    71   6 C       73   6 C                                       1.5123777
    68   6 C       74   1 H                                       1.1101440
    68   6 C       75   1 H                                       1.0900340
    70   6 C       76   1 H                                       1.1029333
    71   6 C       78   1 H                                       1.1012928
    71   6 C       79   1 H                                       1.1080664
    73   6 C       80   1 H                                       1.0992407
    77   6 C       82   8 O                                       1.3161558
    81   6 C       84   8 O                                       1.3769968
    81   6 C       85   8 O                                       1.2138917
    86   6 C       88   6 C                                       1.5268248
    86   6 C       89   6 C                                       1.5224912
    86   6 C       90   1 H                                       1.1116610
    87   6 C       91   6 C                                       1.5267158
    87   6 C       92   6 C                                       1.5309235
    87   6 C       93   1 H                                       1.1121706
    88   6 C       94   1 H                                       1.1080350
    88   6 C       95   1 H                                       1.1099154
    88   6 C       96   1 H                                       1.1102984
    89   6 C       97   1 H                                       1.1084862
    89   6 C       98   1 H                                       1.1096764
    89   6 C       99   1 H                                       1.1101234
    91   6 C      100   1 H                                       1.1084541
    91   6 C      101   1 H                                       1.1102213
    91   6 C      102   1 H                                       1.1087513
    92   6 C      103   1 H                                       1.1077824
    92   6 C      104   1 H                                       1.1091371
    92   6 C      105   1 H                                       1.1103018
   106   6 C      107   6 C                                       1.3920747
   106   6 C      108   6 C                                       1.4332997
   107   6 C      109   6 C                                       1.2533150
   108   6 C      111   6 C                                       1.2413402
   110   7 N      115   6 C                                       1.3874158
   110   7 N      116   1 H                                       0.9873144
   112   7 N      118   6 C                                       1.3909708
   112   7 N      119   1 H                                       0.9861131
   114   6 C      120   1 H                                       0.9447607
   122   6 C      125   6 C                                       1.4974672
   122   6 C      126   1 H                                       1.1334377
   122   6 C      127   6 C                                       1.5310602
   125   6 C      127   6 C                                       1.5143942
   124   6 C      128   6 C                                       1.4951661
   124   6 C      129   1 H                                       1.1341147
   124   6 C      130   6 C                                       1.5283093
   128   6 C      130   6 C                                       1.5134781
   125   6 C      131   1 H                                       1.1264932
   125   6 C      132   1 H                                       1.0853484
   127   6 C      133   1 H                                       1.1041232
   127   6 C      134   6 C                                       1.4562203
   128   6 C      135   1 H                                       1.1142615
   128   6 C      136   1 H                                       1.0923002
   130   6 C      137   1 H                                       1.1063905
   130   6 C      138   6 C                                       1.4856643
   134   6 C      139   8 O                                       1.3750420
   138   6 C      141   8 O                                       1.3740250
   138   6 C      142   8 O                                       1.2126788
   139   8 O      143   6 C                                       1.4399833
   143   6 C      145   6 C                                       1.5254170
   143   6 C      146   6 C                                       1.5318960 (max)
   143   6 C      147   1 H                                       1.1161222
   144   6 C      148   6 C                                       1.5294113
   144   6 C      149   6 C                                       1.5268742
   144   6 C      150   1 H                                       1.1110749
   145   6 C      151   1 H                                       1.1082558
   145   6 C      152   1 H                                       1.1106415
   145   6 C      153   1 H                                       1.1081999
   146   6 C      154   1 H                                       1.1078615
   146   6 C      155   1 H                                       1.1082061
   146   6 C      156   1 H                                       1.1104793
   148   6 C      157   1 H                                       1.1077643
   148   6 C      158   1 H                                       1.1100576
   148   6 C      159   1 H                                       1.1094081
   149   6 C      160   1 H                                       1.1085017
   149   6 C      161   1 H                                       1.1091094
   149   6 C      162   1 H                                       1.1098988
    19   6 C      163   1 H                                       1.0496607
    42   6 C      165   1 H                                       1.1031286
    45   6 C      166   1 H                                       1.0732360
   163   1 H      167   8 O                                       1.2643492
    41   6 C      169   8 O                                       1.3906543
   167   8 O      174   6 C                                       0.4092967 (min)
   172   6 C      176   6 C                                       1.5053699
   182   6 C      183   6 C                                       1.1887724
   183   6 C      186   1 H                                       0.9729189
   184   6 C      187   6 C                                       1.0041010
   185   6 C      189   6 C                                       1.1119493
   189   6 C      192   1 H                                       1.0703229
   193   6 C      194   6 C                                       1.2305552
   195   6 C      198   6 C                                       1.2292035
   196   6 C      200   6 C                                       1.2400804
   204   6 C      205   6 C                                       1.3282058
   205   6 C      208   1 H                                       1.0857385
   206   6 C      209   6 C                                       1.3361218
   206   6 C      210   1 H                                       1.0920678
   207   6 C      211   6 C                                       1.3482466
   209   6 C      213   1 H                                       1.0975755
   211   6 C      214   1 H                                       1.0488946
   215   7 N      216   6 C                                       1.2659139
   216   6 C      217   6 C                                       1.3928885
   217   6 C      218   6 C                                       1.3717237
   218   6 C      219   6 C                                       1.4305400
   219   6 C      220   6 C                                       1.3857826
   220   6 C      221   6 C                                       1.3894446
   171   6 C      222   6 C                                       1.0217206
   221   6 C      222   6 C                                       1.4786398
   223   6 C      224   6 C                                       1.4503185
   176   6 C      225   6 C                                       1.3458056
   172   6 C      226   6 C                                       1.1347236
   176   6 C      226   6 C                                       1.4315807
   226   6 C      227   6 C                                       1.3376491
   227   6 C      228   6 C                                       1.2977322
   224   6 C      229   6 C                                       1.3652746
   218   6 C      231   1 H                                       1.0730127
   219   6 C      232   1 H                                       1.0716463
   220   6 C      233   1 H                                       1.0989933
   222   6 C      234   1 H                                       1.0980836
   171   6 C      235   1 H                                       0.6047609
   222   6 C      235   1 H                                       1.1119364
   223   6 C      237   1 H                                       1.1526893
   226   6 C      239   1 H                                       1.0218988
   227   6 C      240   1 H                                       1.0713545
   229   6 C      242   1 H                                       1.0336667

 * 7 distinct bonds (by element types)

   Z      Z             #   av. dist./Å        max./Å        min./Å
   1 H    6 C          71     1.0722067     1.1526893     0.5735195
   6 C    6 C          70     1.3544803     1.5318960     0.4761812
   1 H    7 N           4     1.0032909     1.0262877     0.9861131
   6 C    7 N          10     1.2541433     1.4054061     0.6078968
   1 H    8 O           1     1.2643492     1.2643492     1.2643492
   6 C    8 O          10     1.2321042     1.4399833     0.4092967
  17 Cl  26 Fe          1     1.2651491     1.2651491     1.2651491


optimized geometry written to: xtbopt.xyz


           -------------------------------------------------
          | TOTAL ENERGY              -16.920453988529 Eh   |
          | GRADIENT NORM               2.126430381738 Eh/α |
           -------------------------------------------------

------------------------------------------------------------------------
 * finished run on 2026/09/07 at 18:12:09.795     
------------------------------------------------------------------------
 total:
 * wall-time:     0 d,  0 h,  0 min,  5.379 sec
 *  cpu-time:     0 d,  0 h,  0 min,  5.368 sec
 * ratio c/w:     0.998 speedup
 SCF:
 * wall-time:     0 d,  0 h,  0 min,  0.020 sec
 *  cpu-time:     0 d,  0 h,  0 min,  0.020 sec
 * ratio c/w:     0.996 speedup
 ANC optimizer:
 * wall-time:     0 d,  0 h,  0 min,  5.351 sec
 *  cpu-time:     0 d,  0 h,  0 min,  5.341 sec
 * ratio c/w:     0.998 speedup

