31

C     -0.275967    2.493800   -0.675300
C     -0.548410    1.620801    0.560263
C      0.749206    1.159724    1.265141
C      1.586886    0.194044    0.451992
C      1.327949   -1.186105    0.539034
C      2.070222   -2.096851   -0.216458
C      3.085825   -1.643015   -1.059226
C      3.365144   -0.277403   -1.144781
C      2.625748    0.643787   -0.393080
N      2.947048    2.029882   -0.487424
C     -1.490632    0.460328    0.274736
C     -1.400127   -0.302549   -0.908551
C     -2.252707   -1.390494   -1.117399
C     -3.197770   -1.736924   -0.150032
C     -3.288182   -0.999935    1.032198
C     -2.437172    0.087973    1.247528
H     -1.236384    2.813719   -1.132977
H      0.320261    1.955911   -1.439286
H      0.284157    3.405524   -0.376930
H     -1.063213    2.297598    1.279390
H      1.353099    2.051139    1.540828
H      0.476995    0.679885    2.231319
H      0.541942   -1.556371    1.185854
H      1.857024   -3.155795   -0.148528
H      3.660187   -2.350328   -1.643417
H      4.160130    0.065327   -1.795268
H     -0.661695   -0.075633   -1.664528
H     -2.175027   -1.970460   -2.027958
H     -3.855254   -2.580989   -0.313421
H     -4.015044   -1.274826    1.785589
H     -2.514237    0.638238    2.177120
