31

C      0.976174   -2.990157   -0.119098
C      0.275398   -1.661972    0.194712
C     -0.872616   -1.397531   -0.802674
C     -1.655703   -0.156707   -0.435812
C     -1.352028    1.065858   -1.061121
C     -2.033638    2.232170   -0.704617
C     -3.021599    2.192122    0.280897
C     -3.328913    0.985820    0.914486
C     -2.650133   -0.187865    0.565348
N     -2.975842   -1.404273    1.234443
C      1.272043   -0.515506    0.220270
C      2.042987   -0.195082   -0.914499
C      2.930512    0.884532   -0.884887
C      3.056079    1.657112    0.271745
C      2.292831    1.352749    1.401054
C      1.403793    0.274122    1.377254
H      1.376371   -2.999180   -1.154888
H      0.258977   -3.831973   -0.013097
H      1.813151   -3.157669    0.592246
H     -0.175693   -1.780127    1.205526
H     -0.469342   -1.305176   -1.835084
H     -1.560485   -2.270994   -0.818137
H     -0.581861    1.117526   -1.820746
H     -1.793038    3.168747   -1.190820
H     -3.547707    3.097056    0.556168
H     -4.093685    0.964273    1.680800
H      1.951607   -0.772316   -1.825167
H      3.518434    1.124849   -1.761266
H      3.742465    2.493703    0.291854
H      2.387479    1.955259    2.295192
H      0.813981    0.060630    2.259919
