31

C      0.469923   -1.601072    2.060345
C      0.567880   -0.089415    1.799073
C     -0.817651    0.589711    1.687965
C     -1.616415    0.173020    0.469853
C     -1.440143    0.867163   -0.741152
C     -2.147207    0.489921   -1.885242
C     -3.045623   -0.576727   -1.832456
C     -3.243052   -1.265712   -0.633893
C     -2.537913   -0.896640    0.518026
N     -2.775072   -1.607055    1.731475
C      1.472682    0.255664    0.625079
C      1.464755   -0.493355   -0.570433
C      2.276403   -0.120558   -1.645787
C      3.097557    1.004206   -1.547967
C      3.104151    1.763257   -0.376304
C      2.293395    1.396477    0.701784
H     -0.069631   -1.784920    3.013806
H      1.487708   -2.037156    2.150695
H     -0.071745   -2.127446    1.249165
H      1.040533    0.328292    2.716862
H     -0.671703    1.692480    1.666795
H     -1.399401    0.389072    2.613503
H     -0.745263    1.695883   -0.801524
H     -1.997651    1.025218   -2.813962
H     -3.592914   -0.867173   -2.719911
H     -3.947909   -2.087068   -0.599952
H      0.820868   -1.353713   -0.686476
H      2.262692   -0.700875   -2.559327
H      3.723449    1.291759   -2.382831
H      3.734305    2.640336   -0.304693
H      2.302992    2.006425    1.596628
