31

C      1.032348   -2.940044   -0.382942
C      0.359065   -1.565129   -0.482642
C     -0.960019   -1.540033    0.318626
C     -1.701682   -0.235264    0.131621
C     -1.556677    0.788383    1.085044
C     -2.198166    2.016882    0.908261
C     -2.987125    2.238390   -0.221954
C     -3.134704    1.232610   -1.179905
C     -2.494414   -0.001153   -1.012474
N     -2.653245   -1.007603   -2.010098
C      1.306594   -0.463579   -0.038666
C      1.846080   -0.447439    1.262648
C      2.689253    0.592033    1.666013
C      2.999919    1.626267    0.780414
C      2.466488    1.624204   -0.510310
C      1.622865    0.587157   -0.919241
H      0.373812   -3.718034   -0.824896
H      1.990347   -2.937795   -0.945822
H      1.236140   -3.212703    0.674046
H      0.104727   -1.421081   -1.556771
H     -0.755801   -1.713730    1.398049
H     -1.610983   -2.379350   -0.010209
H     -0.940709    0.637658    1.962953
H     -2.080574    2.799166    1.646950
H     -3.482397    3.191199   -0.357338
H     -3.745100    1.414088   -2.055725
H      1.607844   -1.231780    1.968989
H      3.098780    0.597689    2.667862
H      3.651441    2.431067    1.095428
H      2.704109    2.428854   -1.194076
H      1.211786    0.609068   -1.920785
