31

C      0.302166    1.147969   -2.300964
C      0.732330   -0.175577   -1.648159
C     -0.449538   -1.151688   -1.439240
C     -1.466691   -0.684162   -0.418322
C     -1.274541   -0.996699    0.939926
C     -2.184906   -0.559303    1.904868
C     -3.302490    0.185566    1.525591
C     -3.515252    0.490629    0.179521
C     -2.607779    0.058484   -0.795208
N     -2.862190    0.369450   -2.163407
C      1.545287    0.022757   -0.377031
C      1.211232    1.005508    0.578452
C      1.953185    1.129657    1.756683
C      3.028736    0.274052    2.001812
C      3.361069   -0.712734    1.071863
C      2.621763   -0.842920   -0.107377
H     -0.445064    1.689187   -1.686783
H      1.186662    1.804272   -2.446408
H     -0.146690    0.948757   -3.297382
H      1.399594   -0.659082   -2.397292
H     -0.946464   -1.339769   -2.415458
H     -0.043579   -2.137856   -1.122195
H     -0.411602   -1.571631    1.253085
H     -2.022995   -0.797931    2.948071
H     -4.006995    0.523125    2.274717
H     -4.389196    1.062335   -0.106789
H      0.368369    1.665628    0.429797
H      1.688619    1.886019    2.484303
H      3.600228    0.371064    2.915821
H      4.189418   -1.381514    1.266952
H      2.887314   -1.623592   -0.809452
