31

C      0.720933   -2.444823    0.454573
C      0.753361   -1.474101   -0.736902
C     -0.652030   -1.196041   -1.320691
C     -1.568218   -0.426387   -0.391344
C     -1.541489    0.980214   -0.405346
C     -2.359444    1.714562    0.456557
C     -3.220768    1.055258    1.334689
C     -3.270000   -0.340303    1.349540
C     -2.452909   -1.085613    0.490922
N     -2.539487   -2.508732    0.516024
C      1.516542   -0.191231   -0.440582
C      2.312949    0.383378   -1.448783
C      2.992585    1.583503   -1.220915
C      2.876957    2.231288    0.010344
C      2.077425    1.682747    1.014739
C      1.396753    0.481979    0.793427
H      0.107137   -2.054096    1.290679
H      0.292862   -3.419084    0.135862
H      1.752740   -2.626184    0.824305
H      1.312784   -2.017447   -1.531912
H     -0.535925   -0.626975   -2.269653
H     -1.124673   -2.158719   -1.612531
H     -0.877514    1.508921   -1.078313
H     -2.324732    2.796255    0.443692
H     -3.854136    1.626061    2.001391
H     -3.946945   -0.843562    2.028566
H      2.405060   -0.096205   -2.415421
H      3.605436    2.014214   -2.002191
H      3.401240    3.162155    0.183666
H      1.978477    2.192495    1.964411
H      0.765025    0.096472    1.581195
