31

C      1.025844   -2.974876    0.017091
C      0.319545   -1.634726    0.259520
C     -0.892403   -1.474149   -0.682838
C     -1.675892   -0.217635   -0.374985
C     -1.435276    0.950480   -1.120305
C     -2.116653    2.133338   -0.822736
C     -3.041408    2.164501    0.222617
C     -3.285472    1.013249    0.975007
C     -2.606326   -0.176356    0.685568
N     -2.866374   -1.334868    1.475279
C      1.293077   -0.476143    0.124386
C      1.986568   -0.244091   -1.079752
C      2.852781    0.846674   -1.198291
C      3.033735    1.718179   -0.122106
C      2.347274    1.501764    1.074748
C      1.479886    0.412464    1.199076
H      0.333232   -3.814580    0.239462
H      1.361942   -3.067776   -1.037189
H      1.907963   -3.068131    0.686248
H     -0.066361   -1.671406    1.303034
H     -0.555031   -1.465690   -1.742620
H     -1.562548   -2.355486   -0.580405
H     -0.714252    0.947305   -1.928370
H     -1.924816    3.027696   -1.401335
H     -3.567420    3.082196    0.451999
H     -4.001293    1.047087    1.786815
H      1.850956   -0.899229   -1.930202
H      3.381042    1.018662   -2.127164
H      3.703437    2.563144   -0.216696
H      2.484643    2.180691    1.906400
H      0.949599    0.267713    2.132027
