31

C      1.301169   -2.854418   -0.406138
C      0.374698   -1.653706   -0.174669
C     -0.285302   -1.206305   -1.496363
C     -1.297085   -0.105168   -1.269980
C     -0.917388    1.235813   -1.458385
C     -1.824025    2.269870   -1.211993
C     -3.116304    1.977804   -0.771968
C     -3.504703    0.650675   -0.574691
C     -2.602737   -0.392310   -0.817203
N     -3.021086   -1.737865   -0.598373
C      1.122379   -0.512487    0.493861
C      2.245201    0.079615   -0.117214
C      2.900930    1.151470    0.495396
C      2.443476    1.646288    1.718643
C      1.327860    1.071295    2.331264
C      0.668257   -0.000961    1.723331
H      0.714116   -3.720110   -0.780579
H      2.089289   -2.616875   -1.151482
H      1.785697   -3.152422    0.548339
H     -0.433361   -2.010998    0.502511
H     -0.792054   -2.074471   -1.971582
H      0.491635   -0.870730   -2.218021
H      0.083931    1.481454   -1.789863
H     -1.523013    3.299026   -1.359257
H     -3.816724    2.780508   -0.580801
H     -4.507627    0.433020   -0.229224
H      2.608286   -0.279512   -1.071186
H      3.762212    1.601564    0.018895
H      2.951535    2.477471    2.190264
H      0.971381    1.458873    3.276869
H     -0.200644   -0.426409    2.209707
