31

C      1.640140   -2.685584   -0.075691
C      0.612439   -1.572597    0.166651
C     -0.386023   -1.481810   -1.007008
C     -1.481427   -0.476113   -0.731112
C     -1.367072    0.831090   -1.237113
C     -2.346361    1.787265   -0.956587
C     -3.446887    1.451102   -0.166177
C     -3.569812    0.158231    0.348036
C     -2.592762   -0.806344    0.073914
N     -2.736853   -2.116010    0.619287
C      1.302384   -0.243043    0.420815
C      1.058405    0.456849    1.616686
C      1.660896    1.697175    1.846880
C      2.508935    2.253521    0.886760
C      2.754890    1.571524   -0.306902
C      2.155030    0.331054   -0.542582
H      2.364894   -2.725866    0.765564
H      2.196143   -2.520777   -1.022685
H      1.127084   -3.669081   -0.137073
H      0.040785   -1.870064    1.074349
H     -0.843773   -2.479558   -1.183944
H      0.149191   -1.218033   -1.945622
H     -0.515247    1.112312   -1.843881
H     -2.249941    2.791011   -1.349847
H     -4.203853    2.193701    0.050659
H     -4.424445   -0.093082    0.963683
H      0.396467    0.047203    2.369404
H      1.467233    2.228988    2.769447
H      2.972930    3.214701    1.066359
H      3.407848    2.006321   -1.052584
H      2.348761   -0.174089   -1.479686
