31

C      1.568342    0.091294   -2.727667
C      0.595078    0.297762   -1.559862
C     -0.521379   -0.767953   -1.580273
C     -1.560493   -0.507930   -0.512524
C     -1.474793   -1.182764    0.718390
C     -2.398986   -0.924032    1.733721
C     -3.415003    0.012220    1.533589
C     -3.508052    0.694253    0.318182
C     -2.585568    0.443124   -0.704623
N     -2.696657    1.160202   -1.932174
C      1.334833    0.310419   -0.232858
C      1.234497    1.428054    0.615850
C      1.882955    1.437311    1.854320
C      2.634227    0.332260    2.260493
C      2.737123   -0.785642    1.429740
C      2.090687   -0.800568    0.190368
H      1.032021    0.207137   -3.693691
H      2.378108    0.851140   -2.688756
H      2.022868   -0.921453   -2.698552
H      0.118130    1.289977   -1.724847
H     -0.084640   -1.782671   -1.451292
H     -1.015398   -0.770059   -2.576406
H     -0.687419   -1.905114    0.894766
H     -2.325128   -1.447765    2.678023
H     -4.129312    0.211770    2.321885
H     -4.296665    1.421913    0.172653
H      0.648938    2.290772    0.323626
H      1.799973    2.301103    2.501187
H      3.133992    0.340929    3.220480
H      3.315011   -1.643637    1.748072
H      2.172708   -1.682054   -0.431821
