31

C      1.168215   -2.891641    0.426433
C      0.415521   -1.558393    0.524096
C     -0.858322   -1.581619   -0.347356
C     -1.679964   -0.324551   -0.168076
C     -1.541190    0.732129   -1.085717
C     -2.258166    1.918768   -0.913077
C     -3.117294    2.065217    0.177501
C     -3.259872    1.026100    1.099969
C     -2.544302   -0.166124    0.936463
N     -2.700180   -1.207646    1.897897
C      1.322966   -0.395210    0.160938
C      1.929338   -0.313001   -1.108031
C      2.734007    0.781441   -1.437953
C      2.939326    1.805281   -0.510570
C      2.338777    1.737750    0.748518
C      1.533223    0.645548    1.084030
H      2.093233   -2.853794    1.040851
H      1.442874   -3.122741   -0.624402
H      0.531110   -3.716240    0.811651
H      0.096683   -1.458870    1.585994
H     -0.587537   -1.713286   -1.418042
H     -1.478452   -2.463803   -0.076188
H     -0.871905    0.639837   -1.932120
H     -2.144815    2.726950   -1.624027
H     -3.671020    2.985734    0.309802
H     -3.925192    1.149448    1.945377
H      1.772858   -1.088614   -1.846138
H      3.195416    0.837667   -2.415391
H      3.561187    2.652647   -0.768789
H      2.494724    2.534245    1.464575
H      1.068752    0.616772    2.061780
