31

C     -0.307731   -2.508511   -0.562328
C     -0.100004   -1.665724    0.706343
C     -1.339685   -0.814192    1.068745
C     -1.644359    0.290393    0.077522
C     -1.028441    1.545769    0.232803
C     -1.274216    2.574930   -0.679126
C     -2.144723    2.367633   -1.750069
C     -2.775724    1.131978   -1.908907
C     -2.534714    0.093364   -1.001412
N     -3.208433   -1.150764   -1.179293
C      1.175681   -0.836702    0.669549
C      1.927618   -0.679460    1.848859
C      3.081052    0.110256    1.857039
C      3.492046    0.762227    0.692989
C      2.747630    0.629767   -0.480578
C      1.594283   -0.159982   -0.495426
H      0.600610   -3.114036   -0.768430
H     -0.523177   -1.877853   -1.447958
H     -1.160646   -3.205217   -0.416927
H      0.010754   -2.409676    1.527615
H     -1.180661   -0.365951    2.074547
H     -2.221922   -1.480732    1.181400
H     -0.347958    1.724064    1.056474
H     -0.788446    3.534158   -0.555265
H     -2.334248    3.166493   -2.455310
H     -3.455741    0.982323   -2.738231
H      1.618393   -1.165778    2.765782
H      3.653774    0.220852    2.768767
H      4.383490    1.375960    0.702205
H      3.060264    1.145977   -1.379075
H      1.025235   -0.221566   -1.412303
