31

N      1.708678   -3.125623    0.850845
S      1.986298   -2.292025   -0.636682
O      0.717653   -2.251343   -1.440021
O      3.022741   -3.045085   -1.422897
C      2.548461   -0.644925   -0.298514
C      3.872807   -0.309276   -0.629681
C      4.370103    0.969369   -0.375068
C      3.554154    1.931700    0.214962
C      2.238364    1.618154    0.555530
C      1.718815    0.332676    0.315134
C      0.274432    0.074142    0.681365
C     -0.665271    0.594080   -0.412271
C     -2.097993    0.288271   -0.067939
C     -2.679061   -0.927015   -0.467357
C     -3.999695   -1.224629   -0.116952
C     -4.744812   -0.317341    0.641351
C     -4.169108    0.887468    1.054176
C     -2.848701    1.189002    0.706066
H      4.529593   -1.037642   -1.086578
H      5.391403    1.214379   -0.636916
H      3.941177    2.923942    0.407959
H      1.618591    2.382977    1.007889
H      0.040706    0.591580    1.638278
H      0.087419   -1.002610    0.864332
H     -0.533935    1.692640   -0.527606
H     -0.406359    0.132122   -1.389381
H     -2.109797   -1.642702   -1.047296
H     -4.444347   -2.160317   -0.430382
H     -5.766429   -0.549822    0.912826
H     -4.744880    1.586298    1.647129
H     -2.411010    2.121558    1.040356
