31

N     -1.971273    2.990215    1.302007
S     -3.073313    2.080679    0.332658
O     -3.314659    2.795998   -0.966619
O     -4.378323    1.981405    1.072003
C     -2.428858    0.459730    0.007239
C     -3.204971   -0.651874    0.380496
C     -2.776829   -1.949552    0.099553
C     -1.572820   -2.158592   -0.567447
C     -0.787809   -1.071044   -0.948024
C     -1.191137    0.247011   -0.660766
C     -0.256802    1.375674   -1.048440
C      0.808327    1.643217    0.027999
C      1.815810    0.525968    0.122946
C      2.843066    0.417340   -0.829249
C      3.756677   -0.639066   -0.762218
C      3.648893   -1.595345    0.251248
C      2.626851   -1.497273    1.199305
C      1.711995   -0.441860    1.136993
H     -4.152465   -0.520181    0.885811
H     -3.385189   -2.795259    0.393336
H     -1.244945   -3.166104   -0.788705
H      0.147403   -1.258758   -1.461421
H     -0.818768    2.310918   -1.236441
H      0.242393    1.136695   -2.013414
H      1.340329    2.586507   -0.223364
H      0.323871    1.804547    1.013698
H      2.931960    1.147413   -1.624210
H      4.546347   -0.718254   -1.498131
H      4.355524   -2.413682    0.300272
H      2.541122   -2.241373    1.980559
H      0.917594   -0.385099    1.870920
