31

N      1.850005   -3.092019    0.602417
S      2.154378   -2.098465   -0.777764
O      3.274206   -2.710244   -1.572220
O      0.929459   -2.046532   -1.645719
C      2.597528   -0.465589   -0.247995
C      3.914718   -0.026033   -0.467139
C      4.319843    1.245710   -0.060194
C      3.417452    2.097286    0.572656
C      2.106962    1.679208    0.803799
C      1.679323    0.398018    0.409015
C      0.235981    0.024941    0.663548
C     -0.674778    0.600331   -0.426801
C     -2.102494    0.183146   -0.197975
C     -2.587362   -1.015623   -0.747475
C     -3.904164   -1.419125   -0.505300
C     -4.741450   -0.635335    0.293461
C     -4.261998    0.551377    0.854946
C     -2.945778    0.958529    0.615422
H      4.637345   -0.667376   -0.954099
H      5.336799    1.571595   -0.236966
H      3.733186    3.084699    0.883957
H      1.419265    2.359257    1.291967
H      0.105009   -1.073417    0.729131
H     -0.078415    0.429467    1.651255
H     -0.337567    0.254341   -1.427682
H     -0.604166    1.710465   -0.426297
H     -1.946290   -1.636748   -1.360527
H     -4.274449   -2.341349   -0.934089
H     -5.759989   -0.949754    0.480985
H     -4.909221    1.154086    1.478894
H     -2.583338    1.875153    1.064219
