31

N     -1.722608    2.951650    1.194188
S     -2.131092    2.251819   -0.331615
O     -0.957384    2.347319   -1.264223
O     -3.273921    3.027262   -0.924979
C     -2.592941    0.555506   -0.102399
C     -3.932582    0.191521   -0.323981
C     -4.352465   -1.127416   -0.147440
C     -3.442569   -2.102517    0.254126
C     -2.109598   -1.761807    0.483701
C     -1.666300   -0.436393    0.319565
C     -0.200796   -0.146826    0.555478
C      0.631684   -0.515520   -0.677592
C      2.081496   -0.177376   -0.457402
C      2.571019    1.096283   -0.792448
C      3.910450    1.420463   -0.555251
C      4.766425    0.480761    0.025834
C      4.283319   -0.783509    0.374626
C      2.944506   -1.111795    0.139284
H     -4.661343    0.928706   -0.633990
H     -5.386768   -1.393740   -0.323328
H     -3.770014   -3.125642    0.386704
H     -1.416782   -2.536538    0.789480
H      0.154851   -0.741774    1.425882
H     -0.033917    0.915094    0.824407
H      0.528322   -1.602985   -0.887642
H      0.250799    0.024996   -1.570874
H      1.916180    1.836664   -1.234740
H      4.283992    2.401529   -0.818771
H      5.802548    0.733741    0.209952
H      4.945438   -1.508065    0.830789
H      2.580051   -2.091412    0.423018
