31

N     -2.180094    2.742258    1.563387
S     -3.194254    1.875389    0.467302
O     -4.518814    1.640460    1.138038
O     -3.424973    2.698641   -0.768446
C     -2.451426    0.327406    0.019364
C     -3.179802   -0.852368    0.253760
C     -2.671945   -2.094091   -0.128869
C     -1.434236   -2.177664   -0.760786
C     -0.695410   -1.020659   -1.004340
C     -1.179845    0.241967   -0.612471
C     -0.293977    1.448027   -0.852915
C      0.714049    1.664611    0.288039
C      1.776138    0.595414    0.320771
C      2.842731    0.630026   -0.592965
C      3.808903   -0.380736   -0.586302
C      3.715005   -1.433715    0.327819
C      2.654341   -1.478162    1.236674
C      1.686804   -0.468903    1.234560
H     -4.151307   -0.817349    0.728502
H     -3.244314   -2.993499    0.058459
H     -1.044341   -3.141660   -1.061168
H      0.267169   -1.111216   -1.492883
H      0.253217    1.327768   -1.813956
H     -0.898206    2.367543   -0.976315
H      0.184982    1.706454    1.263057
H      1.203374    2.653128    0.148761
H      2.921803    1.436285   -1.311690
H      4.628726   -0.349463   -1.292228
H      4.462463   -2.216471    0.330047
H      2.579698   -2.296898    1.940586
H      0.863543   -0.522522    1.936209
