31

N     -2.082999   -1.727269   -2.594973
S     -3.176570   -1.327457   -1.319968
O     -4.426536   -0.760708   -1.933090
O     -3.540789   -2.569577   -0.556728
C     -2.445316   -0.145636   -0.216672
C     -3.122201    1.067275    0.002444
C     -2.625417    2.010906    0.901870
C     -1.451207    1.755120    1.604742
C     -0.764281    0.558567    1.404146
C     -1.237342   -0.401684    0.489493
C     -0.404847   -1.650277    0.277071
C      0.701155   -1.439332   -0.770338
C      1.784907   -0.515235   -0.276569
C      2.759656   -0.984004    0.620007
C      3.744198   -0.118127    1.105916
C      3.760059    1.220486    0.704589
C      2.790966    1.695859   -0.183039
C      1.805528    0.833293   -0.672559
H     -4.045195    1.287167   -0.517323
H     -3.157640    2.940120    1.059768
H     -1.070203    2.486587    2.305690
H      0.149752    0.384101    1.958707
H      0.051901   -1.966831    1.240738
H     -1.038122   -2.502266   -0.037426
H      0.265493   -1.046725   -1.712880
H      1.153280   -2.425079   -1.015066
H      2.752885   -2.017092    0.944898
H      4.492985   -0.484164    1.796389
H      4.521468    1.889885    1.083489
H      2.801023    2.733975   -0.488991
H      1.053407    1.218122   -1.350177
