31

N     -2.643839   -2.472283   -1.290110
S     -3.395736   -1.551573   -0.037779
O     -3.520758   -2.390604    1.202562
O     -4.775473   -1.171377   -0.497468
C     -2.447560   -0.095782    0.323233
C     -3.083987    1.154161    0.223537
C     -2.406583    2.329381    0.549393
C     -1.086994    2.275535    0.989860
C     -0.436708    1.046962    1.097474
C     -1.094460   -0.150937    0.758563
C     -0.304689   -1.441972    0.840064
C      0.497941   -1.713489   -0.443238
C      1.642729   -0.747867   -0.614463
C      2.823959   -0.912769    0.127986
C      3.872492    0.002807   -0.004196
C      3.747883    1.090031   -0.873457
C      2.574166    1.264001   -1.611783
C      1.523765    0.350201   -1.483863
H     -4.113643    1.226139   -0.100589
H     -2.909860    3.284172    0.467418
H     -0.564914    3.188201    1.246787
H      0.591616    1.030620    1.437645
H      0.387429   -1.405761    1.710203
H     -0.970848   -2.304548    1.035065
H      0.903691   -2.747572   -0.398047
H     -0.170756   -1.672878   -1.328406
H      2.929207   -1.746550    0.811069
H      4.780505   -0.128711    0.569941
H      4.559567    1.799045   -0.972810
H      2.476679    2.109286   -2.280649
H      0.615179    0.504131   -2.052829
