      -----------------------------------------------------------      
     |                   =====================                   |     
     |                           x T B                           |     
     |                   =====================                   |     
     |                         S. Grimme                         |     
     |          Mulliken Center for Theoretical Chemistry        |     
     |                    University of Bonn                     |     
      -----------------------------------------------------------      

   * xtb version 6.7.1 (edcfbbe) compiled by 'runner@sat12-gn217-0cbadaec-b866-44ae-a866-732403219ae3-6E01A8DFFD18.local' on 2026-06-10

   xtb is free software: you can redistribute it and/or modify it under
   the terms of the GNU Lesser General Public License as published by
   the Free Software Foundation, either version 3 of the License, or
   (at your option) any later version.
   
   xtb is distributed in the hope that it will be useful,
   but WITHOUT ANY WARRANTY; without even the implied warranty of
   MERCHANTABILITY or FITNESS FOR A PARTICULAR PURPOSE.  See the
   GNU Lesser General Public License for more details.
   
   Cite this work as:
   * C. Bannwarth, E. Caldeweyher, S. Ehlert, A. Hansen, P. Pracht,
     J. Seibert, S. Spicher, S. Grimme, WIREs Comput. Mol. Sci., 2020, 11,
     e01493. DOI: 10.1002/wcms.1493
   
   for GFN2-xTB:
   * C. Bannwarth, S. Ehlert and S. Grimme., J. Chem. Theory Comput., 2019,
     15, 1652-1671. DOI: 10.1021/acs.jctc.8b01176
   for GFN1-xTB:
   * S. Grimme, C. Bannwarth, P. Shushkov, J. Chem. Theory Comput., 2017,
     13, 1989-2009. DOI: 10.1021/acs.jctc.7b00118
   for GFN0-xTB:
   * P. Pracht, E. Caldeweyher, S. Ehlert, S. Grimme, ChemRxiv, 2019, preprint.
     DOI: 10.26434/chemrxiv.8326202.v1
   for GFN-FF:
   * S. Spicher and S. Grimme, Angew. Chem. Int. Ed., 2020, 59, 15665-15673.
     DOI: 10.1002/anie.202004239
   
   for ALPB and GBSA implicit solvation:
   * S. Ehlert, M. Stahn, S. Spicher, S. Grimme, J. Chem. Theory Comput.,
     2021, 17, 4250-4261. DOI: 10.1021/acs.jctc.1c00471
   
   for ddCOSMO and CPCM-X implicit solvation:
   * M. Stahn, S. Ehlert, S. Grimme, J. Phys. Chem. A,
     2023, XX, XXXX-XXXX. DOI: 10.1021/acs.jpca.3c04382
   
   for DFT-D4:
   * E. Caldeweyher, C. Bannwarth and S. Grimme, J. Chem. Phys., 2017,
     147, 034112. DOI: 10.1063/1.4993215
   * E. Caldeweyher, S. Ehlert, A. Hansen, H. Neugebauer, S. Spicher,
     C. Bannwarth and S. Grimme, J. Chem. Phys., 2019, 150, 154122.
     DOI: 10.1063/1.5090222
   * E. Caldeweyher, J.-M. Mewes, S. Ehlert and S. Grimme, Phys. Chem. Chem. Phys.
     2020, 22, 8499-8512. DOI: 10.1039/D0CP00502A
   
   for sTDA-xTB:
   * S. Grimme and C. Bannwarth, J. Chem. Phys., 2016, 145, 054103.
     DOI: 10.1063/1.4959605
   
   in the mass-spec context:
   * V. Asgeirsson, C. Bauer and S. Grimme, Chem. Sci., 2017, 8, 4879.
     DOI: 10.1039/c7sc00601b
   * J. Koopman and S. Grimme, ACS Omega 2019, 4, 12, 15120-15133.
     DOI: 10.1021/acsomega.9b02011
   
   for metadynamics refer to:
   * S. Grimme, J. Chem. Theory Comput., 2019, 155, 2847-2862
     DOI: 10.1021/acs.jctc.9b00143
   
   for SPH calculations refer to:
   * S. Spicher and S. Grimme, J. Chem. Theory Comput., 2021, 17, 1701-1714
     DOI: 10.1021/acs.jctc.0c01306
   
   for ONIOM refer to:
   * C. Plett, A. Katbashev, S. Ehlert, S. Grimme, M. Bursch,
     Phys. Chem. Chem. Phys., 2023, 25, 17860-17868. DOI: 10.1039/D3CP02178E
   
   for DIPRO refer to:
   * J. Kohn, N. Gildemeister, S. Grimme, D. Fazzi, A. Hansen,
     J. Chem. Phys., 2023, just accepted.
   
   for PTB refer to:
   * S. Grimme, M. Mueller, A. Hansen, J. Chem. Phys., 2023, 158, 124111.
     DOI: 10.1063/5.0137838
   
   with help from (in alphabetical order)
   P. Atkinson, C. Bannwarth, F. Bohle, G. Brandenburg, E. Caldeweyher
   M. Checinski, S. Dohm, S. Ehlert, S. Ehrlich, I. Gerasimov, C. Hölzer
   A. Katbashev, J. Kohn, J. Koopman, C. Lavigne, S. Lehtola, F. März, M. Müller,
   F. Musil, H. Neugebauer, J. Pisarek, C. Plett, P. Pracht, F. Pultar,
   J. Seibert, P. Shushkov, S. Spicher, M. Stahn, M. Steiner, T. Strunk,
   J. Stückrath, T. Rose, and J. Unsleber
   
 * started run on 2026/09/07 at 18:12:13.084     
   ID    Z sym.   atoms
    1    7 N      1, 2, 24, 25, 53, 55, 110, 112, 215
    2    6 C      3-5, 7, 9-12, 14, 16-20, 22, 23, 26-28, 30, 32-35, 37,
                  39-43, 45, 46, 49-52, 54, 57, 58, 61, 65, 67, 68, 70, 71,
                  73, 77, 81, 86-89, 91, 92, 106-109, 111, 114, 115, 118,
                  122, 124, 125, 127, 128, 130, 134, 138, 143-146, 148, 149,
                  171-174, 176, 178, 182-185, 187, 189, 193-196, 198, 200,
                  204-207, 209, 211, 216-229
    3    1 H      6, 8, 13, 15, 21, 29, 31, 36, 38, 44, 56, 59, 60, 62, 63,
                  69, 72, 74-76, 78-80, 90, 93-105, 113, 116, 117, 119, 120,
                  126, 129, 131-133, 135-137, 147, 150-166, 175, 177,
                  179-181, 186, 188, 190-192, 197, 199, 201-203, 208, 210,
                  212-214, 230-242
    4   26 Fe     47
    5   17 Cl     48
    6    8 O      64, 66, 82-85, 121, 123, 139-142, 167-170

           -------------------------------------------------
          |                Calculation Setup                |
           -------------------------------------------------

          program call               : /Users/haywoodau3/Documents/genaisubstrate/.chem-env/bin/xtb input.xyz --gfnff --alpb ether --opt --input xcontrol
          coordinate file            : input.xyz
          omp threads                :                     1

          GFN-FF topology read from file successfully!
           ------------------------------------------------- 
          |                   G F N - F F                   |
          |          A general generic force-field          |
          |                  Version 1.0.3                  | 
           ------------------------------------------------- 
      * Solvation model:               ALPB
        Solvent                        ether
        Parameter file                 internal GFN-FF/ALPB
        Dielectric constant                4.3300E+00
        Reference state                gsolv [1 M gas/solution]
        Free energy shift                  6.7832E-03 Eh       4.2565E+00 kcal/mol
        Temperature                        2.9815E+02 K
        Density                            7.1300E-01 kg/L
        Solvent mass                       7.4120E+01 g/mol
        Interaction kernel             P16
        Born radius scaling (c1)           1.8092E+00
        Born radii integrator          GBOBC
        Born offset                        0.0000E+00 a0       0.0000E+00 AA
        H-bond correction              true
        Ion screening                  false
        Surface tension                    1.0000E-05 Eh       1.5569E+01 dyn/cm
        Grid points                               230 per atom
          Number of HB bonds (bound hydrogen)     207876
          Number of HB bonds (unbound hydrogen)   13032
          Number of XB bonds                      810

 E+G (total)                   0 d,  0 h,  0 min,  0.022 sec
 distance/D3 list               ...        0 min,  0.000 sec (  0.301%)
 non bonded repulsion           ...        0 min,  0.001 sec (  4.130%)
 dCN                            ...        0 min,  0.000 sec (  1.529%)
 EEQ energy and q               ...        0 min,  0.001 sec (  2.928%)
 D3                             ...        0 min,  0.001 sec (  5.543%)
 EEQ gradient                   ...        0 min,  0.000 sec (  1.877%)
 bonds                          ...        0 min,  0.001 sec (  5.214%)
 bend and torsion               ...        0 min,  0.000 sec (  0.454%)
 bonded ATM                     ...        0 min,  0.000 sec (  0.547%)
 HB/XB (incl list setup)        ...        0 min,  0.013 sec ( 58.021%)
 GBSA                           ...        0 min,  0.004 sec ( 20.710%)

         :::::::::::::::::::::::::::::::::::::::::::::::::::::
         ::                     SUMMARY                     ::
         :::::::::::::::::::::::::::::::::::::::::::::::::::::
         :: total energy             -48.010392297674 Eh    ::
         :: total w/o Gsolv          -47.859305567811 Eh    ::
         :: total w/o Gsasa/hb       -47.890022245322 Eh    ::
         :: gradient norm              0.442641203618 Eh/a0 ::
         ::.................................................::
         :: bond energy              -50.083348213462 Eh    ::
         :: angle energy               0.514773979185 Eh    ::
         :: torsion energy             0.182760944726 Eh    ::
         :: repulsion energy           3.021393398512 Eh    ::
         :: electrostat energy        -1.125690110652 Eh    ::
         :: dispersion energy         -0.310322516675 Eh    ::
         :: HB energy                 -0.018062832460 Eh    ::
         :: XB energy                 -0.000103319567 Eh    ::
         :: bonded atm energy         -0.040706897418 Eh    ::
         :: external energy            0.000000000000 Eh    ::
         :: -> Gsolv                  -0.151086729863 Eh    ::
         ::    -> Gborn               -0.030716677511 Eh    ::
         ::    -> Gsasa               -0.121135724326 Eh    ::
         ::    -> Ghb                 -0.006017539491 Eh    ::
         ::    -> Gshift               0.006783211464 Eh    ::
         :: add. restraining           0.000000000000 Eh    ::
         :: total charge              -0.000000000000 e     ::
         :::::::::::::::::::::::::::::::::::::::::::::::::::::

      ----------------------------------------------------------- 
     |                   =====================                   |
     |                        A N C O P T                        |
     |                   =====================                   |
     |               Approximate Normal Coordinate               |
     |                Rational Function Optimizer                |
      ----------------------------------------------------------- 
      ----------------------------------------------------------- 
     |                   =====================                   |
     |                        A N C O P T                        |
     |                   =====================                   |
     |               Approximate Normal Coordinate               |
     |                Rational Function Optimizer                |
      ----------------------------------------------------------- 

          ...................................................
          :                      SETUP                      :
          :.................................................:
          :   optimization level            normal          :
          :   max. optcycles                   726          :
          :   ANC micro-cycles                  20          :
          :   degrees of freedom                81          :
          :.................................................:
          :   RF solver                   davidson          :
          :   write xtbopt.log                true          :
          :   linear?                        false          :
          :   energy convergence         0.5000000E-05 Eh   :
          :   grad. convergence          0.1000000E-02 Eh/α :
          :   maxmium RF displ.          1.0000000          :
          :   Hlow (freq-cutoff)         0.1000000E-01      :
          :   Hmax (freq-cutoff)         5.0000000          :
          :   S6 in model hess.         20.0000000          :
          ...................................................

generating ANC from exact Hessian ...
Using GFN-FF Lindh-Hessian
 Shifting diagonal of input Hessian by    9.9915211858031157E-003
 Lowest  eigenvalues of input Hessian
    0.000000    0.000000    0.000000    0.000000    0.000000    0.010000
    0.000000    0.010004    0.010007    0.010012    0.010023    0.010030
    0.010041    0.010045    0.010051    0.010058    0.010071    0.010147
 Highest eigenvalues
    3.060809    3.062526    3.072567    3.076507    3.088481    4.113100


........................................................................
.............................. CYCLE    1 ..............................
........................................................................
     iter. time                 ...        0 min,  0.021 sec
 * total energy  :   -48.0103923 Eh     change        0.0000000E+00 Eh
   gradient norm :     0.1622415 Eh/α   predicted     0.0000000E+00 (   0.00%)
   displ. norm   :     0.0626067 α      lambda       -0.9775109E-02
   maximum displ.:     0.0290662 α      in ANC's #80, #62, #12, ...

........................................................................
.............................. CYCLE    2 ..............................
........................................................................
     iter. time                 ...        0 min,  0.021 sec
 * total energy  :   -48.0196794 Eh     change       -0.9287065E-02 Eh
   gradient norm :     0.1036181 Eh/α   predicted    -0.5055644E-02 ( -45.56%)
   displ. norm   :     0.1103189 α      lambda       -0.1133253E-01
   maximum displ.:     0.0527789 α      in ANC's #80, #30, #12, ...

........................................................................
.............................. CYCLE    3 ..............................
........................................................................
     iter. time                 ...        0 min,  0.021 sec
 * total energy  :   -48.0272576 Eh     change       -0.7578222E-02 Eh
   gradient norm :     0.0238092 Eh/α   predicted    -0.5735236E-02 ( -24.32%)
   displ. norm   :     0.0094130 α      lambda       -0.2211964E-03
   maximum displ.:     0.0046668 α      in ANC's #9, #37, #30, ...

........................................................................
.............................. CYCLE    4 ..............................
........................................................................
     iter. time                 ...        0 min,  0.021 sec
 * total energy  :   -48.0277071 Eh     change       -0.4495247E-03 Eh
   gradient norm :     0.0190091 Eh/α   predicted    -0.1107925E-03 ( -75.35%)
   displ. norm   :     0.0419674 α      lambda       -0.7732511E-03
   maximum displ.:     0.0213549 α      in ANC's #9, #30, #37, ...

........................................................................
.............................. CYCLE    5 ..............................
........................................................................
     iter. time                 ...        0 min,  0.021 sec
 * total energy  :   -48.0291389 Eh     change       -0.1431808E-02 Eh
   gradient norm :     0.0159265 Eh/α   predicted    -0.3873507E-03 ( -72.95%)
   displ. norm   :     0.0129577 α      lambda       -0.1186378E-03
   maximum displ.:     0.0067195 α      in ANC's #9, #81, #53, ...

........................................................................
.............................. CYCLE    6 ..............................
........................................................................
     iter. time                 ...        0 min,  0.021 sec
 * total energy  :   -48.0294154 Eh     change       -0.2764386E-03 Eh
   gradient norm :     0.0174198 Eh/α   predicted    -0.5937471E-04 ( -78.52%)
   displ. norm   :     0.1054619 α      lambda       -0.1075752E-02
   maximum displ.:     0.0525665 α      in ANC's #9, #81, #53, ...

........................................................................
.............................. CYCLE    7 ..............................
........................................................................
     iter. time                 ...        0 min,  0.021 sec
 * total energy  :   -48.0283194 Eh     change        0.1095948E-02 Eh
   gradient norm :     0.0286331 Eh/α   predicted    -0.5448848E-03 (-149.72%)
   displ. norm   :     0.1242142 α      lambda       -0.1027556E-02
   maximum displ.:     0.0591886 α      in ANC's #9, #81, #53, ...

........................................................................
.............................. CYCLE    8 ..............................
........................................................................
     iter. time                 ...        0 min,  0.021 sec
 * total energy  :   -48.0195314 Eh     change        0.8787992E-02 Eh
   gradient norm :     0.0378991 Eh/α   predicted    -0.5218423E-03 (-105.94%)
   displ. norm   :     0.2173189 α      lambda       -0.1825882E-02
   maximum displ.:     0.1052180 α      in ANC's #81, #9, #53, ...

........................................................................
.............................. CYCLE    9 ..............................
........................................................................
     iter. time                 ...        0 min,  0.021 sec
 * total energy  :   -47.9844694 Eh     change        0.3506199E-01 Eh
   gradient norm :     0.0471582 Eh/α   predicted    -0.9560887E-03 (-102.73%)
   displ. norm   :     0.2319035 α      lambda       -0.2001663E-02
   maximum displ.:     0.1219799 α      in ANC's #81, #9, #53, ...

........................................................................
.............................. CYCLE   10 ..............................
........................................................................
     iter. time                 ...        0 min,  0.021 sec
 * total energy  :   -47.9184782 Eh     change        0.6599120E-01 Eh
   gradient norm :     0.0477264 Eh/α   predicted    -0.1054687E-02 (-101.60%)
   displ. norm   :     0.1642486 α      lambda       -0.1814526E-02
   maximum displ.:     0.0969132 α      in ANC's #81, #9, #53, ...

........................................................................
.............................. CYCLE   11 ..............................
........................................................................
     iter. time                 ...        0 min,  0.021 sec
 * total energy  :   -47.8554811 Eh     change        0.6299717E-01 Eh
   gradient norm :     0.0358689 Eh/α   predicted    -0.9319542E-03 (-101.48%)
   displ. norm   :     0.0394594 α      lambda       -0.1042701E-02
   maximum displ.:     0.0263683 α      in ANC's #81, #12, #30, ...

........................................................................
.............................. CYCLE   12 ..............................
........................................................................
     iter. time                 ...        0 min,  0.021 sec
 * total energy  :   -47.8512865 Eh     change        0.4194587E-02 Eh
   gradient norm :     0.0207836 Eh/α   predicted    -0.5222741E-03 (-112.45%)
   displ. norm   :     0.0517970 α      lambda       -0.3793888E-03
   maximum displ.:     0.0238351 α      in ANC's #9, #1, #53, ...

........................................................................
.............................. CYCLE   13 ..............................
........................................................................
     iter. time                 ...        0 min,  0.021 sec
 * total energy  :   -47.8758171 Eh     change       -0.2453059E-01 Eh
   gradient norm :     0.0126360 Eh/α   predicted    -0.1907074E-03 ( -99.22%)
   displ. norm   :     0.0337549 α      lambda       -0.1311392E-03
   maximum displ.:     0.0158096 α      in ANC's #9, #81, #1, ...

........................................................................
.............................. CYCLE   14 ..............................
........................................................................
     iter. time                 ...        0 min,  0.021 sec
 * total energy  :   -47.8906546 Eh     change       -0.1483755E-01 Eh
   gradient norm :     0.0081441 Eh/α   predicted    -0.6565726E-04 ( -99.56%)
   displ. norm   :     0.0122163 α      lambda       -0.5421114E-04
   maximum displ.:     0.0061451 α      in ANC's #9, #1, #12, ...

........................................................................
.............................. CYCLE   15 ..............................
........................................................................
     iter. time                 ...        0 min,  0.021 sec
 * total energy  :   -47.8953765 Eh     change       -0.4721866E-02 Eh
   gradient norm :     0.0050757 Eh/α   predicted    -0.2713069E-04 ( -99.43%)
   displ. norm   :     0.0055008 α      lambda       -0.2316256E-04
   maximum displ.:     0.0029096 α      in ANC's #81, #12, #9, ...

........................................................................
.............................. CYCLE   16 ..............................
........................................................................
     iter. time                 ...        0 min,  0.021 sec
 * total energy  :   -47.8956937 Eh     change       -0.3172583E-03 Eh
   gradient norm :     0.0034233 Eh/α   predicted    -0.1174039E-04 ( -96.30%)
   displ. norm   :     0.0042732 α      lambda       -0.1139264E-04
   maximum displ.:     0.0023071 α      in ANC's #81, #9, #1, ...

........................................................................
.............................. CYCLE   17 ..............................
........................................................................
     iter. time                 ...        0 min,  0.021 sec
 * total energy  :   -47.8961895 Eh     change       -0.4957777E-03 Eh
   gradient norm :     0.0027361 Eh/α   predicted    -0.5740084E-05 ( -98.84%)
   displ. norm   :     0.0035128 α      lambda       -0.6629803E-05
   maximum displ.:     0.0018848 α      in ANC's #9, #81, #15, ...

........................................................................
.............................. CYCLE   18 ..............................
........................................................................
     iter. time                 ...        0 min,  0.021 sec
 * total energy  :   -47.8967581 Eh     change       -0.5686088E-03 Eh
   gradient norm :     0.0025713 Eh/α   predicted    -0.3354712E-05 ( -99.41%)
   displ. norm   :     0.0045661 α      lambda       -0.7496925E-05
   maximum displ.:     0.0024841 α      in ANC's #9, #15, #1, ...

........................................................................
.............................. CYCLE   19 ..............................
........................................................................
     iter. time                 ...        0 min,  0.021 sec
 * total energy  :   -47.8975891 Eh     change       -0.8309684E-03 Eh
   gradient norm :     0.0029402 Eh/α   predicted    -0.3779529E-05 ( -99.55%)
   displ. norm   :     0.0070501 α      lambda       -0.9966387E-05
   maximum displ.:     0.0038684 α      in ANC's #9, #15, #1, ...

........................................................................
.............................. CYCLE   20 ..............................
........................................................................
     iter. time                 ...        0 min,  0.021 sec
 * total energy  :   -47.8989341 Eh     change       -0.1344968E-02 Eh
   gradient norm :     0.0040250 Eh/α   predicted    -0.5000128E-05 ( -99.63%)
   displ. norm   :     0.0146814 α      lambda       -0.1938910E-04
   maximum displ.:     0.0082302 α      in ANC's #9, #15, #37, ...
 * RMSD in coord.:     0.0544851 α      energy gain   0.1114582E+00 Eh

generating ANC from exact Hessian ...
Using GFN-FF Lindh-Hessian
 Shifting diagonal of input Hessian by    9.9914964044515529E-003
 Lowest  eigenvalues of input Hessian
    0.000000    0.000000    0.000000    0.000000    0.000000    0.010000
    0.000000    0.010004    0.010007    0.010012    0.010024    0.010032
    0.010043    0.010046    0.010052    0.010058    0.010074    0.010150
 Highest eigenvalues
    3.061662    3.062340    3.073300    3.075755    3.224994    3.632972


........................................................................
.............................. CYCLE   21 ..............................
........................................................................
     iter. time                 ...        0 min,  0.021 sec
 * total energy  :   -47.9017330 Eh     change       -0.2798920E-02 Eh
   gradient norm :     0.0394582 Eh/α   predicted     0.0000000E+00 (-100.00%)
   displ. norm   :     0.0173562 α      lambda       -0.6747601E-03
   maximum displ.:     0.0067829 α      in ANC's #8, #11, #9, ...

........................................................................
.............................. CYCLE   22 ..............................
........................................................................
     iter. time                 ...        0 min,  0.021 sec
 * total energy  :   -47.9023405 Eh     change       -0.6074897E-03 Eh
   gradient norm :     0.0227084 Eh/α   predicted    -0.3413191E-03 ( -43.81%)
   displ. norm   :     0.0235203 α      lambda       -0.5318196E-03
   maximum displ.:     0.0097564 α      in ANC's #11, #8, #17, ...

........................................................................
.............................. CYCLE   23 ..............................
........................................................................
     iter. time                 ...        0 min,  0.021 sec
 * total energy  :   -47.9028021 Eh     change       -0.4616151E-03 Eh
   gradient norm :     0.0069397 Eh/α   predicted    -0.2661252E-03 ( -42.35%)
   displ. norm   :     0.0036943 α      lambda       -0.2106933E-04
   maximum displ.:     0.0022873 α      in ANC's #1, #11, #71, ...

........................................................................
.............................. CYCLE   24 ..............................
........................................................................
     iter. time                 ...        0 min,  0.021 sec
 * total energy  :   -47.9029441 Eh     change       -0.1420276E-03 Eh
   gradient norm :     0.0059989 Eh/α   predicted    -0.1150409E-04 ( -91.90%)
   displ. norm   :     0.0165174 α      lambda       -0.9149165E-04
   maximum displ.:     0.0122743 α      in ANC's #1, #11, #71, ...

........................................................................
.............................. CYCLE   25 ..............................
........................................................................
     iter. time                 ...        0 min,  0.021 sec
 * total energy  :   -47.9036298 Eh     change       -0.6856580E-03 Eh
   gradient norm :     0.0065642 Eh/α   predicted    -0.4579009E-04 ( -93.32%)
   displ. norm   :     0.0087053 α      lambda       -0.2801570E-04
   maximum displ.:     0.0067356 α      in ANC's #1, #11, #8, ...

........................................................................
.............................. CYCLE   26 ..............................
........................................................................
     iter. time                 ...        0 min,  0.021 sec
 * total energy  :   -47.9040583 Eh     change       -0.4285440E-03 Eh
   gradient norm :     0.0077852 Eh/α   predicted    -0.1402673E-04 ( -96.73%)
   displ. norm   :     0.0432989 α      lambda       -0.1489118E-03
   maximum displ.:     0.0322346 α      in ANC's #1, #11, #8, ...

........................................................................
.............................. CYCLE   27 ..............................
........................................................................
     iter. time                 ...        0 min,  0.021 sec
 * total energy  :   -47.9055602 Eh     change       -0.1501866E-02 Eh
   gradient norm :     0.0119976 Eh/α   predicted    -0.7465690E-04 ( -95.03%)
   displ. norm   :     0.0589303 α      lambda       -0.1749335E-03
   maximum displ.:     0.0415147 α      in ANC's #1, #11, #8, ...

........................................................................
.............................. CYCLE   28 ..............................
........................................................................
     iter. time                 ...        0 min,  0.021 sec
 * total energy  :   -47.9054731 Eh     change        0.8709966E-04 Eh
   gradient norm :     0.0137363 Eh/α   predicted    -0.8782122E-04 (-200.83%)
   displ. norm   :     0.0746159 α      lambda       -0.2155240E-03
   maximum displ.:     0.0490675 α      in ANC's #1, #11, #8, ...

........................................................................
.............................. CYCLE   29 ..............................
........................................................................
     iter. time                 ...        0 min,  0.021 sec
 * total energy  :   -47.9016965 Eh     change        0.3776593E-02 Eh
   gradient norm :     0.0105772 Eh/α   predicted    -0.1083918E-03 (-102.87%)
   displ. norm   :     0.0347773 α      lambda       -0.9955538E-04
   maximum displ.:     0.0192229 α      in ANC's #1, #11, #8, ...

........................................................................
.............................. CYCLE   30 ..............................
........................................................................
     iter. time                 ...        0 min,  0.021 sec
 * total energy  :   -47.8987511 Eh     change        0.2945368E-02 Eh
   gradient norm :     0.0049551 Eh/α   predicted    -0.4986944E-04 (-101.69%)
   displ. norm   :     0.0047503 α      lambda       -0.2167402E-04
   maximum displ.:     0.0021716 α      in ANC's #71, #1, #8, ...

........................................................................
.............................. CYCLE   31 ..............................
........................................................................
     iter. time                 ...        0 min,  0.021 sec
 * total energy  :   -47.8988270 Eh     change       -0.7588682E-04 Eh
   gradient norm :     0.0023393 Eh/α   predicted    -0.1095408E-04 ( -85.57%)
   displ. norm   :     0.0020231 α      lambda       -0.3917843E-05
   maximum displ.:     0.0014291 α      in ANC's #1, #29, #9, ...

........................................................................
.............................. CYCLE   32 ..............................
........................................................................
     iter. time                 ...        0 min,  0.021 sec
 * total energy  :   -47.8988436 Eh     change       -0.1655913E-04 Eh
   gradient norm :     0.0016501 Eh/α   predicted    -0.1999090E-05 ( -87.93%)
   displ. norm   :     0.0027841 α      lambda       -0.1898712E-05
   maximum displ.:     0.0015740 α      in ANC's #1, #29, #14, ...

........................................................................
.............................. CYCLE   33 ..............................
........................................................................
     iter. time                 ...        0 min,  0.021 sec
 * total energy  :   -47.8986630 Eh     change        0.1805462E-03 Eh
   gradient norm :     0.0015812 Eh/α   predicted    -0.1264016E-05 (-100.70%)
   displ. norm   :     0.0016352 α      lambda       -0.1288071E-05
   maximum displ.:     0.0008310 α      in ANC's #14, #71, #6, ...

........................................................................
.............................. CYCLE   34 ..............................
........................................................................
     iter. time                 ...        0 min,  0.021 sec
 * total energy  :   -47.8983581 Eh     change        0.3049273E-03 Eh
   gradient norm :     0.0015973 Eh/α   predicted    -0.6569581E-06 (-100.22%)
   displ. norm   :     0.0095750 α      lambda       -0.6611149E-05
   maximum displ.:     0.0052322 α      in ANC's #14, #6, #1, ...

........................................................................
.............................. CYCLE   35 ..............................
........................................................................
     iter. time                 ...        0 min,  0.021 sec
 * total energy  :   -47.8964275 Eh     change        0.1930606E-02 Eh
   gradient norm :     0.0028759 Eh/α   predicted    -0.3409867E-05 (-100.18%)
   displ. norm   :     0.0143117 α      lambda       -0.1226473E-04
   maximum displ.:     0.0080374 α      in ANC's #14, #1, #6, ...

........................................................................
.............................. CYCLE   36 ..............................
........................................................................
     iter. time                 ...        0 min,  0.022 sec
 * total energy  :   -47.8933142 Eh     change        0.3113256E-02 Eh
   gradient norm :     0.0042976 Eh/α   predicted    -0.6199723E-05 (-100.20%)
   displ. norm   :     0.0596563 α      lambda       -0.4767425E-04
   maximum displ.:     0.0345242 α      in ANC's #14, #17, #80, ...

........................................................................
.............................. CYCLE   37 ..............................
........................................................................
     iter. time                 ...        0 min,  0.022 sec
 * total energy  :   -47.8768585 Eh     change        0.1645570E-01 Eh
   gradient norm :     0.0088861 Eh/α   predicted    -0.2397802E-04 (-100.15%)
   displ. norm   :     0.0759606 α      lambda       -0.5084683E-04
   maximum displ.:     0.0439658 α      in ANC's #14, #17, #80, ...

........................................................................
.............................. CYCLE   38 ..............................
........................................................................
     iter. time                 ...        0 min,  0.022 sec
 * total energy  :   -47.8502507 Eh     change        0.2660786E-01 Eh
   gradient norm :     0.0122074 Eh/α   predicted    -0.2560110E-04 (-100.10%)
   displ. norm   :     0.2169075 α      lambda       -0.1550961E-03
   maximum displ.:     0.1251921 α      in ANC's #14, #17, #11, ...

........................................................................
.............................. CYCLE   39 ..............................
........................................................................
     iter. time                 ...        0 min,  0.021 sec
 * total energy  :   -47.7411822 Eh     change        0.1090685E+00 Eh
   gradient norm :     0.0170201 Eh/α   predicted    -0.8141966E-04 (-100.07%)
   displ. norm   :     0.3308528 α      lambda       -0.2407482E-03
   maximum displ.:     0.1903909 α      in ANC's #14, #17, #11, ...

........................................................................
.............................. CYCLE   40 ..............................
........................................................................
     iter. time                 ...        0 min,  0.021 sec
 * total energy  :   -47.4754100 Eh     change        0.2657722E+00 Eh
   gradient norm :     0.0181943 Eh/α   predicted    -0.1336180E-03 (-100.05%)
   displ. norm   :     0.3674368 α      lambda       -0.2903634E-03
   maximum displ.:     0.2106615 α      in ANC's #14, #17, #11, ...

........................................................................
.............................. CYCLE   41 ..............................
........................................................................
     iter. time                 ...        0 min,  0.021 sec
 * total energy  :   -47.0222890 Eh     change        0.4531210E+00 Eh
   gradient norm :     0.0120502 Eh/α   predicted    -0.1649466E-03 (-100.04%)
   displ. norm   :     0.1957549 α      lambda       -0.1360416E-03
   maximum displ.:     0.1114635 α      in ANC's #14, #17, #11, ...

........................................................................
.............................. CYCLE   42 ..............................
........................................................................
     iter. time                 ...        0 min,  0.021 sec
 * total energy  :   -46.7029337 Eh     change        0.3193553E+00 Eh
   gradient norm :     0.0032970 Eh/α   predicted    -0.7068135E-04 (-100.02%)
   displ. norm   :     0.0026360 α      lambda       -0.8266245E-05
   maximum displ.:     0.0021820 α      in ANC's #71, #9, #29, ...
 * RMSD in coord.:     0.0870548 α      energy gain   0.1196000E+01 Eh

generating ANC from exact Hessian ...
Using GFN-FF Lindh-Hessian
 Shifting diagonal of input Hessian by    9.9908078880531510E-003
 Lowest  eigenvalues of input Hessian
    0.000000    0.000000    0.000000    0.000000    0.000000    0.010000
    0.000000    0.010004    0.010006    0.010013    0.010025    0.010033
    0.010042    0.010046    0.010052    0.010056    0.010078    0.010152
 Highest eigenvalues
    3.589140    3.782235    4.533251    4.597710    5.372714    7.358251


........................................................................
.............................. CYCLE   43 ..............................
........................................................................
     iter. time                 ...        0 min,  0.021 sec
 * total energy  :   -46.7030155 Eh     change       -0.8186192E-04 Eh
   gradient norm :     0.0043492 Eh/α   predicted     0.0000000E+00 (-100.00%)
   displ. norm   :     0.0019537 α      lambda       -0.8393092E-05
   maximum displ.:     0.0011894 α      in ANC's #1, #2, #21, ...

........................................................................
.............................. CYCLE   44 ..............................
........................................................................
     iter. time                 ...        0 min,  0.021 sec
 * total energy  :   -46.7029218 Eh     change        0.9372301E-04 Eh
   gradient norm :     0.0024408 Eh/α   predicted    -0.4237462E-05 (-104.52%)
   displ. norm   :     0.0024895 α      lambda       -0.5615463E-05
   maximum displ.:     0.0014457 α      in ANC's #1, #2, #21, ...

........................................................................
.............................. CYCLE   45 ..............................
........................................................................
     iter. time                 ...        0 min,  0.021 sec
 * total energy  :   -46.7027103 Eh     change        0.2114990E-03 Eh
   gradient norm :     0.0005713 Eh/α   predicted    -0.2989576E-05 (-101.41%)
   displ. norm   :     0.0003061 α      lambda       -0.7289418E-07
   maximum displ.:     0.0001657 α      in ANC's #17, #20, #80, ...

........................................................................
.............................. CYCLE   46 ..............................
........................................................................
     iter. time                 ...        0 min,  0.021 sec
 * total energy  :   -46.7025555 Eh     change        0.1548056E-03 Eh
   gradient norm :     0.0005212 Eh/α   predicted    -0.5451485E-07 (-100.04%)
   displ. norm   :     0.0023172 α      lambda       -0.5515276E-06
   maximum displ.:     0.0014195 α      in ANC's #17, #80, #26, ...

........................................................................
.............................. CYCLE   47 ..............................
........................................................................
     iter. time                 ...        0 min,  0.021 sec
 * total energy  :   -46.7012525 Eh     change        0.1303012E-02 Eh
   gradient norm :     0.0008720 Eh/α   predicted    -0.3766659E-06 (-100.03%)
   displ. norm   :     0.0026803 α      lambda       -0.5568854E-06
   maximum displ.:     0.0016768 α      in ANC's #17, #80, #26, ...

........................................................................
.............................. CYCLE   48 ..............................
........................................................................
     iter. time                 ...        0 min,  0.021 sec
 * total energy  :   -46.6996375 Eh     change        0.1614993E-02 Eh
   gradient norm :     0.0012296 Eh/α   predicted    -0.3056103E-06 (-100.02%)
   displ. norm   :     0.0092311 α      lambda       -0.1918561E-05
   maximum displ.:     0.0059682 α      in ANC's #17, #80, #26, ...

........................................................................
.............................. CYCLE   49 ..............................
........................................................................
     iter. time                 ...        0 min,  0.021 sec
 * total energy  :   -46.6938907 Eh     change        0.5746818E-02 Eh
   gradient norm :     0.0019920 Eh/α   predicted    -0.1026514E-05 (-100.02%)
   displ. norm   :     0.0201421 α      lambda       -0.4111871E-05
   maximum displ.:     0.0131200 α      in ANC's #17, #80, #26, ...

........................................................................
.............................. CYCLE   50 ..............................
........................................................................
     iter. time                 ...        0 min,  0.021 sec
 * total energy  :   -46.6808988 Eh     change        0.1299185E-01 Eh
   gradient norm :     0.0026846 Eh/α   predicted    -0.2104799E-05 (-100.02%)
   displ. norm   :     0.0192396 α      lambda       -0.5550648E-05
   maximum displ.:     0.0126085 α      in ANC's #17, #80, #26, ...

........................................................................
.............................. CYCLE   51 ..............................
........................................................................
     iter. time                 ...        0 min,  0.021 sec
 * total energy  :   -46.6679634 Eh     change        0.1293539E-01 Eh
   gradient norm :     0.0026099 Eh/α   predicted    -0.2802304E-05 (-100.02%)
   displ. norm   :     0.0319731 α      lambda       -0.8097562E-05
   maximum displ.:     0.0210038 α      in ANC's #17, #80, #26, ...

........................................................................
.............................. CYCLE   52 ..............................
........................................................................
     iter. time                 ...        0 min,  0.021 sec
 * total energy  :   -46.6453874 Eh     change        0.2257600E-01 Eh
   gradient norm :     0.0019174 Eh/α   predicted    -0.4094310E-05 (-100.02%)
   displ. norm   :     0.0093150 α      lambda       -0.1075454E-05
   maximum displ.:     0.0061647 α      in ANC's #17, #26, #79, ...

........................................................................
.............................. CYCLE   53 ..............................
........................................................................
     iter. time                 ...        0 min,  0.021 sec
 * total energy  :   -46.6384597 Eh     change        0.6927771E-02 Eh
   gradient norm :     0.0012340 Eh/α   predicted    -0.9394133E-06 (-100.01%)
   displ. norm   :     0.0052144 α      lambda       -0.8301641E-06
   maximum displ.:     0.0030931 α      in ANC's #17, #80, #26, ...

........................................................................
.............................. CYCLE   54 ..............................
........................................................................
     iter. time                 ...        0 min,  0.021 sec
 * total energy  :   -46.6418180 Eh     change       -0.3358307E-02 Eh
   gradient norm :     0.0011416 Eh/α   predicted    -0.5490508E-06 ( -99.98%)
   displ. norm   :     0.0039882 α      lambda       -0.2341843E-06
   maximum displ.:     0.0022763 α      in ANC's #17, #80, #26, ...

........................................................................
.............................. CYCLE   55 ..............................
........................................................................
     iter. time                 ...        0 min,  0.021 sec
 * total energy  :   -46.6441805 Eh     change       -0.2362589E-02 Eh
   gradient norm :     0.0011960 Eh/α   predicted    -0.3402131E-06 ( -99.99%)
   displ. norm   :     0.0087576 α      lambda       -0.1878385E-05
   maximum displ.:     0.0048541 α      in ANC's #80, #17, #22, ...

........................................................................
.............................. CYCLE   56 ..............................
........................................................................
     iter. time                 ...        0 min,  0.021 sec
 * total energy  :   -46.6483183 Eh     change       -0.4137774E-02 Eh
   gradient norm :     0.0013454 Eh/α   predicted    -0.1009645E-05 ( -99.98%)
   displ. norm   :     0.0111195 α      lambda       -0.3297972E-05
   maximum displ.:     0.0069777 α      in ANC's #17, #26, #79, ...

........................................................................
.............................. CYCLE   57 ..............................
........................................................................
     iter. time                 ...        0 min,  0.021 sec
 * total energy  :   -46.6395438 Eh     change        0.8774512E-02 Eh
   gradient norm :     0.0020242 Eh/α   predicted    -0.1665197E-05 (-100.02%)
   displ. norm   :     0.0508863 α      lambda       -0.1913829E-04
   maximum displ.:     0.0336392 α      in ANC's #17, #26, #79, ...

........................................................................
.............................. CYCLE   58 ..............................
........................................................................
     iter. time                 ...        0 min,  0.022 sec
 * total energy  :   -46.5963827 Eh     change        0.4316111E-01 Eh
   gradient norm :     0.0036009 Eh/α   predicted    -0.9589405E-05 (-100.02%)
   displ. norm   :     0.1676241 α      lambda       -0.5140088E-04
   maximum displ.:     0.1119989 α      in ANC's #17, #26, #79, ...

........................................................................
.............................. CYCLE   59 ..............................
........................................................................
     iter. time                 ...        0 min,  0.021 sec
 * total energy  :   -46.4292333 Eh     change        0.1671494E+00 Eh
   gradient norm :     0.0069930 Eh/α   predicted    -0.2626373E-04 (-100.02%)
   displ. norm   :     0.1889163 α      lambda       -0.4563139E-04
   maximum displ.:     0.1272477 α      in ANC's #17, #26, #79, ...

........................................................................
.............................. CYCLE   60 ..............................
........................................................................
     iter. time                 ...        0 min,  0.021 sec
 * total energy  :   -46.1931943 Eh     change        0.2360391E+00 Eh
   gradient norm :     0.0085508 Eh/α   predicted    -0.2337351E-04 (-100.01%)
   displ. norm   :     0.3949015 α      lambda       -0.1046306E-03
   maximum displ.:     0.2670309 α      in ANC's #17, #26, #79, ...

........................................................................
.............................. CYCLE   61 ..............................
........................................................................
     iter. time                 ...        0 min,  0.021 sec
 * total energy  :   -45.5266555 Eh     change        0.6665387E+00 Eh
   gradient norm :     0.0082050 Eh/α   predicted    -0.5815955E-04 (-100.01%)
   displ. norm   :     0.4230237 α      lambda       -0.1016595E-03
   maximum displ.:     0.2867966 α      in ANC's #17, #26, #79, ...

........................................................................
.............................. CYCLE   62 ..............................
........................................................................
     iter. time                 ...        0 min,  0.021 sec
 * total energy  :   -44.5382475 Eh     change        0.9884080E+00 Eh
   gradient norm :     0.0042995 Eh/α   predicted    -0.5781622E-04 (-100.01%)
   displ. norm   :     0.2815786 α      lambda       -0.3404510E-04
   maximum displ.:     0.1910835 α      in ANC's #17, #26, #79, ...

........................................................................
.............................. CYCLE   63 ..............................
........................................................................
     iter. time                 ...        0 min,  0.021 sec
 * total energy  :   -43.7150439 Eh     change        0.8232035E+00 Eh
   gradient norm :     0.0020985 Eh/α   predicted    -0.1807674E-04 (-100.00%)
   displ. norm   :     0.1301310 α      lambda       -0.5417988E-05
   maximum displ.:     0.0880760 α      in ANC's #17, #26, #79, ...

........................................................................
.............................. CYCLE   64 ..............................
........................................................................
     iter. time                 ...        0 min,  0.021 sec
 * total energy  :   -43.2880474 Eh     change        0.4269965E+00 Eh
   gradient norm :     0.0020644 Eh/α   predicted    -0.2815955E-05 (-100.00%)
   displ. norm   :     0.1135856 α      lambda       -0.3840622E-05
   maximum displ.:     0.0769987 α      in ANC's #17, #26, #79, ...

........................................................................
.............................. CYCLE   65 ..............................
........................................................................
     iter. time                 ...        0 min,  0.021 sec
 * total energy  :   -42.8881739 Eh     change        0.3998735E+00 Eh
   gradient norm :     0.0018344 Eh/α   predicted    -0.1993003E-05 (-100.00%)
   displ. norm   :     0.1727786 α      lambda       -0.4993907E-05
   maximum displ.:     0.1167612 α      in ANC's #17, #26, #79, ...

........................................................................
.............................. CYCLE   66 ..............................
........................................................................
     iter. time                 ...        0 min,  0.021 sec
 * total energy  :   -42.2306250 Eh     change        0.6575490E+00 Eh
   gradient norm :     0.0019333 Eh/α   predicted    -0.2610009E-05 (-100.00%)
   displ. norm   :     0.0657602 α      lambda       -0.1849933E-05
   maximum displ.:     0.0441958 α      in ANC's #17, #26, #79, ...
 * RMSD in coord.:     0.1248106 α      energy gain   0.4472309E+01 Eh

generating ANC from exact Hessian ...
Using GFN-FF Lindh-Hessian
 Shifting diagonal of input Hessian by    9.9928032431004839E-003
 Lowest  eigenvalues of input Hessian
    0.000000    0.000000    0.000000    0.000000    0.000000    0.010000
    0.000000    0.010005    0.010008    0.010011    0.010020    0.010032
    0.010042    0.010043    0.010051    0.010056    0.010065    0.010141
 Highest eigenvalues
    6.063468    6.245704    7.912118    8.393124   31.385727   54.153609


........................................................................
.............................. CYCLE   67 ..............................
........................................................................
     iter. time                 ...        0 min,  0.021 sec
 * total energy  :   -42.4909965 Eh     change       -0.2603716E+00 Eh
   gradient norm :     0.0043079 Eh/α   predicted     0.0000000E+00 (-100.00%)
   displ. norm   :     0.0016968 α      lambda       -0.6539437E-05
   maximum displ.:     0.0011239 α      in ANC's #19, #7, #45, ...

........................................................................
.............................. CYCLE   68 ..............................
........................................................................
     iter. time                 ...        0 min,  0.022 sec
 * total energy  :   -42.4907199 Eh     change        0.2766018E-03 Eh
   gradient norm :     0.0032986 Eh/α   predicted    -0.3593514E-05 (-101.30%)
   displ. norm   :     0.0052750 α      lambda       -0.1648841E-04
   maximum displ.:     0.0035122 α      in ANC's #19, #7, #45, ...

........................................................................
.............................. CYCLE   69 ..............................
........................................................................
     iter. time                 ...        0 min,  0.021 sec
 * total energy  :   -42.4893062 Eh     change        0.1413706E-02 Eh
   gradient norm :     0.0028281 Eh/α   predicted    -0.8477586E-05 (-100.60%)
   displ. norm   :     0.0024480 α      lambda       -0.4195164E-05
   maximum displ.:     0.0013785 α      in ANC's #13, #19, #73, ...

........................................................................
.............................. CYCLE   70 ..............................
........................................................................
     iter. time                 ...        0 min,  0.021 sec
 * total energy  :   -42.4881786 Eh     change        0.1127678E-02 Eh
   gradient norm :     0.0032503 Eh/α   predicted    -0.2119271E-05 (-100.19%)
   displ. norm   :     0.0192492 α      lambda       -0.3577976E-04
   maximum displ.:     0.0122565 α      in ANC's #13, #19, #73, ...

........................................................................
.............................. CYCLE   71 ..............................
........................................................................
     iter. time                 ...        0 min,  0.021 sec
 * total energy  :   -42.4782374 Eh     change        0.9941191E-02 Eh
   gradient norm :     0.0061831 Eh/α   predicted    -0.1791140E-04 (-100.18%)
   displ. norm   :     0.0353737 α      lambda       -0.5615094E-04
   maximum displ.:     0.0240281 α      in ANC's #13, #19, #73, ...

........................................................................
.............................. CYCLE   72 ..............................
........................................................................
     iter. time                 ...        0 min,  0.021 sec
 * total energy  :   -42.4583154 Eh     change        0.1992193E-01 Eh
   gradient norm :     0.0096902 Eh/α   predicted    -0.2812536E-04 (-100.14%)
   displ. norm   :     0.0944053 α      lambda       -0.1467360E-03
   maximum displ.:     0.0661678 α      in ANC's #13, #19, #73, ...

........................................................................
.............................. CYCLE   73 ..............................
........................................................................
     iter. time                 ...        0 min,  0.021 sec
 * total energy  :   -42.3993612 Eh     change        0.5895426E-01 Eh
   gradient norm :     0.0152349 Eh/α   predicted    -0.7423560E-04 (-100.13%)
   displ. norm   :     0.1847395 α      lambda       -0.2772734E-03
   maximum displ.:     0.1320237 α      in ANC's #13, #19, #73, ...

........................................................................
.............................. CYCLE   74 ..............................
........................................................................
     iter. time                 ...        0 min,  0.021 sec
 * total energy  :   -42.2624956 Eh     change        0.1368656E+00 Eh
   gradient norm :     0.0205813 Eh/α   predicted    -0.1436912E-03 (-100.10%)
   displ. norm   :     0.3013499 α      lambda       -0.4590967E-03
   maximum displ.:     0.2183691 α      in ANC's #13, #19, #73, ...

........................................................................
.............................. CYCLE   75 ..............................
........................................................................
     iter. time                 ...        0 min,  0.021 sec
 * total energy  :   -41.9729915 Eh     change        0.2895041E+00 Eh
   gradient norm :     0.0218804 Eh/α   predicted    -0.2508947E-03 (-100.09%)
   displ. norm   :     0.3215172 α      lambda       -0.4951676E-03
   maximum displ.:     0.2358821 α      in ANC's #13, #19, #73, ...

........................................................................
.............................. CYCLE   76 ..............................
........................................................................
     iter. time                 ...        0 min,  0.021 sec
 * total energy  :   -41.5449311 Eh     change        0.4280604E+00 Eh
   gradient norm :     0.0150630 Eh/α   predicted    -0.2731625E-03 (-100.06%)
   displ. norm   :     0.1628828 α      lambda       -0.2120432E-03
   maximum displ.:     0.1210677 α      in ANC's #13, #73, #19, ...

........................................................................
.............................. CYCLE   77 ..............................
........................................................................
     iter. time                 ...        0 min,  0.021 sec
 * total energy  :   -41.2667652 Eh     change        0.2781659E+00 Eh
   gradient norm :     0.0061158 Eh/α   predicted    -0.1090022E-03 (-100.04%)
   displ. norm   :     0.0078104 α      lambda       -0.2527825E-04
   maximum displ.:     0.0055664 α      in ANC's #13, #14, #50, ...

........................................................................
.............................. CYCLE   78 ..............................
........................................................................
     iter. time                 ...        0 min,  0.021 sec
 * total energy  :   -41.2554953 Eh     change        0.1126999E-01 Eh
   gradient norm :     0.0024332 Eh/α   predicted    -0.1267590E-04 (-100.11%)
   displ. norm   :     0.0031396 α      lambda       -0.3519337E-05
   maximum displ.:     0.0020353 α      in ANC's #13, #14, #73, ...

........................................................................
.............................. CYCLE   79 ..............................
........................................................................
     iter. time                 ...        0 min,  0.021 sec
 * total energy  :   -41.2510928 Eh     change        0.4402489E-02 Eh
   gradient norm :     0.0012839 Eh/α   predicted    -0.1892980E-05 (-100.04%)
   displ. norm   :     0.0204362 α      lambda       -0.1319296E-05
   maximum displ.:     0.0149541 α      in ANC's #13, #19, #73, ...

........................................................................
.............................. CYCLE   80 ..............................
........................................................................
     iter. time                 ...        0 min,  0.021 sec
 * total energy  :   -41.2867907 Eh     change       -0.3569798E-01 Eh
   gradient norm :     0.0012412 Eh/α   predicted    -0.8348008E-06 (-100.00%)
   displ. norm   :     0.0035276 α      lambda       -0.5788178E-06
   maximum displ.:     0.0025486 α      in ANC's #13, #1, #19, ...

........................................................................
.............................. CYCLE   81 ..............................
........................................................................
     iter. time                 ...        0 min,  0.021 sec
 * total energy  :   -41.2931119 Eh     change       -0.6321174E-02 Eh
   gradient norm :     0.0011929 Eh/α   predicted    -0.3042486E-06 (-100.00%)
   displ. norm   :     0.0493174 α      lambda       -0.1739227E-04
   maximum displ.:     0.0309697 α      in ANC's #13, #1, #5, ...

........................................................................
.............................. CYCLE   82 ..............................
........................................................................
     iter. time                 ...        0 min,  0.021 sec
 * total energy  :   -41.3779458 Eh     change       -0.8483392E-01 Eh
   gradient norm :     0.0029952 Eh/α   predicted    -0.9044886E-05 ( -99.99%)
   displ. norm   :     0.0473768 α      lambda       -0.3000778E-04
   maximum displ.:     0.0341219 α      in ANC's #1, #13, #5, ...

........................................................................
.............................. CYCLE   83 ..............................
........................................................................
     iter. time                 ...        0 min,  0.021 sec
 * total energy  :   -41.4367335 Eh     change       -0.5878767E-01 Eh
   gradient norm :     0.0051577 Eh/α   predicted    -0.1607932E-04 ( -99.97%)
   displ. norm   :     0.1892123 α      lambda       -0.1292146E-03
   maximum displ.:     0.1381960 α      in ANC's #1, #5, #8, ...

........................................................................
.............................. CYCLE   84 ..............................
........................................................................
     iter. time                 ...        0 min,  0.021 sec
 * total energy  :   -41.5892390 Eh     change       -0.1525055E+00 Eh
   gradient norm :     0.0119950 Eh/α   predicted    -0.6715921E-04 ( -99.96%)
   displ. norm   :     0.2209967 α      lambda       -0.1308926E-03
   maximum displ.:     0.1545623 α      in ANC's #1, #73, #5, ...

........................................................................
.............................. CYCLE   85 ..............................
........................................................................
     iter. time                 ...        0 min,  0.021 sec
 * total energy  :   -41.6600194 Eh     change       -0.7078043E-01 Eh
   gradient norm :     0.0165786 Eh/α   predicted    -0.6858635E-04 ( -99.90%)
   displ. norm   :     0.5076782 α      lambda       -0.3400625E-03
   maximum displ.:     0.3340356 α      in ANC's #1, #73, #69, ...

........................................................................
.............................. CYCLE   86 ..............................
........................................................................
     iter. time                 ...        0 min,  0.021 sec
 * total energy  :   -41.5975840 Eh     change        0.6243538E-01 Eh
   gradient norm :     0.0209967 Eh/α   predicted    -0.2130469E-03 (-100.34%)
   displ. norm   :     0.6868977 α      lambda       -0.5499971E-03
   maximum displ.:     0.4196095 α      in ANC's #1, #73, #69, ...

........................................................................
.............................. CYCLE   87 ..............................
........................................................................
     iter. time                 ...        0 min,  0.021 sec
 * total energy  :   -40.8015536 Eh     change        0.7960305E+00 Eh
   gradient norm :     0.0187119 Eh/α   predicted    -0.4024011E-03 (-100.05%)
   displ. norm   :     0.7143106 α      lambda       -0.6997859E-03
   maximum displ.:     0.3843222 α      in ANC's #1, #73, #69, ...

........................................................................
.............................. CYCLE   88 ..............................
........................................................................
     iter. time                 ...        0 min,  0.021 sec
 * total energy  :   -37.8326098 Eh     change        0.2968944E+01 Eh
   gradient norm :     0.0063889 Eh/α   predicted    -0.5249902E-03 (-100.02%)
   displ. norm   :     0.7790688 α      lambda       -0.4438444E-03
   maximum displ.:     0.4196460 α      in ANC's #1, #73, #69, ...

........................................................................
.............................. CYCLE   89 ..............................
........................................................................
     iter. time                 ...        0 min,  0.021 sec
 * total energy  :   -28.9443219 Eh     change        0.8888288E+01 Eh
   gradient norm :     0.0058756 Eh/α   predicted    -0.3540731E-03 (-100.00%)
   displ. norm   :     0.7511067 α      lambda       -0.2942706E-03
   maximum displ.:     0.4052080 α      in ANC's #1, #73, #69, ...

........................................................................
.............................. CYCLE   90 ..............................
........................................................................
     iter. time                 ...        0 min,  0.021 sec
 * total energy  :    -5.9878737 Eh     change        0.2295645E+02 Eh
   gradient norm :     0.0074066 Eh/α   predicted    -0.2285483E-03 (-100.00%)
   displ. norm   :     0.6061219 α      lambda       -0.1683899E-03
   maximum displ.:     0.3275487 α      in ANC's #1, #73, #69, ...

........................................................................
.............................. CYCLE   91 ..............................
........................................................................
     iter. time                 ...        0 min,  0.022 sec
 * total energy  :    40.9353003 Eh     change        0.4692317E+02 Eh
   gradient norm :     0.0052875 Eh/α   predicted    -0.1145920E-03 (-100.00%)
   displ. norm   :     0.2321649 α      lambda       -0.4404310E-04
   maximum displ.:     0.1594698 α      in ANC's #1, #73, #69, ...

........................................................................
.............................. CYCLE   92 ..............................
........................................................................
     iter. time                 ...        0 min,  0.021 sec
 * total energy  :    67.2404871 Eh     change        0.2630519E+02 Eh
   gradient norm :     0.0034460 Eh/α   predicted    -0.2359595E-04 (-100.00%)
   displ. norm   :     0.1120089 α      lambda       -0.2903044E-04
   maximum displ.:     0.0785881 α      in ANC's #13, #1, #19, ...
 * RMSD in coord.:     0.3266609 α      energy gain   0.1094711E+03 Eh

generating ANC from exact Hessian ...
Using GFN-FF Lindh-Hessian
 Shifting diagonal of input Hessian by    1.0013078210626416E-002
 Lowest  eigenvalues of input Hessian
    0.010000    0.000000    0.000000    0.000000    0.000000    0.000000
    0.010019    0.010023    0.000000    0.010027    0.010031    0.010034
    0.010044    0.010048    0.010056    0.010063    0.010068    0.010082
 Highest eigenvalues
   41.214768   44.458605  323.559397  443.407682  696.94708060832.786115


........................................................................
.............................. CYCLE   93 ..............................
........................................................................
     iter. time                 ...        0 min,  0.021 sec
 * total energy  :    58.7371955 Eh     change       -0.8503292E+01 Eh
   gradient norm :     0.0066501 Eh/α   predicted     0.0000000E+00 (-100.00%)
   displ. norm   :     0.0021543 α      lambda       -0.1216841E-04
   maximum displ.:     0.0011873 α      in ANC's #7, #20, #3, ...

........................................................................
.............................. CYCLE   94 ..............................
........................................................................
     iter. time                 ...        0 min,  0.021 sec
 * total energy  :    58.7375305 Eh     change        0.3350541E-03 Eh
   gradient norm :     0.0058265 Eh/α   predicted    -0.7014982E-05 (-102.09%)
   displ. norm   :     0.0135921 α      lambda       -0.6623568E-04
   maximum displ.:     0.0064791 α      in ANC's #20, #3, #7, ...

........................................................................
.............................. CYCLE   95 ..............................
........................................................................
     iter. time                 ...        0 min,  0.021 sec
 * total energy  :    58.7398783 Eh     change        0.2347772E-02 Eh
   gradient norm :     0.0077051 Eh/α   predicted    -0.3842557E-04 (-101.64%)
   displ. norm   :     0.0093312 α      lambda       -0.3275096E-04
   maximum displ.:     0.0050396 α      in ANC's #20, #3, #50, ...

........................................................................
.............................. CYCLE   96 ..............................
........................................................................
     iter. time                 ...        0 min,  0.021 sec
 * total energy  :    58.7415663 Eh     change        0.1687989E-02 Eh
   gradient norm :     0.0097490 Eh/α   predicted    -0.1648818E-04 (-100.98%)
   displ. norm   :     0.0559774 α      lambda       -0.2126548E-03
   maximum displ.:     0.0308904 α      in ANC's #20, #3, #50, ...

........................................................................
.............................. CYCLE   97 ..............................
........................................................................
     iter. time                 ...        0 min,  0.021 sec
 * total energy  :    58.7469630 Eh     change        0.5396726E-02 Eh
   gradient norm :     0.0177576 Eh/α   predicted    -0.1067649E-03 (-101.98%)
   displ. norm   :     0.0968799 α      lambda       -0.3259588E-03
   maximum displ.:     0.0537748 α      in ANC's #20, #3, #50, ...

........................................................................
.............................. CYCLE   98 ..............................
........................................................................
     iter. time                 ...        0 min,  0.021 sec
 * total energy  :    58.7350456 Eh     change       -0.1191742E-01 Eh
   gradient norm :     0.0242416 Eh/α   predicted    -0.1645622E-03 ( -98.62%)
   displ. norm   :     0.1695857 α      lambda       -0.5628936E-03
   maximum displ.:     0.0939552 α      in ANC's #20, #3, #50, ...

........................................................................
.............................. CYCLE   99 ..............................
........................................................................
     iter. time                 ...        0 min,  0.021 sec
 * total energy  :    58.6482878 Eh     change       -0.8675780E-01 Eh
   gradient norm :     0.0249574 Eh/α   predicted    -0.2896949E-03 ( -99.67%)
   displ. norm   :     0.1408344 α      lambda       -0.4564281E-03
   maximum displ.:     0.0771563 α      in ANC's #20, #3, #50, ...

........................................................................
.............................. CYCLE  100 ..............................
........................................................................
     iter. time                 ...        0 min,  0.021 sec
 * total energy  :    58.5137876 Eh     change       -0.1345002E+00 Eh
   gradient norm :     0.0149045 Eh/α   predicted    -0.2329450E-03 ( -99.83%)
   displ. norm   :     0.0341962 α      lambda       -0.1523010E-03
   maximum displ.:     0.0175743 α      in ANC's #3, #20, #50, ...

........................................................................
.............................. CYCLE  101 ..............................
........................................................................
     iter. time                 ...        0 min,  0.021 sec
 * total energy  :    58.4739209 Eh     change       -0.3986671E-01 Eh
   gradient norm :     0.0052890 Eh/α   predicted    -0.7626841E-04 ( -99.81%)
   displ. norm   :     0.0136010 α      lambda       -0.1857431E-04
   maximum displ.:     0.0082777 α      in ANC's #20, #3, #50, ...

........................................................................
.............................. CYCLE  102 ..............................
........................................................................
     iter. time                 ...        0 min,  0.021 sec
 * total energy  :    58.4894003 Eh     change        0.1547931E-01 Eh
   gradient norm :     0.0040036 Eh/α   predicted    -0.1046873E-04 (-100.07%)
   displ. norm   :     0.0111806 α      lambda       -0.8413150E-05
   maximum displ.:     0.0073001 α      in ANC's #20, #3, #50, ...

........................................................................
.............................. CYCLE  103 ..............................
........................................................................
     iter. time                 ...        0 min,  0.021 sec
 * total energy  :    58.5018383 Eh     change        0.1243808E-01 Eh
   gradient norm :     0.0042272 Eh/α   predicted    -0.4280682E-05 (-100.03%)
   displ. norm   :     0.0218203 α      lambda       -0.2370789E-04
   maximum displ.:     0.0157028 α      in ANC's #20, #3, #50, ...

........................................................................
.............................. CYCLE  104 ..............................
........................................................................
     iter. time                 ...        0 min,  0.021 sec
 * total energy  :    58.5236700 Eh     change        0.2183165E-01 Eh
   gradient norm :     0.0052380 Eh/α   predicted    -0.1188564E-04 (-100.05%)
   displ. norm   :     0.0272220 α      lambda       -0.4741245E-04
   maximum displ.:     0.0218900 α      in ANC's #20, #3, #11, ...

........................................................................
.............................. CYCLE  105 ..............................
........................................................................
     iter. time                 ...        0 min,  0.021 sec
 * total energy  :    58.5421077 Eh     change        0.1843771E-01 Eh
   gradient norm :     0.0072556 Eh/α   predicted    -0.2439006E-04 (-100.13%)
   displ. norm   :     0.0567998 α      lambda       -0.1354323E-03
   maximum displ.:     0.0438518 α      in ANC's #20, #50, #3, ...

........................................................................
.............................. CYCLE  106 ..............................
........................................................................
     iter. time                 ...        0 min,  0.021 sec
 * total energy  :    58.5512135 Eh     change        0.9105792E-02 Eh
   gradient norm :     0.0111902 Eh/α   predicted    -0.6815478E-04 (-100.75%)
   displ. norm   :     0.1066868 α      lambda       -0.2581747E-03
   maximum displ.:     0.0654258 α      in ANC's #20, #50, #51, ...

........................................................................
.............................. CYCLE  107 ..............................
........................................................................
     iter. time                 ...        0 min,  0.022 sec
 * total energy  :    58.4757932 Eh     change       -0.7542026E-01 Eh
   gradient norm :     0.0153030 Eh/α   predicted    -0.1317641E-03 ( -99.83%)
   displ. norm   :     0.1870095 α      lambda       -0.4122426E-03
   maximum displ.:     0.1303729 α      in ANC's #50, #20, #51, ...

........................................................................
.............................. CYCLE  108 ..............................
........................................................................
     iter. time                 ...        0 min,  0.021 sec
 * total energy  :    58.0974094 Eh     change       -0.3783838E+00 Eh
   gradient norm :     0.0162025 Eh/α   predicted    -0.2157850E-03 ( -99.94%)
   displ. norm   :     0.2033660 α      lambda       -0.3673354E-03
   maximum displ.:     0.1510150 α      in ANC's #50, #51, #20, ...

........................................................................
.............................. CYCLE  109 ..............................
........................................................................
     iter. time                 ...        0 min,  0.021 sec
 * total energy  :    57.3767187 Eh     change       -0.7206907E+00 Eh
   gradient norm :     0.0107118 Eh/α   predicted    -0.1914789E-03 ( -99.97%)
   displ. norm   :     0.0940438 α      lambda       -0.1070579E-03
   maximum displ.:     0.0715835 α      in ANC's #50, #51, #41, ...

........................................................................
.............................. CYCLE  110 ..............................
........................................................................
     iter. time                 ...        0 min,  0.021 sec
 * total energy  :    56.9502820 Eh     change       -0.4264367E+00 Eh
   gradient norm :     0.0047967 Eh/α   predicted    -0.5449304E-04 ( -99.99%)
   displ. norm   :     0.0109154 α      lambda       -0.1262220E-04
   maximum displ.:     0.0082881 α      in ANC's #50, #51, #41, ...

........................................................................
.............................. CYCLE  111 ..............................
........................................................................
     iter. time                 ...        0 min,  0.021 sec
 * total energy  :    56.8967892 Eh     change       -0.5349285E-01 Eh
   gradient norm :     0.0026926 Eh/α   predicted    -0.6825176E-05 ( -99.99%)
   displ. norm   :     0.0080855 α      lambda       -0.6013396E-05
   maximum displ.:     0.0051706 α      in ANC's #50, #20, #51, ...

........................................................................
.............................. CYCLE  112 ..............................
........................................................................
     iter. time                 ...        0 min,  0.021 sec
 * total energy  :    56.9259955 Eh     change        0.2920629E-01 Eh
   gradient norm :     0.0022450 Eh/α   predicted    -0.3060202E-05 (-100.01%)
   displ. norm   :     0.0067659 α      lambda       -0.4242509E-05
   maximum displ.:     0.0040014 α      in ANC's #50, #20, #51, ...

........................................................................
.............................. CYCLE  113 ..............................
........................................................................
     iter. time                 ...        0 min,  0.021 sec
 * total energy  :    56.9467618 Eh     change        0.2076631E-01 Eh
   gradient norm :     0.0026042 Eh/α   predicted    -0.2135419E-05 (-100.01%)
   displ. norm   :     0.0108727 α      lambda       -0.8660179E-05
   maximum displ.:     0.0061065 α      in ANC's #20, #50, #3, ...

........................................................................
.............................. CYCLE  114 ..............................
........................................................................
     iter. time                 ...        0 min,  0.022 sec
 * total energy  :    56.9709884 Eh     change        0.2422661E-01 Eh
   gradient norm :     0.0036864 Eh/α   predicted    -0.4341729E-05 (-100.02%)
   displ. norm   :     0.0151826 α      lambda       -0.1849926E-04
   maximum displ.:     0.0119943 α      in ANC's #3, #20, #50, ...

........................................................................
.............................. CYCLE  115 ..............................
........................................................................
     iter. time                 ...        0 min,  0.021 sec
 * total energy  :    56.9665645 Eh     change       -0.4423916E-02 Eh
   gradient norm :     0.0057021 Eh/α   predicted    -0.9268787E-05 ( -99.79%)
   displ. norm   :     0.0393097 α      lambda       -0.4692965E-04
   maximum displ.:     0.0331102 α      in ANC's #3, #20, #36, ...

........................................................................
.............................. CYCLE  116 ..............................
........................................................................
     iter. time                 ...        0 min,  0.022 sec
 * total energy  :    56.9311642 Eh     change       -0.3540030E-01 Eh
   gradient norm :     0.0090314 Eh/α   predicted    -0.2353270E-04 ( -99.93%)
   displ. norm   :     0.0756226 α      lambda       -0.9501438E-04
   maximum displ.:     0.0629628 α      in ANC's #3, #20, #50, ...

........................................................................
.............................. CYCLE  117 ..............................
........................................................................
     iter. time                 ...        0 min,  0.021 sec
 * total energy  :    56.5887541 Eh     change       -0.3424101E+00 Eh
   gradient norm :     0.0138496 Eh/α   predicted    -0.4855836E-04 ( -99.99%)
   displ. norm   :     0.2300343 α      lambda       -0.2821161E-03
   maximum displ.:     0.1737583 α      in ANC's #3, #50, #51, ...

........................................................................
.............................. CYCLE  118 ..............................
........................................................................
     iter. time                 ...        0 min,  0.021 sec
 * total energy  :    55.0787242 Eh     change       -0.1510030E+01 Eh
   gradient norm :     0.0225142 Eh/α   predicted    -0.1488361E-03 ( -99.99%)
   displ. norm   :     0.4608188 α      lambda       -0.5601941E-03
   maximum displ.:     0.3251402 α      in ANC's #3, #50, #51, ...

........................................................................
.............................. CYCLE  119 ..............................
........................................................................
     iter. time                 ...        0 min,  0.021 sec
 * total energy  :    51.8718232 Eh     change       -0.3206901E+01 Eh
   gradient norm :     0.0311228 Eh/α   predicted    -0.3397470E-03 ( -99.99%)
   displ. norm   :     0.6820828 α      lambda       -0.9851798E-03
   maximum displ.:     0.4603432 α      in ANC's #3, #50, #51, ...

........................................................................
.............................. CYCLE  120 ..............................
........................................................................
     iter. time                 ...        0 min,  0.021 sec
 * total energy  :    48.6266567 Eh     change       -0.3245166E+01 Eh
   gradient norm :     0.0324446 Eh/α   predicted    -0.7210871E-03 ( -99.98%)
   displ. norm   :     0.7136702 α      lambda       -0.1445629E-02
   maximum displ.:     0.4539289 α      in ANC's #3, #50, #51, ...
 * RMSD in coord.:     0.1712167 α      energy gain  -0.1861383E+02 Eh

generating ANC from exact Hessian ...
Using GFN-FF Lindh-Hessian
 Shifting diagonal of input Hessian by    1.0013213578942880E-002
 Lowest  eigenvalues of input Hessian
    0.010000    0.000000    0.000000    0.000000    0.000000    0.000000
    0.010018    0.010023    0.000000    0.010027    0.010031    0.010034
    0.010044    0.010048    0.010055    0.010060    0.010066    0.010078
 Highest eigenvalues
   39.044109   43.582111   51.873179  323.286039  492.423883 1613.202411


........................................................................
.............................. CYCLE  121 ..............................
........................................................................
     iter. time                 ...        0 min,  0.022 sec
 * total energy  :    47.0911309 Eh     change       -0.1535526E+01 Eh
   gradient norm :     0.0199033 Eh/α   predicted     0.0000000E+00 (-100.00%)
   displ. norm   :     0.0071472 α      lambda       -0.1384318E-03
   maximum displ.:     0.0043836 α      in ANC's #13, #23, #18, ...

........................................................................
.............................. CYCLE  122 ..............................
........................................................................
     iter. time                 ...        0 min,  0.021 sec
 * total energy  :    47.0909275 Eh     change       -0.2033828E-03 Eh
   gradient norm :     0.0133112 Eh/α   predicted    -0.7085056E-04 ( -65.16%)
   displ. norm   :     0.0143168 α      lambda       -0.1877311E-03
   maximum displ.:     0.0088063 α      in ANC's #23, #13, #18, ...

........................................................................
.............................. CYCLE  123 ..............................
........................................................................
     iter. time                 ...        0 min,  0.021 sec
 * total energy  :    47.0905852 Eh     change       -0.3423120E-03 Eh
   gradient norm :     0.0070300 Eh/α   predicted    -0.9455235E-04 ( -72.38%)
   displ. norm   :     0.0037912 α      lambda       -0.1410177E-04
   maximum displ.:     0.0028803 α      in ANC's #23, #6, #53, ...

........................................................................
.............................. CYCLE  124 ..............................
........................................................................
     iter. time                 ...        0 min,  0.021 sec
 * total energy  :    47.0904691 Eh     change       -0.1160916E-03 Eh
   gradient norm :     0.0070619 Eh/α   predicted    -0.1042104E-04 ( -91.02%)
   displ. norm   :     0.0286300 α      lambda       -0.1619835E-03
   maximum displ.:     0.0207056 α      in ANC's #23, #6, #53, ...

........................................................................
.............................. CYCLE  125 ..............................
........................................................................
     iter. time                 ...        0 min,  0.021 sec
 * total energy  :    47.0893549 Eh     change       -0.1114230E-02 Eh
   gradient norm :     0.0067266 Eh/α   predicted    -0.8112077E-04 ( -92.72%)
   displ. norm   :     0.0123685 α      lambda       -0.4007754E-04
   maximum displ.:     0.0081648 α      in ANC's #6, #23, #53, ...

........................................................................
.............................. CYCLE  126 ..............................
........................................................................
     iter. time                 ...        0 min,  0.021 sec
 * total energy  :    47.0887707 Eh     change       -0.5842313E-03 Eh
   gradient norm :     0.0041396 Eh/α   predicted    -0.2018922E-04 ( -96.54%)
   displ. norm   :     0.0052387 α      lambda       -0.1367670E-04
   maximum displ.:     0.0036323 α      in ANC's #6, #23, #18, ...

........................................................................
.............................. CYCLE  127 ..............................
........................................................................
     iter. time                 ...        0 min,  0.021 sec
 * total energy  :    47.0885793 Eh     change       -0.1913426E-03 Eh
   gradient norm :     0.0016470 Eh/α   predicted    -0.6896521E-05 ( -96.40%)
   displ. norm   :     0.0014636 α      lambda       -0.1400743E-05
   maximum displ.:     0.0010362 α      in ANC's #18, #12, #6, ...

........................................................................
.............................. CYCLE  128 ..............................
........................................................................
     iter. time                 ...        0 min,  0.021 sec
 * total energy  :    47.0886246 Eh     change        0.4522506E-04 Eh
   gradient norm :     0.0009853 Eh/α   predicted    -0.7212071E-06 (-101.59%)
   displ. norm   :     0.0005928 α      lambda       -0.6376467E-07
   maximum displ.:     0.0003839 α      in ANC's #13, #53, #19, ...

........................................................................
.............................. CYCLE  129 ..............................
........................................................................
     iter. time                 ...        0 min,  0.021 sec
 * total energy  :    47.0886581 Eh     change        0.3352895E-04 Eh
   gradient norm :     0.0008199 Eh/α   predicted    -0.1828847E-06 (-100.55%)
   displ. norm   :     0.0014834 α      lambda       -0.6189708E-06
   maximum displ.:     0.0010998 α      in ANC's #53, #23, #13, ...

........................................................................
.............................. CYCLE  130 ..............................
........................................................................
     iter. time                 ...        0 min,  0.021 sec
 * total energy  :    47.0887734 Eh     change        0.1152837E-03 Eh
   gradient norm :     0.0010584 Eh/α   predicted    -0.3602438E-06 (-100.31%)
   displ. norm   :     0.0028669 α      lambda       -0.1059426E-05
   maximum displ.:     0.0022906 α      in ANC's #53, #23, #51, ...

........................................................................
.............................. CYCLE  131 ..............................
........................................................................
     iter. time                 ...        0 min,  0.021 sec
 * total energy  :    47.0889873 Eh     change        0.2139708E-03 Eh
   gradient norm :     0.0015935 Eh/α   predicted    -0.6061328E-06 (-100.28%)
   displ. norm   :     0.0124724 α      lambda       -0.4666967E-05
   maximum displ.:     0.0098264 α      in ANC's #53, #23, #51, ...

........................................................................
.............................. CYCLE  132 ..............................
........................................................................
     iter. time                 ...        0 min,  0.021 sec
 * total energy  :    47.0897585 Eh     change        0.7711465E-03 Eh
   gradient norm :     0.0032071 Eh/α   predicted    -0.2366353E-05 (-100.31%)
   displ. norm   :     0.0154410 α      lambda       -0.7488410E-05
   maximum displ.:     0.0118486 α      in ANC's #53, #23, #51, ...

........................................................................
.............................. CYCLE  133 ..............................
........................................................................
     iter. time                 ...        0 min,  0.021 sec
 * total energy  :    47.0904252 Eh     change        0.6667209E-03 Eh
   gradient norm :     0.0042481 Eh/α   predicted    -0.3767161E-05 (-100.57%)
   displ. norm   :     0.0526454 α      lambda       -0.2448554E-04
   maximum displ.:     0.0402048 α      in ANC's #53, #23, #51, ...

........................................................................
.............................. CYCLE  134 ..............................
........................................................................
     iter. time                 ...        0 min,  0.021 sec
 * total energy  :    47.0909694 Eh     change        0.5442334E-03 Eh
   gradient norm :     0.0063487 Eh/α   predicted    -0.1233480E-04 (-102.27%)
   displ. norm   :     0.0367487 α      lambda       -0.1500996E-04
   maximum displ.:     0.0277144 α      in ANC's #53, #23, #51, ...

........................................................................
.............................. CYCLE  135 ..............................
........................................................................
     iter. time                 ...        0 min,  0.021 sec
 * total energy  :    47.0896685 Eh     change       -0.1300967E-02 Eh
   gradient norm :     0.0061980 Eh/α   predicted    -0.7548610E-05 ( -99.42%)
   displ. norm   :     0.0525890 α      lambda       -0.2659481E-04
   maximum displ.:     0.0386299 α      in ANC's #53, #23, #51, ...

........................................................................
.............................. CYCLE  136 ..............................
........................................................................
     iter. time                 ...        0 min,  0.021 sec
 * total energy  :    47.0851343 Eh     change       -0.4534185E-02 Eh
   gradient norm :     0.0035363 Eh/α   predicted    -0.1334117E-04 ( -99.71%)
   displ. norm   :     0.0056352 α      lambda       -0.8097878E-05
   maximum displ.:     0.0034908 α      in ANC's #23, #53, #13, ...

........................................................................
.............................. CYCLE  137 ..............................
........................................................................
     iter. time                 ...        0 min,  0.021 sec
 * total energy  :    47.0841577 Eh     change       -0.9766421E-03 Eh
   gradient norm :     0.0010562 Eh/α   predicted    -0.4091894E-05 ( -99.58%)
   displ. norm   :     0.0106823 α      lambda       -0.1237860E-05
   maximum displ.:     0.0081569 α      in ANC's #53, #23, #51, ...

........................................................................
.............................. CYCLE  138 ..............................
........................................................................
     iter. time                 ...        0 min,  0.021 sec
 * total energy  :    47.0850554 Eh     change        0.8977870E-03 Eh
   gradient norm :     0.0007075 Eh/α   predicted    -0.6750386E-06 (-100.08%)
   displ. norm   :     0.0017609 α      lambda        0.2191536E-05
   maximum displ.:     0.0009803 α      in ANC's #12, #23, #13, ...

........................................................................
.............................. CYCLE  139 ..............................
........................................................................
     iter. time                 ...        0 min,  0.021 sec
 * total energy  :    47.0845201 Eh     change       -0.5353424E-03 Eh
   gradient norm :     0.0018291 Eh/α   predicted     0.8481750E-06 (-100.16%)
   displ. norm   :     0.0015294 α      lambda       -0.1287116E-05
   maximum displ.:     0.0010171 α      in ANC's #13, #12, #19, ...

........................................................................
.............................. CYCLE  140 ..............................
........................................................................
     iter. time                 ...        0 min,  0.021 sec
 * total energy  :    47.0848321 Eh     change        0.3120005E-03 Eh
   gradient norm :     0.0004928 Eh/α   predicted    -0.6548674E-06 (-100.21%)
   displ. norm   :     0.0003271 α      lambda       -0.4527772E-08
   maximum displ.:     0.0002002 α      in ANC's #53, #12, #23, ...

........................................................................
.............................. CYCLE  141 ..............................
........................................................................
     iter. time                 ...        0 min,  0.021 sec
 * total energy  :    47.0847611 Eh     change       -0.7104568E-04 Eh
   gradient norm :     0.0004271 Eh/α   predicted    -0.4546441E-07 ( -99.94%)
   displ. norm   :     0.0044768 α      lambda       -0.9382165E-06
   maximum displ.:     0.0025191 α      in ANC's #6, #53, #12, ...

........................................................................
.............................. CYCLE  142 ..............................
........................................................................
     iter. time                 ...        0 min,  0.021 sec
 * total energy  :    47.0838674 Eh     change       -0.8936524E-03 Eh
   gradient norm :     0.0007679 Eh/α   predicted    -0.5174343E-06 ( -99.94%)
   displ. norm   :     0.0088690 α      lambda       -0.1495588E-05
   maximum displ.:     0.0054188 α      in ANC's #6, #12, #53, ...

........................................................................
.............................. CYCLE  143 ..............................
........................................................................
     iter. time                 ...        0 min,  0.021 sec
 * total energy  :    47.0820727 Eh     change       -0.1794680E-02 Eh
   gradient norm :     0.0014372 Eh/α   predicted    -0.7551288E-06 ( -99.96%)
   displ. norm   :     0.0252331 α      lambda       -0.3883581E-05
   maximum displ.:     0.0161084 α      in ANC's #6, #12, #53, ...

........................................................................
.............................. CYCLE  144 ..............................
........................................................................
     iter. time                 ...        0 min,  0.021 sec
 * total energy  :    47.0773696 Eh     change       -0.4703150E-02 Eh
   gradient norm :     0.0023312 Eh/α   predicted    -0.1958905E-05 ( -99.96%)
   displ. norm   :     0.0413692 α      lambda       -0.8799805E-05
   maximum displ.:     0.0276365 α      in ANC's #12, #23, #6, ...

........................................................................
.............................. CYCLE  145 ..............................
........................................................................
     iter. time                 ...        0 min,  0.021 sec
 * total energy  :    47.0689335 Eh     change       -0.8436116E-02 Eh
   gradient norm :     0.0035234 Eh/α   predicted    -0.4432372E-05 ( -99.95%)
   displ. norm   :     0.1287554 α      lambda       -0.2550952E-04
   maximum displ.:     0.0861443 α      in ANC's #12, #23, #6, ...

........................................................................
.............................. CYCLE  146 ..............................
........................................................................
     iter. time                 ...        0 min,  0.021 sec
 * total energy  :    47.0523854 Eh     change       -0.1654808E-01 Eh
   gradient norm :     0.0055595 Eh/α   predicted    -0.1285253E-04 ( -99.92%)
   displ. norm   :     0.1350043 α      lambda       -0.2261905E-04
   maximum displ.:     0.0886782 α      in ANC's #12, #23, #6, ...

........................................................................
.............................. CYCLE  147 ..............................
........................................................................
     iter. time                 ...        0 min,  0.021 sec
 * total energy  :    47.0483594 Eh     change       -0.4025969E-02 Eh
   gradient norm :     0.0060479 Eh/α   predicted    -0.1134720E-04 ( -99.72%)
   displ. norm   :     0.1758120 α      lambda       -0.3226255E-04
   maximum displ.:     0.1134269 α      in ANC's #12, #23, #6, ...

........................................................................
.............................. CYCLE  148 ..............................
........................................................................
     iter. time                 ...        0 min,  0.021 sec
 * total energy  :    47.0625937 Eh     change        0.1423433E-01 Eh
   gradient norm :     0.0044489 Eh/α   predicted    -0.1622938E-04 (-100.11%)
   displ. norm   :     0.0607806 α      lambda       -0.1436159E-04
   maximum displ.:     0.0390513 α      in ANC's #12, #23, #6, ...

........................................................................
.............................. CYCLE  149 ..............................
........................................................................
     iter. time                 ...        0 min,  0.021 sec
 * total energy  :    47.0735368 Eh     change        0.1094305E-01 Eh
   gradient norm :     0.0015304 Eh/α   predicted    -0.7284793E-05 (-100.07%)
   displ. norm   :     0.0167406 α      lambda       -0.2686700E-05
   maximum displ.:     0.0101900 α      in ANC's #6, #12, #53, ...

........................................................................
.............................. CYCLE  150 ..............................
........................................................................
     iter. time                 ...        0 min,  0.021 sec
 * total energy  :    47.0676019 Eh     change       -0.5934893E-02 Eh
   gradient norm :     0.0005034 Eh/α   predicted    -0.1347021E-05 ( -99.98%)
   displ. norm   :     0.0169386 α      lambda        0.4877624E-05
   maximum displ.:     0.0103140 α      in ANC's #6, #12, #53, ...
 * RMSD in coord.:     0.0420357 α      energy gain  -0.1559055E+01 Eh

generating ANC from exact Hessian ...
Using GFN-FF Lindh-Hessian
 Shifting diagonal of input Hessian by    1.0013220743567313E-002
 Lowest  eigenvalues of input Hessian
    0.010000    0.000000    0.000000    0.000000    0.000000    0.000000
    0.010018    0.010023    0.000000    0.010027    0.010031    0.010034
    0.010043    0.010047    0.010054    0.010059    0.010065    0.010079
 Highest eigenvalues
   38.990394   42.735434   68.737907  323.112827  537.776942 1870.870602


........................................................................
.............................. CYCLE  151 ..............................
........................................................................
     iter. time                 ...        0 min,  0.021 sec
 * total energy  :    47.0617837 Eh     change       -0.5818223E-02 Eh
   gradient norm :     0.0029257 Eh/α   predicted     0.0000000E+00 (-100.00%)
   displ. norm   :     0.0010560 α      lambda        0.6591250E-05
   maximum displ.:     0.0007919 α      in ANC's #14, #19, #18, ...

........................................................................
.............................. CYCLE  152 ..............................
........................................................................
     iter. time                 ...        0 min,  0.021 sec
 * total energy  :    47.0616056 Eh     change       -0.1780760E-03 Eh
   gradient norm :     0.0019060 Eh/α   predicted    -0.1536692E-05 ( -99.14%)
   displ. norm   :     0.0030410 α      lambda       -0.3844722E-05
   maximum displ.:     0.0022122 α      in ANC's #14, #19, #38, ...

........................................................................
.............................. CYCLE  153 ..............................
........................................................................
     iter. time                 ...        0 min,  0.021 sec
 * total energy  :    47.0609925 Eh     change       -0.6130950E-03 Eh
   gradient norm :     0.0016944 Eh/α   predicted    -0.1935069E-05 ( -99.68%)
   displ. norm   :     0.0007116 α      lambda       -0.6419978E-06
   maximum displ.:     0.0005078 α      in ANC's #14, #19, #18, ...

........................................................................
.............................. CYCLE  154 ..............................
........................................................................
     iter. time                 ...        0 min,  0.021 sec
 * total energy  :    47.0609893 Eh     change       -0.3199507E-05 Eh
   gradient norm :     0.0011228 Eh/α   predicted    -0.3656936E-06 ( -88.57%)
   displ. norm   :     0.0013116 α      lambda       -0.8834945E-06
   maximum displ.:     0.0010220 α      in ANC's #38, #51, #19, ...

........................................................................
.............................. CYCLE  155 ..............................
........................................................................
     iter. time                 ...        0 min,  0.021 sec
 * total energy  :    47.0606714 Eh     change       -0.3179334E-03 Eh
   gradient norm :     0.0009495 Eh/α   predicted    -0.4911058E-06 ( -99.85%)
   displ. norm   :     0.0049050 α      lambda       -0.2670983E-05
   maximum displ.:     0.0041875 α      in ANC's #38, #51, #19, ...

........................................................................
.............................. CYCLE  156 ..............................
........................................................................
     iter. time                 ...        0 min,  0.021 sec
 * total energy  :    47.0592716 Eh     change       -0.1399772E-02 Eh
   gradient norm :     0.0016705 Eh/α   predicted    -0.1415763E-05 ( -99.90%)
   displ. norm   :     0.0096682 α      lambda       -0.4085417E-05
   maximum displ.:     0.0083997 α      in ANC's #38, #51, #63, ...

........................................................................
.............................. CYCLE  157 ..............................
........................................................................
     iter. time                 ...        0 min,  0.021 sec
 * total energy  :    47.0563977 Eh     change       -0.2873878E-02 Eh
   gradient norm :     0.0025083 Eh/α   predicted    -0.2179055E-05 ( -99.92%)
   displ. norm   :     0.0090257 α      lambda       -0.5062190E-05
   maximum displ.:     0.0078865 α      in ANC's #38, #51, #63, ...

........................................................................
.............................. CYCLE  158 ..............................
........................................................................
     iter. time                 ...        0 min,  0.021 sec
 * total energy  :    47.0536773 Eh     change       -0.2720435E-02 Eh
   gradient norm :     0.0024005 Eh/α   predicted    -0.2592808E-05 ( -99.90%)
   displ. norm   :     0.0127591 α      lambda       -0.5869441E-05
   maximum displ.:     0.0111971 α      in ANC's #38, #51, #14, ...

........................................................................
.............................. CYCLE  159 ..............................
........................................................................
     iter. time                 ...        0 min,  0.021 sec
 * total energy  :    47.0498136 Eh     change       -0.3863659E-02 Eh
   gradient norm :     0.0016353 Eh/α   predicted    -0.2956979E-05 ( -99.92%)
   displ. norm   :     0.0029185 α      lambda       -0.9296064E-06
   maximum displ.:     0.0025584 α      in ANC's #38, #51, #14, ...

........................................................................
.............................. CYCLE  160 ..............................
........................................................................
     iter. time                 ...        0 min,  0.021 sec
 * total energy  :    47.0490331 Eh     change       -0.7805071E-03 Eh
   gradient norm :     0.0009650 Eh/α   predicted    -0.5272564E-06 ( -99.93%)
   displ. norm   :     0.0023798 α      lambda       -0.5118463E-06
   maximum displ.:     0.0016957 α      in ANC's #38, #51, #19, ...

........................................................................
.............................. CYCLE  161 ..............................
........................................................................
     iter. time                 ...        0 min,  0.021 sec
 * total energy  :    47.0497824 Eh     change        0.7492820E-03 Eh
   gradient norm :     0.0009153 Eh/α   predicted    -0.2879892E-06 (-100.04%)
   displ. norm   :     0.0014961 α      lambda       -0.2362911E-06
   maximum displ.:     0.0013182 α      in ANC's #51, #38, #63, ...

........................................................................
.............................. CYCLE  162 ..............................
........................................................................
     iter. time                 ...        0 min,  0.021 sec
 * total energy  :    47.0504455 Eh     change        0.6630545E-03 Eh
   gradient norm :     0.0010093 Eh/α   predicted    -0.2245856E-06 (-100.03%)
   displ. norm   :     0.0050061 α      lambda       -0.1779461E-05
   maximum displ.:     0.0045016 α      in ANC's #51, #38, #54, ...

........................................................................
.............................. CYCLE  163 ..............................
........................................................................
     iter. time                 ...        0 min,  0.021 sec
 * total energy  :    47.0521791 Eh     change        0.1733632E-02 Eh
   gradient norm :     0.0015843 Eh/α   predicted    -0.1129477E-05 (-100.07%)
   displ. norm   :     0.0120596 α      lambda       -0.4174046E-05
   maximum displ.:     0.0084964 α      in ANC's #51, #38, #54, ...

........................................................................
.............................. CYCLE  164 ..............................
........................................................................
     iter. time                 ...        0 min,  0.021 sec
 * total energy  :    47.0546982 Eh     change        0.2519159E-02 Eh
   gradient norm :     0.0022522 Eh/α   predicted    -0.2212923E-05 (-100.09%)
   displ. norm   :     0.0184162 α      lambda       -0.7878079E-05
   maximum displ.:     0.0164464 α      in ANC's #38, #51, #54, ...

........................................................................
.............................. CYCLE  165 ..............................
........................................................................
     iter. time                 ...        0 min,  0.021 sec
 * total energy  :    47.0557998 Eh     change        0.1101546E-02 Eh
   gradient norm :     0.0027066 Eh/α   predicted    -0.3976836E-05 (-100.36%)
   displ. norm   :     0.0556622 α      lambda       -0.2050025E-04
   maximum displ.:     0.0514314 α      in ANC's #38, #51, #54, ...

........................................................................
.............................. CYCLE  166 ..............................
........................................................................
     iter. time                 ...        0 min,  0.021 sec
 * total energy  :    47.0563619 Eh     change        0.5620852E-03 Eh
   gradient norm :     0.0030522 Eh/α   predicted    -0.1033432E-04 (-101.84%)
   displ. norm   :     0.0264335 α      lambda       -0.7124809E-05
   maximum displ.:     0.0257224 α      in ANC's #38, #51, #63, ...

........................................................................
.............................. CYCLE  167 ..............................
........................................................................
     iter. time                 ...        0 min,  0.021 sec
 * total energy  :    47.0539651 Eh     change       -0.2396758E-02 Eh
   gradient norm :     0.0023717 Eh/α   predicted    -0.3626317E-05 ( -99.85%)
   displ. norm   :     0.0279328 α      lambda       -0.8579210E-05
   maximum displ.:     0.0277360 α      in ANC's #38, #63, #12, ...

........................................................................
.............................. CYCLE  168 ..............................
........................................................................
     iter. time                 ...        0 min,  0.021 sec
 * total energy  :    47.0487958 Eh     change       -0.5169291E-02 Eh
   gradient norm :     0.0006679 Eh/α   predicted    -0.4331961E-05 ( -99.92%)
   displ. norm   :     0.0039789 α      lambda       -0.5828009E-06
   maximum displ.:     0.0030297 α      in ANC's #51, #38, #19, ...

........................................................................
.............................. CYCLE  169 ..............................
........................................................................
     iter. time                 ...        0 min,  0.021 sec
 * total energy  :    47.0470396 Eh     change       -0.1756258E-02 Eh
   gradient norm :     0.0003197 Eh/α   predicted    -0.3588538E-06 ( -99.98%)
   displ. norm   :     0.0040871 α      lambda        0.1390827E-05
   maximum displ.:     0.0031642 α      in ANC's #51, #38, #63, ...

........................................................................
.............................. CYCLE  170 ..............................
........................................................................
     iter. time                 ...        0 min,  0.021 sec
 * total energy  :    47.0452169 Eh     change       -0.1822674E-02 Eh
   gradient norm :     0.0012372 Eh/α   predicted     0.6914893E-06 (-100.04%)
   displ. norm   :     0.0046758 α      lambda       -0.9771270E-06
   maximum displ.:     0.0034876 α      in ANC's #51, #38, #19, ...

........................................................................
.............................. CYCLE  171 ..............................
........................................................................
     iter. time                 ...        0 min,  0.021 sec
 * total energy  :    47.0472003 Eh     change        0.1983354E-02 Eh
   gradient norm :     0.0000936 Eh/α   predicted    -0.7169687E-06 (-100.04%)
   displ. norm   :     0.0003599 α      lambda        0.1750573E-07
   maximum displ.:     0.0003295 α      in ANC's #38, #51, #63, ...

........................................................................
.............................. CYCLE  172 ..............................
........................................................................
     iter. time                 ...        0 min,  0.021 sec
 * total energy  :    47.0470260 Eh     change       -0.1742287E-03 Eh
   gradient norm :     0.0001270 Eh/α   predicted     0.4354369E-08 (-100.00%)
   displ. norm   :     0.0003058 α      lambda        0.1143106E-07
   maximum displ.:     0.0002390 α      in ANC's #38, #51, #63, ...

........................................................................
.............................. CYCLE  173 ..............................
........................................................................
     iter. time                 ...        0 min,  0.021 sec
 * total energy  :    47.0467793 Eh     change       -0.2466723E-03 Eh
   gradient norm :     0.0001755 Eh/α   predicted     0.2833849E-08 (-100.00%)
   displ. norm   :     0.0003058 α      lambda        0.0000000E+00
   maximum displ.:     0.0002390 α      in ANC's #38, #51, #63, ...

........................................................................
.............................. CYCLE  174 ..............................
........................................................................
     iter. time                 ...        0 min,  0.022 sec
 * total energy  :    47.0465327 Eh     change       -0.2466731E-03 Eh
   gradient norm :     0.0002318 Eh/α   predicted     0.3052784E-08 (-100.00%)
   displ. norm   :     0.0002657 α      lambda       -0.3390545E-08
   maximum displ.:     0.0002259 α      in ANC's #38, #51, #18, ...

........................................................................
.............................. CYCLE  175 ..............................
........................................................................
     iter. time                 ...        0 min,  0.021 sec
 * total energy  :    47.0464929 Eh     change       -0.3974870E-04 Eh
   gradient norm :     0.0001529 Eh/α   predicted    -0.6369549E-08 ( -99.98%)
   displ. norm   :     0.0017807 α      lambda       -0.2222441E-07
   maximum displ.:     0.0017226 α      in ANC's #38, #51, #63, ...

........................................................................
.............................. CYCLE  176 ..............................
........................................................................
     iter. time                 ...        0 min,  0.021 sec
 * total energy  :    47.0458389 Eh     change       -0.6540326E-03 Eh
   gradient norm :     0.0001007 Eh/α   predicted    -0.1696398E-07 (-100.00%)
   displ. norm   :     0.0017807 α      lambda        0.0000000E+00
   maximum displ.:     0.0017226 α      in ANC's #38, #51, #63, ...

........................................................................
.............................. CYCLE  177 ..............................
........................................................................
     iter. time                 ...        0 min,  0.021 sec
 * total energy  :    47.0451829 Eh     change       -0.6559922E-03 Eh
   gradient norm :     0.0002240 Eh/α   predicted     0.9358492E-09 (-100.00%)
   displ. norm   :     0.0005830 α      lambda       -0.8995381E-08
   maximum displ.:     0.0005180 α      in ANC's #38, #63, #51, ...

........................................................................
.............................. CYCLE  178 ..............................
........................................................................
     iter. time                 ...        0 min,  0.021 sec
 * total energy  :    47.0446761 Eh     change       -0.5067742E-03 Eh
   gradient norm :     0.0001130 Eh/α   predicted    -0.1283668E-07 (-100.00%)
   displ. norm   :     0.0018008 α      lambda       -0.6811535E-07
   maximum displ.:     0.0011787 α      in ANC's #38, #63, #1, ...

........................................................................
.............................. CYCLE  179 ..............................
........................................................................
     iter. time                 ...        0 min,  0.021 sec
 * total energy  :    47.0414570 Eh     change       -0.3219145E-02 Eh
   gradient norm :     0.0001585 Eh/α   predicted    -0.4378906E-07 (-100.00%)
   displ. norm   :     0.0047670 α      lambda       -0.2195659E-06
   maximum displ.:     0.0037901 α      in ANC's #63, #1, #4, ...

........................................................................
.............................. CYCLE  180 ..............................
........................................................................
     iter. time                 ...        0 min,  0.021 sec
 * total energy  :    47.0300668 Eh     change       -0.1139019E-01 Eh
   gradient norm :     0.0004448 Eh/α   predicted    -0.1103921E-06 (-100.00%)
   displ. norm   :     0.0235660 α      lambda       -0.1208283E-05
   maximum displ.:     0.0189846 α      in ANC's #63, #1, #4, ...

........................................................................
.............................. CYCLE  181 ..............................
........................................................................
     iter. time                 ...        0 min,  0.021 sec
 * total energy  :    46.9730152 Eh     change       -0.5705155E-01 Eh
   gradient norm :     0.0013062 Eh/α   predicted    -0.4287269E-06 (-100.00%)
   displ. norm   :     0.0432981 α      lambda       -0.3868036E-05
   maximum displ.:     0.0348842 α      in ANC's #63, #1, #4, ...

........................................................................
.............................. CYCLE  182 ..............................
........................................................................
     iter. time                 ...        0 min,  0.021 sec
 * total energy  :    46.8705834 Eh     change       -0.1024319E+00 Eh
   gradient norm :     0.0020874 Eh/α   predicted    -0.8244054E-06 (-100.00%)
   displ. norm   :     0.1092893 α      lambda       -0.2218136E-04
   maximum displ.:     0.0878715 α      in ANC's #63, #1, #4, ...

........................................................................
.............................. CYCLE  183 ..............................
........................................................................
     iter. time                 ...        0 min,  0.021 sec
 * total energy  :    46.6298550 Eh     change       -0.2407284E+00 Eh
   gradient norm :     0.0033039 Eh/α   predicted    -0.3273994E-05 (-100.00%)
   displ. norm   :     0.2909637 α      lambda       -0.7774444E-04
   maximum displ.:     0.2337406 α      in ANC's #63, #1, #4, ...
 * RMSD in coord.:     0.0336417 α      energy gain  -0.4377469E+00 Eh

generating ANC from exact Hessian ...
Using GFN-FF Lindh-Hessian
 Shifting diagonal of input Hessian by    1.0013236179390015E-002
 Lowest  eigenvalues of input Hessian
    0.010000    0.000000    0.000000    0.000000    0.000000    0.000000
    0.010018    0.010023    0.000000    0.010027    0.010030    0.010034
    0.010042    0.010047    0.010055    0.010059    0.010067    0.010079
 Highest eigenvalues
   48.528540   98.350664  113.994277  116.893083  322.721968  666.874602


........................................................................
.............................. CYCLE  184 ..............................
........................................................................
     iter. time                 ...        0 min,  0.021 sec
 * total energy  :    46.0852168 Eh     change       -0.5446382E+00 Eh
   gradient norm :     0.0057914 Eh/α   predicted     0.0000000E+00 (-100.00%)
   displ. norm   :     0.0021049 α      lambda       -0.1212098E-04
   maximum displ.:     0.0015413 α      in ANC's #18, #12, #13, ...

........................................................................
.............................. CYCLE  185 ..............................
........................................................................
     iter. time                 ...        0 min,  0.021 sec
 * total energy  :    46.0853002 Eh     change        0.8343626E-04 Eh
   gradient norm :     0.0035481 Eh/α   predicted    -0.6088932E-05 (-107.30%)
   displ. norm   :     0.0032930 α      lambda       -0.1161708E-04
   maximum displ.:     0.0023617 α      in ANC's #18, #12, #13, ...

........................................................................
.............................. CYCLE  186 ..............................
........................................................................
     iter. time                 ...        0 min,  0.021 sec
 * total energy  :    46.0854957 Eh     change        0.1954280E-03 Eh
   gradient norm :     0.0012777 Eh/α   predicted    -0.5822108E-05 (-102.98%)
   displ. norm   :     0.0007018 α      lambda       -0.4874964E-06
   maximum displ.:     0.0005765 α      in ANC's #43, #5, #18, ...

........................................................................
.............................. CYCLE  187 ..............................
........................................................................
     iter. time                 ...        0 min,  0.021 sec
 * total energy  :    46.0855960 Eh     change        0.1003377E-03 Eh
   gradient norm :     0.0012709 Eh/α   predicted    -0.2628805E-06 (-100.26%)
   displ. norm   :     0.0087988 α      lambda       -0.6731215E-05
   maximum displ.:     0.0076218 α      in ANC's #43, #5, #45, ...

........................................................................
.............................. CYCLE  188 ..............................
........................................................................
     iter. time                 ...        0 min,  0.021 sec
 * total energy  :    46.0868984 Eh     change        0.1302351E-02 Eh
   gradient norm :     0.0017423 Eh/α   predicted    -0.3383774E-05 (-100.26%)
   displ. norm   :     0.0050429 α      lambda       -0.2029410E-05
   maximum displ.:     0.0042504 α      in ANC's #43, #5, #45, ...

........................................................................
.............................. CYCLE  189 ..............................
........................................................................
     iter. time                 ...        0 min,  0.021 sec
 * total energy  :    46.0876623 Eh     change        0.7639566E-03 Eh
   gradient norm :     0.0014895 Eh/α   predicted    -0.1095355E-05 (-100.14%)
   displ. norm   :     0.0042050 α      lambda       -0.1561308E-05
   maximum displ.:     0.0033047 α      in ANC's #43, #5, #13, ...

........................................................................
.............................. CYCLE  190 ..............................
........................................................................
     iter. time                 ...        0 min,  0.021 sec
 * total energy  :    46.0882670 Eh     change        0.6046763E-03 Eh
   gradient norm :     0.0005368 Eh/α   predicted    -0.8033118E-06 (-100.13%)
   displ. norm   :     0.0004727 α      lambda       -0.1177802E-06
   maximum displ.:     0.0002531 α      in ANC's #13, #5, #20, ...

........................................................................
.............................. CYCLE  191 ..............................
........................................................................
     iter. time                 ...        0 min,  0.021 sec
 * total energy  :    46.0882546 Eh     change       -0.1241802E-04 Eh
   gradient norm :     0.0001753 Eh/α   predicted    -0.7702779E-07 ( -99.38%)
   displ. norm   :     0.0001479 α      lambda       -0.2765617E-08
   maximum displ.:     0.0000958 α      in ANC's #5, #43, #13, ...

........................................................................
.............................. CYCLE  192 ..............................
........................................................................
     iter. time                 ...        0 min,  0.021 sec
 * total energy  :    46.0882268 Eh     change       -0.2782097E-04 Eh
   gradient norm :     0.0001614 Eh/α   predicted    -0.8202042E-08 ( -99.97%)
   displ. norm   :     0.0002729 α      lambda       -0.1153300E-07
   maximum displ.:     0.0002190 α      in ANC's #5, #43, #45, ...

........................................................................
.............................. CYCLE  193 ..............................
........................................................................
     iter. time                 ...        0 min,  0.021 sec
 * total energy  :    46.0881867 Eh     change       -0.4005684E-04 Eh
   gradient norm :     0.0001904 Eh/α   predicted    -0.1369530E-07 ( -99.97%)
   displ. norm   :     0.0016543 α      lambda       -0.8495745E-07
   maximum displ.:     0.0014689 α      in ANC's #5, #43, #45, ...

........................................................................
.............................. CYCLE  194 ..............................
........................................................................
     iter. time                 ...        0 min,  0.021 sec
 * total energy  :    46.0879981 Eh     change       -0.1885524E-03 Eh
   gradient norm :     0.0003996 Eh/α   predicted    -0.6780086E-07 ( -99.96%)
   displ. norm   :     0.0025884 α      lambda       -0.1679668E-06
   maximum displ.:     0.0023635 α      in ANC's #5, #43, #45, ...

........................................................................
.............................. CYCLE  195 ..............................
........................................................................
     iter. time                 ...        0 min,  0.021 sec
 * total energy  :    46.0877875 Eh     change       -0.2106708E-03 Eh
   gradient norm :     0.0005505 Eh/α   predicted    -0.9504743E-07 ( -99.95%)
   displ. norm   :     0.0072705 α      lambda       -0.3934733E-06
   maximum displ.:     0.0067052 α      in ANC's #5, #43, #14, ...

........................................................................
.............................. CYCLE  196 ..............................
........................................................................
     iter. time                 ...        0 min,  0.021 sec
 * total energy  :    46.0873395 Eh     change       -0.4479858E-03 Eh
   gradient norm :     0.0006447 Eh/α   predicted    -0.2315038E-06 ( -99.95%)
   displ. norm   :     0.0059495 α      lambda       -0.2663410E-06
   maximum displ.:     0.0055092 α      in ANC's #5, #43, #14, ...

........................................................................
.............................. CYCLE  197 ..............................
........................................................................
     iter. time                 ...        0 min,  0.022 sec
 * total energy  :    46.0870444 Eh     change       -0.2950557E-03 Eh
   gradient norm :     0.0004366 Eh/α   predicted    -0.1441025E-06 ( -99.95%)
   displ. norm   :     0.0027712 α      lambda       -0.7378592E-07
   maximum displ.:     0.0025661 α      in ANC's #5, #43, #14, ...

........................................................................
.............................. CYCLE  198 ..............................
........................................................................
     iter. time                 ...        0 min,  0.021 sec
 * total energy  :    46.0868630 Eh     change       -0.1814427E-03 Eh
   gradient norm :     0.0001880 Eh/α   predicted    -0.4883685E-07 ( -99.97%)
   displ. norm   :     0.0005653 α      lambda       -0.5530430E-08
   maximum displ.:     0.0005087 α      in ANC's #5, #14, #68, ...

........................................................................
.............................. CYCLE  199 ..............................
........................................................................
     iter. time                 ...        0 min,  0.021 sec
 * total energy  :    46.0867600 Eh     change       -0.1029761E-03 Eh
   gradient norm :     0.0001039 Eh/α   predicted    -0.1003766E-07 ( -99.99%)
   displ. norm   :     0.0005653 α      lambda        0.0000000E+00
   maximum displ.:     0.0005087 α      in ANC's #5, #14, #68, ...

........................................................................
.............................. CYCLE  200 ..............................
........................................................................
     iter. time                 ...        0 min,  0.021 sec
 * total energy  :    46.0866573 Eh     change       -0.1027390E-03 Eh
   gradient norm :     0.0001280 Eh/α   predicted    -0.3466791E-08 (-100.00%)
   displ. norm   :     0.0008878 α      lambda        0.1455855E-07
   maximum displ.:     0.0008176 α      in ANC's #5, #68, #14, ...

........................................................................
.............................. CYCLE  201 ..............................
........................................................................
     iter. time                 ...        0 min,  0.021 sec
 * total energy  :    46.0864844 Eh     change       -0.1729045E-03 Eh
   gradient norm :     0.0002052 Eh/α   predicted     0.4580449E-08 (-100.00%)
   displ. norm   :     0.0005442 α      lambda       -0.3114252E-08
   maximum displ.:     0.0004975 α      in ANC's #5, #14, #68, ...

........................................................................
.............................. CYCLE  202 ..............................
........................................................................
     iter. time                 ...        0 min,  0.021 sec
 * total energy  :    46.0865447 Eh     change        0.6032080E-04 Eh
   gradient norm :     0.0001235 Eh/α   predicted    -0.5824097E-08 (-100.01%)
   displ. norm   :     0.0005442 α      lambda        0.0000000E+00
   maximum displ.:     0.0004975 α      in ANC's #5, #14, #68, ...

........................................................................
.............................. CYCLE  203 ..............................
........................................................................
     iter. time                 ...        0 min,  0.021 sec
 * total energy  :    46.0866052 Eh     change        0.6055164E-04 Eh
   gradient norm :     0.0000887 Eh/α   predicted    -0.6313228E-09 (-100.00%)
   displ. norm   :     0.0006202 α      lambda       -0.2592741E-08
   maximum displ.:     0.0005400 α      in ANC's #5, #43, #14, ...

........................................................................
.............................. CYCLE  204 ..............................
........................................................................
     iter. time                 ...        0 min,  0.021 sec
 * total energy  :    46.0865593 Eh     change       -0.4597121E-04 Eh
   gradient norm :     0.0001026 Eh/α   predicted    -0.4941737E-08 ( -99.99%)
   displ. norm   :     0.0006202 α      lambda        0.0000000E+00
   maximum displ.:     0.0005400 α      in ANC's #5, #43, #14, ...

........................................................................
.............................. CYCLE  205 ..............................
........................................................................
     iter. time                 ...        0 min,  0.021 sec
 * total energy  :    46.0865136 Eh     change       -0.4569570E-04 Eh
   gradient norm :     0.0001489 Eh/α   predicted    -0.9851112E-09 (-100.00%)
   displ. norm   :     0.0006202 α      lambda        0.0000000E+00
   maximum displ.:     0.0005400 α      in ANC's #5, #43, #14, ...

........................................................................
.............................. CYCLE  206 ..............................
........................................................................
     iter. time                 ...        0 min,  0.021 sec
 * total energy  :    46.0864682 Eh     change       -0.4542038E-04 Eh
   gradient norm :     0.0002068 Eh/α   predicted     0.4566511E-08 (-100.01%)
   displ. norm   :     0.0002097 α      lambda       -0.7707481E-08
   maximum displ.:     0.0001044 α      in ANC's #14, #5, #12, ...

........................................................................
.............................. CYCLE  207 ..............................
........................................................................
     iter. time                 ...        0 min,  0.021 sec
 * total energy  :    46.0864548 Eh     change       -0.1333108E-04 Eh
   gradient norm :     0.0000940 Eh/α   predicted    -0.6769979E-08 ( -99.95%)
   displ. norm   :     0.0002097 α      lambda        0.0000000E+00
   maximum displ.:     0.0001044 α      in ANC's #14, #5, #12, ...

........................................................................
.............................. CYCLE  208 ..............................
........................................................................
     iter. time                 ...        0 min,  0.021 sec
 * total energy  :    46.0864415 Eh     change       -0.1328797E-04 Eh
   gradient norm :     0.0001424 Eh/α   predicted     0.4597866E-08 (-100.03%)
   displ. norm   :     0.0001532 α      lambda        0.2161726E-09
   maximum displ.:     0.0001024 α      in ANC's #5, #43, #14, ...

........................................................................
.............................. CYCLE  209 ..............................
........................................................................
     iter. time                 ...        0 min,  0.021 sec
 * total energy  :    46.0864077 Eh     change       -0.3387574E-04 Eh
   gradient norm :     0.0000857 Eh/α   predicted    -0.5225237E-08 ( -99.98%)
   displ. norm   :     0.0001532 α      lambda        0.0000000E+00
   maximum displ.:     0.0001024 α      in ANC's #5, #43, #14, ...

........................................................................
.............................. CYCLE  210 ..............................
........................................................................
     iter. time                 ...        0 min,  0.021 sec
 * total energy  :    46.0863738 Eh     change       -0.3385536E-04 Eh
   gradient norm :     0.0001647 Eh/α   predicted     0.4181493E-08 (-100.01%)
   displ. norm   :     0.0004089 α      lambda       -0.9768089E-08
   maximum displ.:     0.0003474 α      in ANC's #5, #43, #45, ...

........................................................................
.............................. CYCLE  211 ..............................
........................................................................
     iter. time                 ...        0 min,  0.022 sec
 * total energy  :    46.0863287 Eh     change       -0.4511746E-04 Eh
   gradient norm :     0.0000854 Eh/α   predicted    -0.7893065E-08 ( -99.98%)
   displ. norm   :     0.0004089 α      lambda        0.0000000E+00
   maximum displ.:     0.0003474 α      in ANC's #5, #43, #45, ...

........................................................................
.............................. CYCLE  212 ..............................
........................................................................
     iter. time                 ...        0 min,  0.021 sec
 * total energy  :    46.0862837 Eh     change       -0.4499222E-04 Eh
   gradient norm :     0.0001493 Eh/α   predicted     0.2962378E-08 (-100.01%)
   displ. norm   :     0.0002756 α      lambda        0.2913240E-07
   maximum displ.:     0.0001429 α      in ANC's #45, #5, #43, ...

........................................................................
.............................. CYCLE  213 ..............................
........................................................................
     iter. time                 ...        0 min,  0.021 sec
 * total energy  :    46.0860573 Eh     change       -0.2264297E-03 Eh
   gradient norm :     0.0000844 Eh/α   predicted    -0.8407386E-08 (-100.00%)
   displ. norm   :     0.0002756 α      lambda        0.0000000E+00
   maximum displ.:     0.0001429 α      in ANC's #45, #5, #43, ...

........................................................................
.............................. CYCLE  214 ..............................
........................................................................
     iter. time                 ...        0 min,  0.021 sec
 * total energy  :    46.0858309 Eh     change       -0.2263909E-03 Eh
   gradient norm :     0.0001234 Eh/α   predicted    -0.7157725E-08 (-100.00%)
   displ. norm   :     0.0002756 α      lambda        0.0000000E+00
   maximum displ.:     0.0001429 α      in ANC's #45, #5, #43, ...

........................................................................
.............................. CYCLE  215 ..............................
........................................................................
     iter. time                 ...        0 min,  0.021 sec
 * total energy  :    46.0856045 Eh     change       -0.2263522E-03 Eh
   gradient norm :     0.0002158 Eh/α   predicted    -0.2723113E-09 (-100.00%)
   displ. norm   :     0.0004993 α      lambda        0.1322602E-07
   maximum displ.:     0.0003375 α      in ANC's #5, #45, #68, ...

........................................................................
.............................. CYCLE  216 ..............................
........................................................................
     iter. time                 ...        0 min,  0.022 sec
 * total energy  :    46.0852552 Eh     change       -0.3493264E-03 Eh
   gradient norm :     0.0001583 Eh/α   predicted    -0.1176345E-07 (-100.00%)
   displ. norm   :     0.0035336 α      lambda       -0.1679219E-06
   maximum displ.:     0.0025835 α      in ANC's #45, #68, #44, ...

........................................................................
.............................. CYCLE  217 ..............................
........................................................................
     iter. time                 ...        0 min,  0.021 sec
 * total energy  :    46.0812757 Eh     change       -0.3979537E-02 Eh
   gradient norm :     0.0002704 Eh/α   predicted    -0.9628172E-07 (-100.00%)
   displ. norm   :     0.0091759 α      lambda       -0.3306293E-06
   maximum displ.:     0.0068509 α      in ANC's #45, #68, #44, ...

........................................................................
.............................. CYCLE  218 ..............................
........................................................................
     iter. time                 ...        0 min,  0.021 sec
 * total energy  :    46.0705893 Eh     change       -0.1068641E-01 Eh
   gradient norm :     0.0006780 Eh/α   predicted    -0.1798080E-06 (-100.00%)
   displ. norm   :     0.0345199 α      lambda       -0.1097233E-05
   maximum displ.:     0.0258702 α      in ANC's #45, #68, #44, ...

........................................................................
.............................. CYCLE  219 ..............................
........................................................................
     iter. time                 ...        0 min,  0.021 sec
 * total energy  :    46.0301783 Eh     change       -0.4041100E-01 Eh
   gradient norm :     0.0014866 Eh/α   predicted    -0.6313820E-06 (-100.00%)
   displ. norm   :     0.0878026 α      lambda       -0.2822755E-05
   maximum displ.:     0.0658154 α      in ANC's #45, #68, #44, ...
 * RMSD in coord.:     0.0093822 α      energy gain  -0.5996767E+00 Eh

generating ANC from exact Hessian ...
Using GFN-FF Lindh-Hessian
 Shifting diagonal of input Hessian by    1.0013239828535636E-002
 Lowest  eigenvalues of input Hessian
    0.010000    0.000000    0.000000    0.000000    0.000000    0.000000
    0.000000    0.010023    0.010025    0.010027    0.010030    0.010033
    0.010042    0.010047    0.010054    0.010059    0.010067    0.010079
 Highest eigenvalues
   47.510939   48.519911  102.349553  113.824123  322.524302  757.706454


........................................................................
.............................. CYCLE  220 ..............................
........................................................................
     iter. time                 ...        0 min,  0.022 sec
 * total energy  :    45.9287612 Eh     change       -0.1014170E+00 Eh
   gradient norm :     0.0022395 Eh/α   predicted     0.0000000E+00 (-100.00%)
   displ. norm   :     0.0008239 α      lambda        0.3600481E-05
   maximum displ.:     0.0004729 α      in ANC's #14, #17, #12, ...

........................................................................
.............................. CYCLE  221 ..............................
........................................................................
     iter. time                 ...        0 min,  0.021 sec
 * total energy  :    45.9287031 Eh     change       -0.5813842E-04 Eh
   gradient norm :     0.0012695 Eh/α   predicted    -0.9205038E-06 ( -98.42%)
   displ. norm   :     0.0016313 α      lambda       -0.1279277E-05
   maximum displ.:     0.0009294 α      in ANC's #14, #12, #17, ...

........................................................................
.............................. CYCLE  222 ..............................
........................................................................
     iter. time                 ...        0 min,  0.021 sec
 * total energy  :    45.9285527 Eh     change       -0.1504104E-03 Eh
   gradient norm :     0.0007157 Eh/α   predicted    -0.6862285E-06 ( -99.54%)
   displ. norm   :     0.0014907 α      lambda        0.3410107E-05
   maximum displ.:     0.0011491 α      in ANC's #7, #14, #12, ...

........................................................................
.............................. CYCLE  223 ..............................
........................................................................
     iter. time                 ...        0 min,  0.021 sec
 * total energy  :    45.9281473 Eh     change       -0.4053538E-03 Eh
   gradient norm :     0.0019789 Eh/α   predicted     0.1200471E-05 (-100.30%)
   displ. norm   :     0.0013773 α      lambda        0.1062585E-05
   maximum displ.:     0.0013098 α      in ANC's #7, #12, #17, ...

........................................................................
.............................. CYCLE  224 ..............................
........................................................................
     iter. time                 ...        0 min,  0.021 sec
 * total energy  :    45.9278374 Eh     change       -0.3099425E-03 Eh
   gradient norm :     0.0017454 Eh/α   predicted     0.3464285E-06 (-100.11%)
   displ. norm   :     0.0073448 α      lambda       -0.2263090E-05
   maximum displ.:     0.0068214 α      in ANC's #7, #12, #14, ...

........................................................................
.............................. CYCLE  225 ..............................
........................................................................
     iter. time                 ...        0 min,  0.021 sec
 * total energy  :    45.9262858 Eh     change       -0.1551572E-02 Eh
   gradient norm :     0.0006760 Eh/α   predicted    -0.1271370E-05 ( -99.92%)
   displ. norm   :     0.0019662 α      lambda        0.1114392E-06
   maximum displ.:     0.0018625 α      in ANC's #7, #12, #14, ...

........................................................................
.............................. CYCLE  226 ..............................
........................................................................
     iter. time                 ...        0 min,  0.021 sec
 * total energy  :    45.9258357 Eh     change       -0.4500858E-03 Eh
   gradient norm :     0.0005867 Eh/α   predicted    -0.9980956E-07 ( -99.98%)
   displ. norm   :     0.0058730 α      lambda       -0.4927227E-06
   maximum displ.:     0.0056264 α      in ANC's #7, #12, #14, ...

........................................................................
.............................. CYCLE  227 ..............................
........................................................................
     iter. time                 ...        0 min,  0.021 sec
 * total energy  :    45.9244441 Eh     change       -0.1391674E-02 Eh
   gradient norm :     0.0004336 Eh/α   predicted    -0.2684879E-06 ( -99.98%)
   displ. norm   :     0.0032695 α      lambda        0.1450810E-06
   maximum displ.:     0.0031101 α      in ANC's #7, #12, #14, ...

........................................................................
.............................. CYCLE  228 ..............................
........................................................................
     iter. time                 ...        0 min,  0.021 sec
 * total energy  :    45.9236826 Eh     change       -0.7614671E-03 Eh
   gradient norm :     0.0006925 Eh/α   predicted     0.4059636E-07 (-100.01%)
   displ. norm   :     0.0007858 α      lambda       -0.1824952E-07
   maximum displ.:     0.0005969 α      in ANC's #7, #12, #17, ...

........................................................................
.............................. CYCLE  229 ..............................
........................................................................
     iter. time                 ...        0 min,  0.021 sec
 * total energy  :    45.9238482 Eh     change        0.1655968E-03 Eh
   gradient norm :     0.0003757 Eh/α   predicted    -0.9002535E-07 (-100.05%)
   displ. norm   :     0.0007858 α      lambda        0.0000000E+00
   maximum displ.:     0.0005969 α      in ANC's #7, #12, #17, ...

........................................................................
.............................. CYCLE  230 ..............................
........................................................................
     iter. time                 ...        0 min,  0.021 sec
 * total energy  :    45.9240143 Eh     change        0.1661575E-03 Eh
   gradient norm :     0.0004269 Eh/α   predicted     0.3526549E-08 (-100.00%)
   displ. norm   :     0.0012895 α      lambda        0.1131057E-06
   maximum displ.:     0.0012300 α      in ANC's #7, #12, #43, ...

........................................................................
.............................. CYCLE  231 ..............................
........................................................................
     iter. time                 ...        0 min,  0.021 sec
 * total energy  :    45.9242955 Eh     change        0.2811568E-03 Eh
   gradient norm :     0.0005643 Eh/α   predicted     0.5269742E-07 ( -99.98%)
   displ. norm   :     0.0003980 α      lambda       -0.1743004E-07
   maximum displ.:     0.0002506 α      in ANC's #17, #7, #12, ...

........................................................................
.............................. CYCLE  232 ..............................
........................................................................
     iter. time                 ...        0 min,  0.021 sec
 * total energy  :    45.9243325 Eh     change        0.3701063E-04 Eh
   gradient norm :     0.0003050 Eh/α   predicted    -0.6379636E-07 (-100.17%)
   displ. norm   :     0.0009226 α      lambda       -0.1519995E-06
   maximum displ.:     0.0008119 α      in ANC's #43, #12, #17, ...

........................................................................
.............................. CYCLE  233 ..............................
........................................................................
     iter. time                 ...        0 min,  0.021 sec
 * total energy  :    45.9242292 Eh     change       -0.1033375E-03 Eh
   gradient norm :     0.0002530 Eh/α   predicted    -0.8300460E-07 ( -99.92%)
   displ. norm   :     0.0040299 α      lambda       -0.3159218E-06
   maximum displ.:     0.0030019 α      in ANC's #7, #43, #12, ...

........................................................................
.............................. CYCLE  234 ..............................
........................................................................
     iter. time                 ...        0 min,  0.022 sec
 * total energy  :    45.9233108 Eh     change       -0.9184210E-03 Eh
   gradient norm :     0.0004465 Eh/α   predicted    -0.1729082E-06 ( -99.98%)
   displ. norm   :     0.0041291 α      lambda       -0.2265192E-06
   maximum displ.:     0.0033104 α      in ANC's #7, #43, #12, ...

........................................................................
.............................. CYCLE  235 ..............................
........................................................................
     iter. time                 ...        0 min,  0.021 sec
 * total energy  :    45.9223019 Eh     change       -0.1008873E-02 Eh
   gradient norm :     0.0003461 Eh/α   predicted    -0.1176244E-06 ( -99.99%)
   displ. norm   :     0.0026154 α      lambda       -0.6972019E-07
   maximum displ.:     0.0022801 α      in ANC's #7, #43, #12, ...

........................................................................
.............................. CYCLE  236 ..............................
........................................................................
     iter. time                 ...        0 min,  0.021 sec
 * total energy  :    45.9216124 Eh     change       -0.6895058E-03 Eh
   gradient norm :     0.0001270 Eh/α   predicted    -0.4831060E-07 ( -99.99%)
   displ. norm   :     0.0001746 α      lambda       -0.5010435E-08
   maximum displ.:     0.0001402 α      in ANC's #7, #17, #40, ...

........................................................................
.............................. CYCLE  237 ..............................
........................................................................
     iter. time                 ...        0 min,  0.021 sec
 * total energy  :    45.9215186 Eh     change       -0.9374352E-04 Eh
   gradient norm :     0.0000707 Eh/α   predicted    -0.3956689E-08 (-100.00%)
   displ. norm   :     0.0001746 α      lambda        0.0000000E+00
   maximum displ.:     0.0001402 α      in ANC's #7, #17, #40, ...

........................................................................
.............................. CYCLE  238 ..............................
........................................................................
     iter. time                 ...        0 min,  0.021 sec
 * total energy  :    45.9214249 Eh     change       -0.9371486E-04 Eh
   gradient norm :     0.0001012 Eh/α   predicted    -0.2600908E-10 (-100.00%)
   displ. norm   :     0.0001746 α      lambda        0.0000000E+00
   maximum displ.:     0.0001402 α      in ANC's #7, #17, #40, ...

........................................................................
.............................. CYCLE  239 ..............................
........................................................................
     iter. time                 ...        0 min,  0.021 sec
 * total energy  :    45.9213312 Eh     change       -0.9368620E-04 Eh
   gradient norm :     0.0001785 Eh/α   predicted     0.4958814E-08 (-100.01%)
   displ. norm   :     0.0003511 α      lambda        0.1615909E-08
   maximum displ.:     0.0003057 α      in ANC's #7, #43, #17, ...

........................................................................
.............................. CYCLE  240 ..............................
........................................................................
     iter. time                 ...        0 min,  0.021 sec
 * total energy  :    45.9214193 Eh     change        0.8803592E-04 Eh
   gradient norm :     0.0000888 Eh/α   predicted    -0.5642834E-08 (-100.01%)
   displ. norm   :     0.0003511 α      lambda        0.0000000E+00
   maximum displ.:     0.0003057 α      in ANC's #7, #43, #17, ...

........................................................................
.............................. CYCLE  241 ..............................
........................................................................
     iter. time                 ...        0 min,  0.021 sec
 * total energy  :    45.9215074 Eh     change        0.8814040E-04 Eh
   gradient norm :     0.0001209 Eh/α   predicted     0.3304430E-08 (-100.00%)
   displ. norm   :     0.0002749 α      lambda        0.5431586E-09
   maximum displ.:     0.0002625 α      in ANC's #7, #17, #43, ...

........................................................................
.............................. CYCLE  242 ..............................
........................................................................
     iter. time                 ...        0 min,  0.021 sec
 * total energy  :    45.9214433 Eh     change       -0.6407087E-04 Eh
   gradient norm :     0.0000664 Eh/α   predicted    -0.4315494E-08 ( -99.99%)
   displ. norm   :     0.0002749 α      lambda        0.0000000E+00
   maximum displ.:     0.0002625 α      in ANC's #7, #17, #43, ...

........................................................................
.............................. CYCLE  243 ..............................
........................................................................
     iter. time                 ...        0 min,  0.021 sec
 * total energy  :    45.9213793 Eh     change       -0.6400426E-04 Eh
   gradient norm :     0.0001396 Eh/α   predicted     0.4210058E-08 (-100.01%)
   displ. norm   :     0.0001813 α      lambda       -0.4457247E-08
   maximum displ.:     0.0001424 α      in ANC's #7, #43, #17, ...

........................................................................
.............................. CYCLE  244 ..............................
........................................................................
     iter. time                 ...        0 min,  0.021 sec
 * total energy  :    45.9213555 Eh     change       -0.2378228E-04 Eh
   gradient norm :     0.0000622 Eh/α   predicted    -0.5569256E-08 ( -99.98%)
   displ. norm   :     0.0001813 α      lambda        0.0000000E+00
   maximum displ.:     0.0001424 α      in ANC's #7, #43, #17, ...

........................................................................
.............................. CYCLE  245 ..............................
........................................................................
     iter. time                 ...        0 min,  0.021 sec
 * total energy  :    45.9213318 Eh     change       -0.2374897E-04 Eh
   gradient norm :     0.0001299 Eh/α   predicted     0.3010851E-08 (-100.01%)
   displ. norm   :     0.0002562 α      lambda       -0.3472251E-08
   maximum displ.:     0.0002459 α      in ANC's #7, #17, #43, ...

........................................................................
.............................. CYCLE  246 ..............................
........................................................................
     iter. time                 ...        0 min,  0.021 sec
 * total energy  :    45.9212662 Eh     change       -0.6555992E-04 Eh
   gradient norm :     0.0000624 Eh/α   predicted    -0.4204579E-08 ( -99.99%)
   displ. norm   :     0.0002562 α      lambda        0.0000000E+00
   maximum displ.:     0.0002459 α      in ANC's #7, #17, #43, ...

........................................................................
.............................. CYCLE  247 ..............................
........................................................................
     iter. time                 ...        0 min,  0.021 sec
 * total energy  :    45.9212007 Eh     change       -0.6550229E-04 Eh
   gradient norm :     0.0001033 Eh/α   predicted     0.1861106E-08 (-100.00%)
   displ. norm   :     0.0001529 α      lambda       -0.2793409E-08
   maximum displ.:     0.0001364 α      in ANC's #7, #17, #43, ...

........................................................................
.............................. CYCLE  248 ..............................
........................................................................
     iter. time                 ...        0 min,  0.021 sec
 * total energy  :    45.9211687 Eh     change       -0.3207130E-04 Eh
   gradient norm :     0.0000609 Eh/α   predicted    -0.3088749E-08 ( -99.99%)
   displ. norm   :     0.0001529 α      lambda        0.0000000E+00
   maximum displ.:     0.0001364 α      in ANC's #7, #17, #43, ...

........................................................................
.............................. CYCLE  249 ..............................
........................................................................
     iter. time                 ...        0 min,  0.021 sec
 * total energy  :    45.9211366 Eh     change       -0.3204593E-04 Eh
   gradient norm :     0.0001013 Eh/α   predicted     0.5768625E-09 (-100.00%)
   displ. norm   :     0.0001529 α      lambda        0.0000000E+00
   maximum displ.:     0.0001364 α      in ANC's #7, #17, #43, ...

........................................................................
.............................. CYCLE  250 ..............................
........................................................................
     iter. time                 ...        0 min,  0.021 sec
 * total energy  :    45.9211046 Eh     change       -0.3202055E-04 Eh
   gradient norm :     0.0001741 Eh/α   predicted     0.4983557E-08 (-100.02%)
   displ. norm   :     0.0002930 α      lambda        0.1878077E-07
   maximum displ.:     0.0002689 α      in ANC's #7, #43, #40, ...

........................................................................
.............................. CYCLE  251 ..............................
........................................................................
     iter. time                 ...        0 min,  0.021 sec
 * total energy  :    45.9210011 Eh     change       -0.1034881E-03 Eh
   gradient norm :     0.0000953 Eh/α   predicted    -0.5938960E-08 ( -99.99%)
   displ. norm   :     0.0002930 α      lambda        0.0000000E+00
   maximum displ.:     0.0002689 α      in ANC's #7, #43, #40, ...

........................................................................
.............................. CYCLE  252 ..............................
........................................................................
     iter. time                 ...        0 min,  0.022 sec
 * total energy  :    45.9208977 Eh     change       -0.1034130E-03 Eh
   gradient norm :     0.0001377 Eh/α   predicted     0.1435705E-08 (-100.00%)
   displ. norm   :     0.0001520 α      lambda        0.2243261E-07
   maximum displ.:     0.0000797 α      in ANC's #43, #40, #7, ...

........................................................................
.............................. CYCLE  253 ..............................
........................................................................
     iter. time                 ...        0 min,  0.021 sec
 * total energy  :    45.9207390 Eh     change       -0.1587265E-03 Eh
   gradient norm :     0.0000719 Eh/α   predicted    -0.4646889E-08 (-100.00%)
   displ. norm   :     0.0001520 α      lambda        0.0000000E+00
   maximum displ.:     0.0000797 α      in ANC's #43, #40, #7, ...

........................................................................
.............................. CYCLE  254 ..............................
........................................................................
     iter. time                 ...        0 min,  0.021 sec
 * total energy  :    45.9205803 Eh     change       -0.1586872E-03 Eh
   gradient norm :     0.0000744 Eh/α   predicted    -0.4325205E-08 (-100.00%)
   displ. norm   :     0.0001520 α      lambda        0.0000000E+00
   maximum displ.:     0.0000797 α      in ANC's #43, #40, #7, ...

........................................................................
.............................. CYCLE  255 ..............................
........................................................................
     iter. time                 ...        0 min,  0.021 sec
 * total energy  :    45.9204216 Eh     change       -0.1586479E-03 Eh
   gradient norm :     0.0001416 Eh/α   predicted    -0.2201428E-09 (-100.00%)
   displ. norm   :     0.0001520 α      lambda        0.0000000E+00
   maximum displ.:     0.0000797 α      in ANC's #43, #40, #7, ...

........................................................................
.............................. CYCLE  256 ..............................
........................................................................
     iter. time                 ...        0 min,  0.021 sec
 * total energy  :    45.9202630 Eh     change       -0.1586086E-03 Eh
   gradient norm :     0.0002206 Eh/α   predicted     0.3884835E-08 (-100.00%)
   displ. norm   :     0.0003001 α      lambda        0.1597944E-07
   maximum displ.:     0.0002264 α      in ANC's #7, #43, #40, ...

........................................................................
.............................. CYCLE  257 ..............................
........................................................................
     iter. time                 ...        0 min,  0.021 sec
 * total energy  :    45.9200502 Eh     change       -0.2128707E-03 Eh
   gradient norm :     0.0001283 Eh/α   predicted    -0.9107786E-08 (-100.00%)
   displ. norm   :     0.0003001 α      lambda        0.0000000E+00
   maximum displ.:     0.0002264 α      in ANC's #7, #43, #40, ...

........................................................................
.............................. CYCLE  258 ..............................
........................................................................
     iter. time                 ...        0 min,  0.021 sec
 * total energy  :    45.9198374 Eh     change       -0.2127865E-03 Eh
   gradient norm :     0.0001174 Eh/α   predicted    -0.4885461E-08 (-100.00%)
   displ. norm   :     0.0003001 α      lambda        0.0000000E+00
   maximum displ.:     0.0002264 α      in ANC's #7, #43, #40, ...
 * RMSD in coord.:     0.0019077 α      energy gain  -0.1103409E+00 Eh

generating ANC from exact Hessian ...
Using GFN-FF Lindh-Hessian
 Shifting diagonal of input Hessian by    1.0013236194584206E-002
 Lowest  eigenvalues of input Hessian
    0.010000    0.000000    0.000000    0.000000    0.000000    0.000000
    0.000000    0.010023    0.010025    0.010027    0.010030    0.010033
    0.010042    0.010047    0.010054    0.010059    0.010067    0.010079
 Highest eigenvalues
   45.527646   48.687081  101.067661  114.009558  322.516627  757.275221


........................................................................
.............................. CYCLE  259 ..............................
........................................................................
     iter. time                 ...        0 min,  0.021 sec
 * total energy  :    45.9196247 Eh     change       -0.2127024E-03 Eh
   gradient norm :     0.0001657 Eh/α   predicted     0.0000000E+00 (-100.00%)
   displ. norm   :     0.0000858 α      lambda        0.2450302E-07
   maximum displ.:     0.0000562 α      in ANC's #12, #5, #42, ...

........................................................................
.............................. CYCLE  260 ..............................
........................................................................
     iter. time                 ...        0 min,  0.021 sec
 * total energy  :    45.9195782 Eh     change       -0.4643306E-04 Eh
   gradient norm :     0.0001011 Eh/α   predicted    -0.4607190E-08 ( -99.99%)
   displ. norm   :     0.0000858 α      lambda        0.0000000E+00
   maximum displ.:     0.0000562 α      in ANC's #12, #5, #42, ...

........................................................................
.............................. CYCLE  261 ..............................
........................................................................
     iter. time                 ...        0 min,  0.021 sec
 * total energy  :    45.9195318 Eh     change       -0.4642356E-04 Eh
   gradient norm :     0.0000789 Eh/α   predicted    -0.3408073E-08 ( -99.99%)
   displ. norm   :     0.0000858 α      lambda        0.0000000E+00
   maximum displ.:     0.0000562 α      in ANC's #12, #5, #42, ...

........................................................................
.............................. CYCLE  262 ..............................
........................................................................
     iter. time                 ...        0 min,  0.021 sec
 * total energy  :    45.9194854 Eh     change       -0.4641407E-04 Eh
   gradient norm :     0.0001243 Eh/α   predicted     0.6291274E-09 (-100.00%)
   displ. norm   :     0.0000858 α      lambda        0.0000000E+00
   maximum displ.:     0.0000562 α      in ANC's #12, #5, #42, ...

........................................................................
.............................. CYCLE  263 ..............................
........................................................................
     iter. time                 ...        0 min,  0.021 sec
 * total energy  :    45.9194390 Eh     change       -0.4640457E-04 Eh
   gradient norm :     0.0001948 Eh/α   predicted     0.4666503E-08 (-100.01%)
   displ. norm   :     0.0000858 α      lambda        0.0000000E+00
   maximum displ.:     0.0000562 α      in ANC's #12, #5, #42, ...

........................................................................
.............................. CYCLE  264 ..............................
........................................................................
     iter. time                 ...        0 min,  0.021 sec
 * total energy  :    45.9193926 Eh     change       -0.4639507E-04 Eh
   gradient norm :     0.0002713 Eh/α   predicted     0.8704052E-08 (-100.02%)
   displ. norm   :     0.0001216 α      lambda        0.2548355E-07
   maximum displ.:     0.0000638 α      in ANC's #12, #5, #41, ...

........................................................................
.............................. CYCLE  265 ..............................
........................................................................
     iter. time                 ...        0 min,  0.021 sec
 * total energy  :    45.9192874 Eh     change       -0.1051686E-03 Eh
   gradient norm :     0.0002006 Eh/α   predicted    -0.4711788E-08 (-100.00%)
   displ. norm   :     0.0001216 α      lambda        0.0000000E+00
   maximum displ.:     0.0000638 α      in ANC's #12, #5, #41, ...

........................................................................
.............................. CYCLE  266 ..............................
........................................................................
     iter. time                 ...        0 min,  0.021 sec
 * total energy  :    45.9191823 Eh     change       -0.1051452E-03 Eh
   gradient norm :     0.0001377 Eh/α   predicted    -0.1132864E-07 ( -99.99%)
   displ. norm   :     0.0001216 α      lambda        0.0000000E+00
   maximum displ.:     0.0000638 α      in ANC's #12, #5, #41, ...

........................................................................
.............................. CYCLE  267 ..............................
........................................................................
     iter. time                 ...        0 min,  0.021 sec
 * total energy  :    45.9190772 Eh     change       -0.1051217E-03 Eh
   gradient norm :     0.0000986 Eh/α   predicted    -0.7813782E-08 ( -99.99%)
   displ. norm   :     0.0001216 α      lambda        0.0000000E+00
   maximum displ.:     0.0000638 α      in ANC's #12, #5, #41, ...

........................................................................
.............................. CYCLE  268 ..............................
........................................................................
     iter. time                 ...        0 min,  0.021 sec
 * total energy  :    45.9189721 Eh     change       -0.1050982E-03 Eh
   gradient norm :     0.0001122 Eh/α   predicted    -0.4299006E-08 (-100.00%)
   displ. norm   :     0.0001216 α      lambda        0.0000000E+00
   maximum displ.:     0.0000638 α      in ANC's #12, #5, #41, ...

........................................................................
.............................. CYCLE  269 ..............................
........................................................................
     iter. time                 ...        0 min,  0.021 sec
 * total energy  :    45.9188670 Eh     change       -0.1050748E-03 Eh
   gradient norm :     0.0001659 Eh/α   predicted    -0.7843126E-09 (-100.00%)
   displ. norm   :     0.0001216 α      lambda        0.0000000E+00
   maximum displ.:     0.0000638 α      in ANC's #12, #5, #41, ...

........................................................................
.............................. CYCLE  270 ..............................
........................................................................
     iter. time                 ...        0 min,  0.021 sec
 * total energy  :    45.9187619 Eh     change       -0.1050513E-03 Eh
   gradient norm :     0.0002335 Eh/α   predicted     0.2730298E-08 (-100.00%)
   displ. norm   :     0.0002170 α      lambda        0.1248965E-07
   maximum displ.:     0.0001375 α      in ANC's #5, #41, #42, ...

........................................................................
.............................. CYCLE  271 ..............................
........................................................................
     iter. time                 ...        0 min,  0.021 sec
 * total energy  :    45.9185599 Eh     change       -0.2020188E-03 Eh
   gradient norm :     0.0001587 Eh/α   predicted    -0.9414801E-08 (-100.00%)
   displ. norm   :     0.0002170 α      lambda        0.0000000E+00
   maximum displ.:     0.0001375 α      in ANC's #5, #41, #42, ...

........................................................................
.............................. CYCLE  272 ..............................
........................................................................
     iter. time                 ...        0 min,  0.021 sec
 * total energy  :    45.9183580 Eh     change       -0.2019425E-03 Eh
   gradient norm :     0.0001032 Eh/α   predicted    -0.1372293E-07 ( -99.99%)
   displ. norm   :     0.0002170 α      lambda        0.0000000E+00
   maximum displ.:     0.0001375 α      in ANC's #5, #41, #42, ...

........................................................................
.............................. CYCLE  273 ..............................
........................................................................
     iter. time                 ...        0 min,  0.021 sec
 * total energy  :    45.9181561 Eh     change       -0.2018662E-03 Eh
   gradient norm :     0.0001046 Eh/α   predicted    -0.9418674E-08 (-100.00%)
   displ. norm   :     0.0002170 α      lambda        0.0000000E+00
   maximum displ.:     0.0001375 α      in ANC's #5, #41, #42, ...

........................................................................
.............................. CYCLE  274 ..............................
........................................................................
     iter. time                 ...        0 min,  0.021 sec
 * total energy  :    45.9179543 Eh     change       -0.2017900E-03 Eh
   gradient norm :     0.0001613 Eh/α   predicted    -0.5114575E-08 (-100.00%)
   displ. norm   :     0.0002170 α      lambda        0.0000000E+00
   maximum displ.:     0.0001375 α      in ANC's #5, #41, #42, ...

........................................................................
.............................. CYCLE  275 ..............................
........................................................................
     iter. time                 ...        0 min,  0.021 sec
 * total energy  :    45.9177526 Eh     change       -0.2017138E-03 Eh
   gradient norm :     0.0002364 Eh/α   predicted    -0.8106301E-09 (-100.00%)
   displ. norm   :     0.0002170 α      lambda        0.0000000E+00
   maximum displ.:     0.0001375 α      in ANC's #5, #41, #42, ...

........................................................................
.............................. CYCLE  276 ..............................
........................................................................
     iter. time                 ...        0 min,  0.021 sec
 * total energy  :    45.9175510 Eh     change       -0.2016375E-03 Eh
   gradient norm :     0.0003171 Eh/α   predicted     0.3493161E-08 (-100.00%)
   displ. norm   :     0.0004237 α      lambda        0.1559360E-07
   maximum displ.:     0.0002480 α      in ANC's #5, #41, #69, ...

........................................................................
.............................. CYCLE  277 ..............................
........................................................................
     iter. time                 ...        0 min,  0.021 sec
 * total energy  :    45.9171602 Eh     change       -0.3907636E-03 Eh
   gradient norm :     0.0001482 Eh/α   predicted    -0.2508555E-07 ( -99.99%)
   displ. norm   :     0.0011512 α      lambda       -0.4101543E-07
   maximum displ.:     0.0007700 α      in ANC's #5, #41, #69, ...

........................................................................
.............................. CYCLE  278 ..............................
........................................................................
     iter. time                 ...        0 min,  0.021 sec
 * total energy  :    45.9160798 Eh     change       -0.1080418E-02 Eh
   gradient norm :     0.0001342 Eh/α   predicted    -0.3642715E-07 (-100.00%)
   displ. norm   :     0.0028062 α      lambda       -0.5493249E-07
   maximum displ.:     0.0017618 α      in ANC's #5, #41, #69, ...

........................................................................
.............................. CYCLE  279 ..............................
........................................................................
     iter. time                 ...        0 min,  0.021 sec
 * total energy  :    45.9132810 Eh     change       -0.2798749E-02 Eh
   gradient norm :     0.0002224 Eh/α   predicted    -0.5851854E-07 (-100.00%)
   displ. norm   :     0.0061503 α      lambda       -0.1664795E-06
   maximum displ.:     0.0038027 α      in ANC's #5, #41, #69, ...

........................................................................
.............................. CYCLE  280 ..............................
........................................................................
     iter. time                 ...        0 min,  0.021 sec
 * total energy  :    45.9071017 Eh     change       -0.6179302E-02 Eh
   gradient norm :     0.0002062 Eh/α   predicted    -0.1036567E-06 (-100.00%)
   displ. norm   :     0.0029518 α      lambda        0.1106032E-07
   maximum displ.:     0.0018250 α      in ANC's #5, #41, #69, ...

........................................................................
.............................. CYCLE  281 ..............................
........................................................................
     iter. time                 ...        0 min,  0.021 sec
 * total energy  :    45.9041619 Eh     change       -0.2939871E-02 Eh
   gradient norm :     0.0002191 Eh/α   predicted    -0.1216651E-07 (-100.00%)
   displ. norm   :     0.0025047 α      lambda        0.3607648E-07
   maximum displ.:     0.0015480 α      in ANC's #5, #41, #69, ...

........................................................................
.............................. CYCLE  282 ..............................
........................................................................
     iter. time                 ...        0 min,  0.021 sec
 * total energy  :    45.9016849 Eh     change       -0.2476950E-02 Eh
   gradient norm :     0.0002549 Eh/α   predicted     0.1736380E-07 (-100.00%)
   displ. norm   :     0.0025761 α      lambda        0.7902014E-07
   maximum displ.:     0.0015924 α      in ANC's #5, #41, #69, ...

........................................................................
.............................. CYCLE  283 ..............................
........................................................................
     iter. time                 ...        0 min,  0.021 sec
 * total energy  :    45.8991465 Eh     change       -0.2538406E-02 Eh
   gradient norm :     0.0002882 Eh/α   predicted     0.3946641E-07 (-100.00%)
   displ. norm   :     0.0025064 α      lambda        0.1258492E-06
   maximum displ.:     0.0015491 α      in ANC's #5, #41, #69, ...

........................................................................
.............................. CYCLE  284 ..............................
........................................................................
     iter. time                 ...        0 min,  0.021 sec
 * total energy  :    45.8966898 Eh     change       -0.2456690E-02 Eh
   gradient norm :     0.0003303 Eh/α   predicted     0.6287025E-07 (-100.00%)
   displ. norm   :     0.0025428 α      lambda        0.1707152E-06
   maximum displ.:     0.0015717 α      in ANC's #5, #41, #69, ...

........................................................................
.............................. CYCLE  285 ..............................
........................................................................
     iter. time                 ...        0 min,  0.021 sec
 * total energy  :    45.8942067 Eh     change       -0.2483132E-02 Eh
   gradient norm :     0.0003696 Eh/α   predicted     0.8533649E-07 (-100.00%)
   displ. norm   :     0.0025700 α      lambda        0.2165627E-06
   maximum displ.:     0.0015886 α      in ANC's #5, #41, #69, ...

........................................................................
.............................. CYCLE  286 ..............................
........................................................................
     iter. time                 ...        0 min,  0.021 sec
 * total energy  :    45.8917067 Eh     change       -0.2500008E-02 Eh
   gradient norm :     0.0004062 Eh/α   predicted     0.1082671E-06 (-100.00%)
   displ. norm   :     0.0025934 α      lambda        0.2629758E-06
   maximum displ.:     0.0016031 α      in ANC's #5, #41, #69, ...

........................................................................
.............................. CYCLE  287 ..............................
........................................................................
     iter. time                 ...        0 min,  0.021 sec
 * total energy  :    45.8891938 Eh     change       -0.2512872E-02 Eh
   gradient norm :     0.0004402 Eh/α   predicted     0.1314755E-06 (-100.01%)
   displ. norm   :     0.0026120 α      lambda        0.3098670E-06
   maximum displ.:     0.0016147 α      in ANC's #5, #41, #69, ...

........................................................................
.............................. CYCLE  288 ..............................
........................................................................
     iter. time                 ...        0 min,  0.021 sec
 * total energy  :    45.8866731 Eh     change       -0.2520703E-02 Eh
   gradient norm :     0.0004720 Eh/α   predicted     0.1549248E-06 (-100.01%)
   displ. norm   :     0.0026271 α      lambda        0.3571405E-06
   maximum displ.:     0.0016240 α      in ANC's #5, #41, #69, ...

........................................................................
.............................. CYCLE  289 ..............................
........................................................................
     iter. time                 ...        0 min,  0.021 sec
 * total energy  :    45.8841483 Eh     change       -0.2524847E-02 Eh
   gradient norm :     0.0005019 Eh/α   predicted     0.1785638E-06 (-100.01%)
   displ. norm   :     0.0026397 α      lambda        0.4047204E-06
   maximum displ.:     0.0016318 α      in ANC's #5, #41, #69, ...

........................................................................
.............................. CYCLE  290 ..............................
........................................................................
     iter. time                 ...        0 min,  0.021 sec
 * total energy  :    45.8816219 Eh     change       -0.2526384E-02 Eh
   gradient norm :     0.0005301 Eh/α   predicted     0.2023554E-06 (-100.01%)
   displ. norm   :     0.0026506 α      lambda        0.4525538E-06
   maximum displ.:     0.0016384 α      in ANC's #5, #41, #69, ...

........................................................................
.............................. CYCLE  291 ..............................
........................................................................
     iter. time                 ...        0 min,  0.021 sec
 * total energy  :    45.8790959 Eh     change       -0.2526019E-02 Eh
   gradient norm :     0.0005569 Eh/α   predicted     0.2262732E-06 (-100.01%)
   displ. norm   :     0.0026601 α      lambda        0.5006018E-06
   maximum displ.:     0.0016443 α      in ANC's #5, #41, #69, ...

........................................................................
.............................. CYCLE  292 ..............................
........................................................................
     iter. time                 ...        0 min,  0.021 sec
 * total energy  :    45.8765716 Eh     change       -0.2524236E-02 Eh
   gradient norm :     0.0005824 Eh/α   predicted     0.2502979E-06 (-100.01%)
   displ. norm   :     0.0026686 α      lambda        0.5488352E-06
   maximum displ.:     0.0016494 α      in ANC's #5, #41, #69, ...

........................................................................
.............................. CYCLE  293 ..............................
........................................................................
     iter. time                 ...        0 min,  0.021 sec
 * total energy  :    45.8740503 Eh     change       -0.2521365E-02 Eh
   gradient norm :     0.0006069 Eh/α   predicted     0.2744151E-06 (-100.01%)
   displ. norm   :     0.0026764 α      lambda        0.5972318E-06
   maximum displ.:     0.0016541 α      in ANC's #5, #41, #69, ...

........................................................................
.............................. CYCLE  294 ..............................
........................................................................
     iter. time                 ...        0 min,  0.021 sec
 * total energy  :    45.8715326 Eh     change       -0.2517652E-02 Eh
   gradient norm :     0.0006303 Eh/α   predicted     0.2986138E-06 (-100.01%)
   displ. norm   :     0.0026835 α      lambda        0.6457742E-06
   maximum displ.:     0.0016584 α      in ANC's #5, #41, #69, ...

........................................................................
.............................. CYCLE  295 ..............................
........................................................................
     iter. time                 ...        0 min,  0.021 sec
 * total energy  :    45.8690193 Eh     change       -0.2513283E-02 Eh
   gradient norm :     0.0006529 Eh/α   predicted     0.3228853E-06 (-100.01%)
   displ. norm   :     0.0026901 α      lambda        0.6944492E-06
   maximum displ.:     0.0016624 α      in ANC's #5, #41, #69, ...

........................................................................
.............................. CYCLE  296 ..............................
........................................................................
     iter. time                 ...        0 min,  0.021 sec
 * total energy  :    45.8665109 Eh     change       -0.2508397E-02 Eh
   gradient norm :     0.0006747 Eh/α   predicted     0.3472229E-06 (-100.01%)
   displ. norm   :     0.0026964 α      lambda        0.7432449E-06
   maximum displ.:     0.0016661 α      in ANC's #5, #41, #69, ...

........................................................................
.............................. CYCLE  297 ..............................
........................................................................
     iter. time                 ...        0 min,  0.021 sec
 * total energy  :    45.8640078 Eh     change       -0.2503110E-02 Eh
   gradient norm :     0.0006957 Eh/α   predicted     0.3716211E-06 (-100.01%)
   displ. norm   :     0.0027024 α      lambda        0.7921503E-06
   maximum displ.:     0.0016696 α      in ANC's #5, #41, #69, ...

........................................................................
.............................. CYCLE  298 ..............................
........................................................................
     iter. time                 ...        0 min,  0.021 sec
 * total energy  :    45.8615103 Eh     change       -0.2497504E-02 Eh
   gradient norm :     0.0007160 Eh/α   predicted     0.3960740E-06 (-100.02%)
   displ. norm   :     0.0027081 α      lambda        0.8411637E-06
   maximum displ.:     0.0016730 α      in ANC's #5, #41, #69, ...
 * RMSD in coord.:     0.0040357 α      energy gain  -0.5832706E-01 Eh

generating ANC from exact Hessian ...
Using GFN-FF Lindh-Hessian
 Shifting diagonal of input Hessian by    1.0013240774795673E-002
 Lowest  eigenvalues of input Hessian
    0.010000    0.000000    0.000000    0.000000    0.000000    0.000000
    0.000000    0.010023    0.010025    0.010027    0.010030    0.010033
    0.010042    0.010047    0.010054    0.010059    0.010067    0.010079
 Highest eigenvalues
   43.444925   48.614581  102.495395  114.116652  322.388689  756.334358


........................................................................
.............................. CYCLE  299 ..............................
........................................................................
     iter. time                 ...        0 min,  0.021 sec
 * total energy  :    45.8590186 Eh     change       -0.2491659E-02 Eh
   gradient norm :     0.0007364 Eh/α   predicted     0.0000000E+00 (-100.00%)
   displ. norm   :     0.0003569 α      lambda        0.5940755E-06
   maximum displ.:     0.0002527 α      in ANC's #43, #20, #12, ...

........................................................................
.............................. CYCLE  300 ..............................
........................................................................
     iter. time                 ...        0 min,  0.021 sec
 * total energy  :    45.8589977 Eh     change       -0.2090693E-04 Eh
   gradient norm :     0.0006134 Eh/α   predicted    -0.8512067E-07 ( -99.59%)
   displ. norm   :     0.0021833 α      lambda       -0.6572528E-06
   maximum displ.:     0.0017349 α      in ANC's #43, #7, #14, ...

........................................................................
.............................. CYCLE  301 ..............................
........................................................................
     iter. time                 ...        0 min,  0.021 sec
 * total energy  :    45.8589105 Eh     change       -0.8720359E-04 Eh
   gradient norm :     0.0008711 Eh/α   predicted    -0.4474703E-06 ( -99.49%)
   displ. norm   :     0.0021833 α      lambda        0.0000000E+00
   maximum displ.:     0.0017349 α      in ANC's #43, #7, #14, ...

........................................................................
.............................. CYCLE  302 ..............................
........................................................................
     iter. time                 ...        0 min,  0.021 sec
 * total energy  :    45.8588254 Eh     change       -0.8512064E-04 Eh
   gradient norm :     0.0016913 Eh/α   predicted     0.4595602E-09 (-100.00%)
   displ. norm   :     0.0004941 α      lambda       -0.3744221E-06
   maximum displ.:     0.0003220 α      in ANC's #20, #13, #12, ...

........................................................................
.............................. CYCLE  303 ..............................
........................................................................
     iter. time                 ...        0 min,  0.021 sec
 * total energy  :    45.8587948 Eh     change       -0.3062084E-04 Eh
   gradient norm :     0.0011511 Eh/α   predicted    -0.2647366E-06 ( -99.14%)
   displ. norm   :     0.0027723 α      lambda       -0.1132925E-05
   maximum displ.:     0.0021917 α      in ANC's #43, #7, #20, ...

........................................................................
.............................. CYCLE  304 ..............................
........................................................................
     iter. time                 ...        0 min,  0.021 sec
 * total energy  :    45.8585913 Eh     change       -0.2035251E-03 Eh
   gradient norm :     0.0004355 Eh/α   predicted    -0.6791101E-06 ( -99.67%)
   displ. norm   :     0.0040646 α      lambda       -0.8074538E-06
   maximum displ.:     0.0033664 α      in ANC's #43, #7, #14, ...

........................................................................
.............................. CYCLE  305 ..............................
........................................................................
     iter. time                 ...        0 min,  0.021 sec
 * total energy  :    45.8583573 Eh     change       -0.2340004E-03 Eh
   gradient norm :     0.0005804 Eh/α   predicted    -0.4284605E-06 ( -99.82%)
   displ. norm   :     0.0036530 α      lambda       -0.3824585E-06
   maximum displ.:     0.0029154 α      in ANC's #43, #7, #14, ...

........................................................................
.............................. CYCLE  306 ..............................
........................................................................
     iter. time                 ...        0 min,  0.021 sec
 * total energy  :    45.8581360 Eh     change       -0.2213063E-03 Eh
   gradient norm :     0.0005402 Eh/α   predicted    -0.2234890E-06 ( -99.90%)
   displ. norm   :     0.0024492 α      lambda        0.6590327E-07
   maximum displ.:     0.0019919 α      in ANC's #43, #7, #14, ...

........................................................................
.............................. CYCLE  307 ..............................
........................................................................
     iter. time                 ...        0 min,  0.021 sec
 * total energy  :    45.8580171 Eh     change       -0.1188753E-03 Eh
   gradient norm :     0.0005928 Eh/α   predicted     0.1384544E-07 (-100.01%)
   displ. norm   :     0.0012184 α      lambda        0.2853648E-06
   maximum displ.:     0.0011377 α      in ANC's #43, #7, #14, ...

........................................................................
.............................. CYCLE  308 ..............................
........................................................................
     iter. time                 ...        0 min,  0.021 sec
 * total energy  :    45.8578895 Eh     change       -0.1276232E-03 Eh
   gradient norm :     0.0005066 Eh/α   predicted    -0.7172615E-07 ( -99.94%)
   displ. norm   :     0.0018329 α      lambda       -0.3292281E-06
   maximum displ.:     0.0017974 α      in ANC's #43, #7, #14, ...

........................................................................
.............................. CYCLE  309 ..............................
........................................................................
     iter. time                 ...        0 min,  0.021 sec
 * total energy  :    45.8572792 Eh     change       -0.6102657E-03 Eh
   gradient norm :     0.0003697 Eh/α   predicted    -0.1731303E-06 ( -99.97%)
   displ. norm   :     0.0021963 α      lambda       -0.3861702E-06
   maximum displ.:     0.0018341 α      in ANC's #7, #43, #54, ...

........................................................................
.............................. CYCLE  310 ..............................
........................................................................
     iter. time                 ...        0 min,  0.021 sec
 * total energy  :    45.8559973 Eh     change       -0.1281849E-02 Eh
   gradient norm :     0.0004452 Eh/α   predicted    -0.2320574E-06 ( -99.98%)
   displ. norm   :     0.0075989 α      lambda       -0.1340602E-05
   maximum displ.:     0.0072548 α      in ANC's #7, #14, #54, ...

........................................................................
.............................. CYCLE  311 ..............................
........................................................................
     iter. time                 ...        0 min,  0.021 sec
 * total energy  :    45.8520337 Eh     change       -0.3963635E-02 Eh
   gradient norm :     0.0008482 Eh/α   predicted    -0.6867668E-06 ( -99.98%)
   displ. norm   :     0.0141103 α      lambda       -0.1731864E-05
   maximum displ.:     0.0132887 α      in ANC's #7, #14, #54, ...

........................................................................
.............................. CYCLE  312 ..............................
........................................................................
     iter. time                 ...        0 min,  0.021 sec
 * total energy  :    45.8459250 Eh     change       -0.6108739E-02 Eh
   gradient norm :     0.0010461 Eh/α   predicted    -0.9801178E-06 ( -99.98%)
   displ. norm   :     0.0148257 α      lambda       -0.1582863E-05
   maximum displ.:     0.0133510 α      in ANC's #7, #43, #14, ...

........................................................................
.............................. CYCLE  313 ..............................
........................................................................
     iter. time                 ...        0 min,  0.021 sec
 * total energy  :    45.8408292 Eh     change       -0.5095767E-02 Eh
   gradient norm :     0.0006592 Eh/α   predicted    -0.8280003E-06 ( -99.98%)
   displ. norm   :     0.0048009 α      lambda       -0.5047668E-06
   maximum displ.:     0.0033639 α      in ANC's #7, #43, #14, ...

........................................................................
.............................. CYCLE  314 ..............................
........................................................................
     iter. time                 ...        0 min,  0.021 sec
 * total energy  :    45.8400301 Eh     change       -0.7991077E-03 Eh
   gradient norm :     0.0001716 Eh/α   predicted    -0.2795240E-06 ( -99.97%)
   displ. norm   :     0.0009759 α      lambda       -0.5187576E-07
   maximum displ.:     0.0009501 α      in ANC's #43, #7, #54, ...

........................................................................
.............................. CYCLE  315 ..............................
........................................................................
     iter. time                 ...        0 min,  0.021 sec
 * total energy  :    45.8402801 Eh     change        0.2500403E-03 Eh
   gradient norm :     0.0000887 Eh/α   predicted    -0.3744703E-07 (-100.01%)
   displ. norm   :     0.0008449 α      lambda        0.2831735E-07
   maximum displ.:     0.0008339 α      in ANC's #43, #7, #54, ...

........................................................................
.............................. CYCLE  316 ..............................
........................................................................
     iter. time                 ...        0 min,  0.021 sec
 * total energy  :    45.8405071 Eh     change        0.2269202E-03 Eh
   gradient norm :     0.0001840 Eh/α   predicted     0.1324254E-07 ( -99.99%)
   displ. norm   :     0.0003562 α      lambda        0.3571594E-07
   maximum displ.:     0.0003406 α      in ANC's #7, #54, #43, ...

........................................................................
.............................. CYCLE  317 ..............................
........................................................................
     iter. time                 ...        0 min,  0.021 sec
 * total energy  :    45.8403285 Eh     change       -0.1785190E-03 Eh
   gradient norm :     0.0000995 Eh/α   predicted     0.8855653E-08 (-100.00%)
   displ. norm   :     0.0003562 α      lambda        0.0000000E+00
   maximum displ.:     0.0003406 α      in ANC's #7, #54, #43, ...

........................................................................
.............................. CYCLE  318 ..............................
........................................................................
     iter. time                 ...        0 min,  0.021 sec
 * total energy  :    45.8401502 Eh     change       -0.1783399E-03 Eh
   gradient norm :     0.0001189 Eh/α   predicted     0.9218570E-09 (-100.00%)
   displ. norm   :     0.0007213 α      lambda       -0.2400446E-07
   maximum displ.:     0.0006483 α      in ANC's #43, #7, #14, ...

........................................................................
.............................. CYCLE  319 ..............................
........................................................................
     iter. time                 ...        0 min,  0.021 sec
 * total energy  :    45.8399910 Eh     change       -0.1592453E-03 Eh
   gradient norm :     0.0000847 Eh/α   predicted    -0.1436793E-07 ( -99.99%)
   displ. norm   :     0.0005275 α      lambda        0.2125611E-07
   maximum displ.:     0.0004782 α      in ANC's #43, #7, #54, ...

........................................................................
.............................. CYCLE  320 ..............................
........................................................................
     iter. time                 ...        0 min,  0.021 sec
 * total energy  :    45.8398780 Eh     change       -0.1129770E-03 Eh
   gradient norm :     0.0001307 Eh/α   predicted     0.8458808E-08 (-100.01%)
   displ. norm   :     0.0006463 α      lambda       -0.6955062E-08
   maximum displ.:     0.0004644 α      in ANC's #7, #43, #14, ...

........................................................................
.............................. CYCLE  321 ..............................
........................................................................
     iter. time                 ...        0 min,  0.021 sec
 * total energy  :    45.8401880 Eh     change        0.3100332E-03 Eh
   gradient norm :     0.0000564 Eh/α   predicted    -0.1089134E-07 (-100.00%)
   displ. norm   :     0.0008637 α      lambda        0.1717201E-07
   maximum displ.:     0.0007405 α      in ANC's #7, #43, #14, ...

........................................................................
.............................. CYCLE  322 ..............................
........................................................................
     iter. time                 ...        0 min,  0.021 sec
 * total energy  :    45.8405506 Eh     change        0.3626018E-03 Eh
   gradient norm :     0.0000866 Eh/α   predicted     0.7383063E-08 (-100.00%)
   displ. norm   :     0.0015712 α      lambda        0.2562570E-07
   maximum displ.:     0.0015129 α      in ANC's #7, #14, #43, ...

........................................................................
.............................. CYCLE  323 ..............................
........................................................................
     iter. time                 ...        0 min,  0.021 sec
 * total energy  :    45.8409336 Eh     change        0.3829430E-03 Eh
   gradient norm :     0.0000991 Eh/α   predicted     0.1072267E-07 (-100.00%)
   displ. norm   :     0.0007306 α      lambda       -0.7321255E-08
   maximum displ.:     0.0005513 α      in ANC's #43, #7, #14, ...

........................................................................
.............................. CYCLE  324 ..............................
........................................................................
     iter. time                 ...        0 min,  0.021 sec
 * total energy  :    45.8406721 Eh     change       -0.2614209E-03 Eh
   gradient norm :     0.0000773 Eh/α   predicted    -0.1631942E-07 ( -99.99%)
   displ. norm   :     0.0007306 α      lambda        0.0000000E+00
   maximum displ.:     0.0005513 α      in ANC's #43, #7, #14, ...

........................................................................
.............................. CYCLE  325 ..............................
........................................................................
     iter. time                 ...        0 min,  0.021 sec
 * total energy  :    45.8404109 Eh     change       -0.2612037E-03 Eh
   gradient norm :     0.0001028 Eh/α   predicted     0.9854523E-09 (-100.00%)
   displ. norm   :     0.0007661 α      lambda        0.4788551E-07
   maximum displ.:     0.0006840 α      in ANC's #7, #43, #39, ...

........................................................................
.............................. CYCLE  326 ..............................
........................................................................
     iter. time                 ...        0 min,  0.021 sec
 * total energy  :    45.8401453 Eh     change       -0.2656073E-03 Eh
   gradient norm :     0.0000885 Eh/α   predicted     0.1640676E-07 (-100.01%)
   displ. norm   :     0.0007477 α      lambda       -0.8420991E-08
   maximum displ.:     0.0006147 α      in ANC's #43, #7, #54, ...

........................................................................
.............................. CYCLE  327 ..............................
........................................................................
     iter. time                 ...        0 min,  0.021 sec
 * total energy  :    45.8401081 Eh     change       -0.3720832E-04 Eh
   gradient norm :     0.0000619 Eh/α   predicted    -0.1582786E-07 ( -99.96%)
   displ. norm   :     0.0003869 α      lambda        0.1293746E-07
   maximum displ.:     0.0002829 α      in ANC's #43, #7, #14, ...

........................................................................
.............................. CYCLE  328 ..............................
........................................................................
     iter. time                 ...        0 min,  0.021 sec
 * total energy  :    45.8401748 Eh     change        0.6665461E-04 Eh
   gradient norm :     0.0001070 Eh/α   predicted     0.2553946E-08 (-100.00%)
   displ. norm   :     0.0003460 α      lambda        0.2036372E-07
   maximum displ.:     0.0003415 α      in ANC's #43, #54, #13, ...

........................................................................
.............................. CYCLE  329 ..............................
........................................................................
     iter. time                 ...        0 min,  0.021 sec
 * total energy  :    45.8401699 Eh     change       -0.4915176E-05 Eh
   gradient norm :     0.0000702 Eh/α   predicted     0.3892824E-08 (-100.08%)
   displ. norm   :     0.0001944 α      lambda        0.5575895E-09
   maximum displ.:     0.0001801 α      in ANC's #43, #7, #14, ...

   *** GEOMETRY OPTIMIZATION CONVERGED AFTER 329 ITERATIONS ***

------------------------------------------------------------------------
 total energy gain   :        93.8505622 Eh    58892.1169 kcal/mol
 total RMSD          :         0.4448473 a0        0.2354 Å
 total power (kW/mol):       748.9502042 (step)29677.6950 (real)
------------------------------------------------------------------------

 ANCopt (total)                0 d,  0 h,  0 min,  8.303 sec
 optimizer setup                ...        0 min,  0.000 sec (  0.005%)
 model hessian                  ...        0 min,  0.691 sec (  8.326%)
 ANC generation                 ...        0 min,  0.509 sec (  6.135%)
 coordinate transformation      ...        0 min,  0.005 sec (  0.064%)
 single point calculation       ...        0 min,  7.013 sec ( 84.468%)
 optimization log               ...        0 min,  0.070 sec (  0.839%)
 hessian update                 ...        0 min,  0.002 sec (  0.018%)
 rational function              ...        0 min,  0.008 sec (  0.091%)

================
 final structure:
================
242
 xtb: 6.7.1 (edcfbbe)
N            0.74739749583926       -1.34742869889381       -0.85946666073187
N            0.04042822284812       -1.13492665322571        1.62456616728356
C           -0.64128819982217       -0.49795744018314       -3.09449030078625
C            0.66222488475822       -2.48492814043643       -2.73993849516720
C           -0.39439322436662       -2.99407910280977       -2.05149511814052
H            0.61713667081631       -3.66370100826683       -3.79893173739578
C            0.09023499834200       -3.85529254759034       -1.11847516974475
H            1.30423582844592       -4.95965755390907       -1.34483316522133
C            1.40633896289415       -3.26310498504871       -1.19857995289876
C            0.84731479201856       -3.12087328040829        1.14773785220030
C            0.36308999975297       -2.18321436561641        1.97483179869672
C            0.60371883882260       -3.29926660144726        3.58423903598246
H            0.64102592993797       -3.38429467273177        3.59155406183239
C           -0.26363071161460       -1.46084969622342        3.92647446678395
H           -0.41564996436418       -1.64776817082117        5.11986108914013
C           -0.42112274888651       -0.77211596524566        3.15656924524703
C            1.62866345889265       -4.84891009243848        1.09964263277310
C            2.65973572733305       -4.14768256748828        1.52772324095385
C            3.06710605657225       -6.00532548356156        2.02109979146462
C            2.85373086792517       -7.30047215104191        2.22662255504201
H            2.71096658156250       -7.99991852783828        2.22876774588304
C            1.02017518756622       -6.73041739993991        1.53561862550736
C            0.49782883603970       -5.93997778842349        1.46875637981559
N           -0.76803859545851        1.76086200099281        0.75569193673061
N           -0.45045522743316        0.90562629153364       -1.50227594357059
C           -1.07732393092408        0.57550901777426        3.49227060831571
C           -1.20111855874544        1.78722053560640        2.74175481633234
C           -1.33144622994783        2.68038502691916        2.23649311401556
H           -1.80864031114237        3.42476877705151        3.87803235405202
C           -1.51532850408160        4.04789605442367        2.08167878760623
H           -1.48612147087582        4.73294646707555        1.35512782257991
C           -0.84456957111191        2.65383746228206        0.54366437988722
C           -0.94981322164782        3.06244924180049       -0.39690920911994
C           -0.65035721152852        2.29558427664109       -2.29762506711500
C           -0.85987387911363        2.62744198956819       -3.14530797733550
H           -1.18776729100418        3.56566416914929       -3.62872458458823
C           -0.97115412313191        1.63986237217218       -3.63569568115232
H           -1.09576569547110        1.13096327408293       -5.00498053701552
C           -0.71615154442982       -0.31448955490404       -3.11439222271125
C           -0.82804679287781        4.91636329543151       -1.34410265770845
C            0.22761425583263        5.15103204955698       -1.49578685138128
C            0.17185747272618        6.56260896086657       -1.92469382287677
C           -0.95394480565989        7.70965411132268       -2.11926794656680
H           -1.06395493573146        8.33867954252558       -2.30035097797805
C           -2.22905215793017        6.37643054980768       -1.52933114477574
C           -2.21484452572042        5.43694717798780       -1.24445899930541
Fe          -0.77399707767085       -0.28886902164824        0.06189582986926
Cl          -2.42725725893260       -0.69460331460450        0.06353575070199
C           -1.43325977501564        0.81240612841640        4.43567117584303
C           -0.70721180273443        1.44682814741042        5.93093757722863
C           -3.12968309304191        0.41850633554244        5.03611117688009
C           -1.55380868728974        1.50119011793337        7.13753723419723
N            0.43532254653034        1.62162187450528        5.30905546123876
C           -3.40366687850161        0.72290637225633        6.40889826738560
N           -3.46181179538367       -0.11889545976575        3.82013063771324
H           -0.68374095758219        1.96115095667406        7.85287512160267
C           -2.62735785382677        1.18642950855637        7.06034754274203
C            1.48044084772437        2.12472138127740        6.36270384726234
H            0.84903747729787        1.63323380546755        4.59989546366010
H           -4.57994743725388        0.38362676720255        6.36165986309735
C           -4.93695316888367       -0.51727598196827        3.92189571290731
H           -3.21173868327884       -0.32423476787182        3.08862894079182
H           -3.17080443961250        1.36697495874187        8.30056333145775
O            1.41842550139268        2.24263108805863        7.60258626808584
C            3.03444049039668        2.47490034443204        5.87662301755924
O           -5.82538794449597       -0.28586461266017        4.81867384557633
C           -5.66263437795209       -1.25497989614122        2.70309146098737
C            4.02902883391171        2.09781855364929        6.33185704418769
H            2.87097588075807        2.44107868109069        4.56270502098127
C            3.65857333033954        3.49787603951602        6.37457101894461
C           -6.65247408081532       -1.03275154870066        2.06415492727720
H           -4.58792380160433       -1.59994818000061        1.93719367345241
C           -6.53945370833957       -2.24847521589746        2.87167949599824
H            4.00368850105806        1.53040929079398        7.41254625493452
H            4.99505252137765        1.78133973211533        5.81754451640183
H            3.25859254095017        3.92111342079892        7.34160546313688
C            4.44743987851531        4.35851717301267        5.53148158064457
H           -7.38353513777390       -0.16555792823521        2.58704885960236
H           -6.88736374582458       -1.06193579416614        0.99323644365634
H           -7.00034865776767       -2.23918911392357        3.92015820311178
C           -6.53480867786657       -3.44932314210289        2.16823809386336
O            4.58537789116608        5.76644653399360        6.16362745839031
O            4.95938336376349        4.25490844299699        4.49514103719999
O           -7.19398572647828       -4.59393544752904        2.96539878166648
O           -6.10541757538587       -3.81754672561448        1.10757156006659
C            5.27646310090169        6.71702743772220        5.51121311362863
C           -7.26341062927307       -5.82024284180095        2.44048370175026
C            4.31125925874670        7.61920305894061        4.70709204881652
C            6.06875107027815        7.50360755227228        6.57240626185697
H            5.99930674605648        6.25218600958113        4.78008174719275
C           -7.24835692370832       -6.80965202130005        3.62014165943504
C           -8.52832981846402       -5.98249688688811        1.55727655103701
H           -6.36759509548857       -6.02435674266322        1.77983740774386
H            3.78785555622113        7.01912787950561        3.93652599007365
H            3.55118199405523        8.05443012047972        5.39240609514984
H            4.84461191255821        8.44127490395244        4.20561536529310
H            6.75179773489474        6.82150291122149        7.11645587822840
H            6.66555826815544        8.31180919859312        6.11908544040601
H            5.36760098926868        7.95273765198165        7.30920711430776
H           -6.32329670625589       -6.66824332137702        4.21445826114288
H           -8.11900269660851       -6.61352717119843        4.28414111899050
H           -7.29538248080242       -7.85663052635642        3.28090877295716
H           -8.48193590442695       -5.27198333183708        0.70860412657927
H           -8.62122087138533       -7.00175635408463        1.15542023481501
H           -9.43224363450940       -5.75361863348452        2.16420848837923
C           -0.65239108601021       -1.54298207375674       -4.74540857011959
C            0.30634334448326       -1.24104252347436       -5.63080816999313
C           -1.87996819631692       -2.17385389804304       -4.93380079432959
C            0.03450431843354       -1.82517273068467       -6.97857641720301
N            1.41147487709389       -0.51122165758714       -5.38531239056658
C           -2.08821657270248       -2.71702137585256       -6.21367091774504
N           -2.85911316496526       -2.25749974958998       -3.91705190960598
H            0.82853143839542       -1.63924988643430       -7.75489576265490
C           -1.08353441054626       -2.53181462383758       -7.24352775232929
C            2.36252629043672        0.03862722322967       -6.25140433652535
H            1.44723419540647       -0.15955889542617       -4.39931348197617
H           -3.00980241408864       -3.28136324134253       -6.43421510194596
C           -4.08384153105771       -2.89205561044798       -3.97872669865116
H           -2.63760185322624       -1.74603160150183       -3.06992599786258
H           -1.27167121901431       -2.96138342561997       -8.21501952825392
O            2.45683233155374       -0.20965628090728       -7.41314704348280
C            3.27842282509936        1.08382771364065       -5.55076379914312
O           -4.47096856263036       -3.61389257024068       -4.88028332468617
C           -4.95257894733293       -2.61185156667173       -2.75985257996183
C            3.56746882238045        2.30666505648549       -6.35895702877021
H            3.20792137877543        1.17266195556011       -4.47103901483541
C            4.64665301614752        1.26194057552814       -6.18126019307442
C           -5.85725739818504       -3.67336438773419       -2.24593097517566
H           -4.59358242830682       -1.86441745688741       -2.02236364969684
C           -6.47038059659600       -2.57513883287945       -3.06333458470276
H            3.12613903821036        2.38717527589508       -7.35707841209813
H            3.68504989814176        3.25420786659231       -5.78705318497856
H            4.88553883863767        0.63781844045293       -7.05067862308449
C            5.77070073903056        1.57715871913723       -5.25167792323247
H           -5.78150467692836       -4.67168361731844       -2.75237541224897
H           -6.02603809996448       -3.70241956264756       -1.15572962841330
H           -6.73315866569576       -2.81698772665887       -4.10079609861592
C           -7.28556120987460       -1.55302806909787       -2.39075457621477
O            6.95150246559655        1.11175463165087       -5.73746343266181
O            5.66601819008057        2.19073980592043       -4.18784266742830
O           -8.31580655661494       -1.12790443014335       -3.21779968014267
O           -7.13961109113115       -1.09711841358471       -1.26226321247706
C            8.16312760030515        1.35727011495256       -4.96920815618046
C           -9.22593917904179       -0.12969710863130       -2.71327923907873
C            9.06973275962481        0.15238132980739       -5.19799030075445
C            8.77628140587266        2.68711344899801       -5.41220489276843
H            7.86514751082482        1.42818858109447       -3.89967717495248
C           -8.66525224084516        1.26647784192015       -2.99970726856279
C          -10.57401436164486       -0.39920111776915       -3.37759313757454
H           -9.30000830156874       -0.26836714416907       -1.60990565999417
H            8.56631289546384       -0.78228187832381       -4.87967730732247
H            9.33460165294297        0.05681752685065       -6.27179853083168
H           10.00825546194132        0.26177818602955       -4.61759327144681
H            8.07725428690444        3.52595711574862       -5.22412563978245
H            9.71058965931616        2.88707975742750       -4.84892869179746
H            9.02097072863445        2.66407238095648       -6.49472026345434
H           -7.69595311084506        1.41001842516984       -2.48349077817287
H           -8.51521977003771        1.40935849254049       -4.09067838507589
H           -9.36388783804673        2.04738772126249       -2.63809806222956
H          -10.92703123657463       -1.42485700084688       -3.14895558662124
H          -11.33550796742792        0.32017914609983       -3.01542413573149
H          -10.49579644863253       -0.29765212478396       -4.48066079225615
H            4.38054917233903       -6.08961357026603        2.43354815354299
H            0.46349889959791       -7.94418698995775        1.57904817253223
H            1.14616185628016        7.25966778365324       -2.30039727919344
H           -3.18286597746996        7.31893260819211       -1.67555894768695
O            3.47078670953579       -3.95466671761277        2.03539178130835
O           -0.66037041291147       -5.48420414148329        0.86594824518301
O            1.37751606056841        4.70530318188615       -1.53509026947278
O           -3.29416119149769        4.67442458095317       -0.88304686999760
C            4.90932766085466       -3.40035911432011        1.99864185804998
C            5.70921620481733       -3.94988331327000        1.11792436820645
C            5.07769076529100       -3.35370810704910        3.48331628365655
C            6.93646161571153       -3.91380777320789        2.25551031637103
H            5.66540223766344       -4.37134563127430        0.11451946622578
C            6.76423069724790       -2.51587577566705        4.04693058173850
H            4.39046020428299       -3.05437601870045        4.20402399738421
C            7.78582007149200       -3.64132589398727        2.14557309565892
H            8.05788975416792       -4.08741980510166        0.71842608880864
H            6.60590137202727       -3.63424233782263        4.97348870336381
H            8.60263942484046       -3.46448163382593        3.29772824627287
C           -1.69263758829381       -6.58323306491898        1.02661084811821
C           -2.04092009535760       -6.98344500443046        2.33512781822686
C           -2.32196660846267       -7.00459632995049       -0.11353711415300
C           -3.01359427835366       -7.87303144824872        2.39671749530861
H           -1.51831673346461       -6.57446300231068        3.19099404542977
C           -3.31747624238970       -7.90512300761338       -0.01041203050045
H           -2.02098296852024       -6.62270500082734       -1.11039904818337
C           -3.79206213843337       -8.47295802115990        1.33251160125970
H           -3.36533488986745       -8.28220662126512        3.44541466212360
H           -3.88474456615405       -8.31984893607513       -0.87587851129053
H           -4.51296011758480       -9.13115664215821        1.38775642094647
C            2.69649527243945        5.11723917601676       -1.43962623327869
C            2.97592444152486        6.20579030687963       -0.56574574265287
C            3.67927657413298        4.49969398382748       -2.19460896067899
C            4.29899753791894        6.68419926276782       -0.43176560319871
H            2.19869043708966        6.69137173552717        0.03854079268040
C            4.99984777595597        5.00367382522155       -2.01814579727779
H            3.42224949836256        3.67820142206012       -2.83216590892664
C            5.36315539797638        5.96776580958715       -1.26788627387709
H            4.56420862526828        7.47298066563470        0.20431592335852
H            5.79434114895779        4.42498097825016       -2.65907313212376
H            6.37128139598362        6.38243096167052       -1.11802002648225
C           -4.53068450941543        5.03299556357454       -1.05024031161079
C           -4.94072787435578        5.27871272383221       -2.59967155242227
C           -5.45786675859614        5.15697330736292       -0.21246072161961
C           -6.24997336129733        5.60745971169466       -2.87781407700701
H           -4.18076475542376        5.16441242452629       -3.31911519769811
C           -6.88929709722844        5.50387373262238       -0.52679419992742
H           -5.17437968452003        4.96495009604142        0.89332331841543
C           -7.18042583914693        5.69562595599450       -1.68965988911540
H           -6.54537456763452        5.76476470609868       -3.86172463043923
H           -7.56397998833726        5.55635535463447        0.35446237150599
H           -8.26484760576677        5.97687158354265       -2.05193212760313
N            1.56382294914809        0.38287357653896        0.19369644251193
C            2.53909894358179        1.06899008589439        0.67157426325074
C            2.27301644520591        2.22585048662372        1.47858074211878
C            3.33040818311061        2.96608360452772        2.01937786580285
C            4.65991700579317        2.58436608638100        1.78847877626832
C            4.92307185009470        1.46008946535511        1.00881441483076
C            3.89649522036094        0.70024381553309        0.43423658941385
C            4.20766890425049       -0.51797465680902       -0.36793230026529
C            4.24728582626673       -1.77358933966744        0.51495080936587
C            4.51108819327190       -2.99391016234628       -0.28827346049850
C            5.89298505269786       -3.29718770014983       -0.46654040671191
C            6.15143251076453       -4.52614093668779       -1.26234206611130
C            5.15488516453943       -5.22626564052719       -1.85709755577151
C            3.82605753105447       -4.84711989530248       -1.69658790568989
C            3.53802282541954       -3.72215759396130       -0.91171896048851
H            1.26047961534205        2.51484067843905        1.66242681303732
H            3.11346734675129        3.83555901422693        2.62354877696206
H            5.46009807284089        3.15986250967749        2.21725973465192
H            5.96647187312268        1.17188417562356        0.84705749869247
H            5.20760543643599       -0.40158854583909       -0.85699821254450
H            3.46922266133525       -0.64926650261818       -1.18616193524745
H            3.23450693394888       -1.89195629733780        1.01467623180826
H            4.98224769746188       -1.64024538593410        1.32756159923847
H            6.64431770736433       -2.70365876743325        0.00632102266239
H            7.21996178547488       -4.81544199257294       -1.39835845107953
H            5.38444919152088       -6.10765189118920       -2.47237472212387
H            3.02478909710315       -5.39951308860120       -2.16681184195753
H            2.48359041202262       -3.41554598439794       -0.79346543483602

 Bond Distances (Angstroems)
 ---------------------------
N1-Fe47=2.0698       N2-C11=1.1514        N2-C16=1.6406        N2-Fe47=1.9547       C3-C39=0.1992        C4-C5=1.3600         
C4-C9=1.8802         C5-C4=1.3600         C5-C7=1.3591         C7-C5=1.3591         C7-C9=1.4454         C9-C4=1.8802         
C9-C7=1.4454         C9-H242=1.1610       C10-C11=1.3408       C10-C17=1.8971       C11-N2=1.1514        C11-C10=1.3408       
C12-H13=0.0931       H13-C12=0.0931       C14-H15=1.2175       C14-C16=1.0449       H15-C14=1.2175       C16-N2=1.6406        
C16-C14=1.0449       C16-C26=1.5360       C17-C10=1.8971       C17-C18=1.3184       C17-C23=1.6141       C18-C17=1.3184       
C18-O167=0.9761      C19-C20=1.3286       C19-H163=1.3793      C20-C19=1.3286       C20-H21=0.7139       H21-C20=0.7139       
C22-C23=0.9498       C22-H164=1.3360      C23-C17=1.6141       C23-C22=0.9498       C23-O168=1.3829      N24-C28=1.8319       
N24-C32=0.9210       N24-C33=1.7480       N24-Fe47=2.1640      N25-C34=1.6139       N25-Fe47=1.9945      C26-C16=1.5360       
C26-C27=1.4307       C26-C49=1.0358       C27-C26=1.4307       C27-C28=1.0344       C28-N24=1.8319       C28-C27=1.0344       
C28-C30=1.3885       C28-C32=1.7617       C30-C28=1.3885       C30-H31=0.9990       H31-C30=0.9990       C32-N24=0.9210       
C32-C28=1.7617       C32-C33=1.0309       C33-N24=1.7480       C33-C32=1.0309       C34-N25=1.6139       C34-C35=0.9341       
C34-C37=1.5242       C35-C34=0.9341       C35-H36=1.1052       C35-C37=1.1082       H36-C35=1.1052       C37-C34=1.5242       
C37-C35=1.1082       C39-C3=0.1992        C40-C41=1.0920       C40-C46=1.4846       C41-C40=1.0920       C41-C42=1.4764       
C41-O169=1.2339      C42-C41=1.4764       C42-C43=1.6190       C42-H165=1.2555      C43-C42=1.6190       C43-H44=0.6638       
C43-C45=1.9369       H44-C43=0.6638       C45-C43=1.9369       C45-C46=0.9818       C45-H166=1.3489      C46-C40=1.4846       
C46-C45=0.9818       C46-O170=1.3700      Fe47-N1=2.0698       Fe47-N2=1.9547       Fe47-N24=2.1640      Fe47-N25=1.9945      
Fe47-Cl48=1.7023     Fe47-N215=2.4360     Cl48-Fe47=1.7023     C49-C26=1.0358       C49-C50=1.7792       C49-C51=1.8422       
C50-C49=1.7792       C50-C52=1.4750       C50-N53=1.3125       C51-C49=1.8422       C51-C54=1.4326       C51-N55=1.3703       
C52-C50=1.4750       C52-H56=1.2167       C52-C57=1.1214       N53-C50=1.3125       N53-C58=1.5670       N53-H59=0.8211       
C54-C51=1.4326       C54-C57=1.1144       C54-H60=1.2251       N55-C51=1.3703       N55-C61=1.5314       N55-H62=0.7999       
H56-C52=1.2167       C57-C52=1.1214       C57-C54=1.1144       C57-H63=1.3660       C58-N53=1.5670       C58-O64=1.2470       
C58-C65=1.6655       H59-N53=0.8211       H60-C54=1.2251       C61-N55=1.5314       C61-O66=1.2834       C61-C67=1.5988       
H62-N55=0.7999       H63-C57=1.3660       O64-C58=1.2470       C65-C58=1.6655       C65-C68=1.1570       C65-H69=1.3245       
C65-C70=1.2977       O66-C61=1.2834       C67-C61=1.5988       C67-C71=1.1989       C67-H72=1.3640       C67-C73=1.3358       
C68-C65=1.1570       C68-C70=1.4489       C68-H74=1.2209       C68-H75=1.1392       H69-C65=1.3245       C70-C65=1.2977       
C70-C68=1.4489       C70-H76=1.1288       C70-C77=1.4401       C71-C67=1.1989       C71-C73=1.4638       C71-H78=1.2490       
C71-H79=1.0968       H72-C67=1.3640       C73-C67=1.3358       C73-C71=1.4638       C73-H80=1.1453       C73-C81=1.3917       
H74-C68=1.2209       H75-C68=1.1392       H76-C70=1.1288       C77-C70=1.4401       C77-O82=1.5495       C77-O83=1.1605       
H78-C71=1.2490       H79-C71=1.0968       H80-C73=1.1453       C81-C73=1.3917       C81-O84=1.5428       C81-O85=1.2021       
O82-C77=1.5495       O82-C86=1.3442       O83-C77=1.1605       O84-C81=1.5428       O84-C87=1.3357       O85-C81=1.2021       
C86-O82=1.3442       C86-C88=1.5467       C86-C89=1.5403       C86-H90=1.1283       C87-O84=1.3357       C87-C91=1.5397       
C87-C92=1.5513       C87-H93=1.1316       C88-C86=1.5467       C88-H94=1.1081       C88-H95=1.1121       C88-H96=1.1008       
C89-C86=1.5403       C89-H97=1.1081       C89-H98=1.1022       C89-H99=1.1118       H90-C86=1.1283       C91-C87=1.5397       
C91-H100=1.1086      C91-H101=1.1124      C91-H102=1.1016      C92-C87=1.5513       C92-H103=1.1078      C92-H104=1.0995      
C92-H105=1.1126      H93-C87=1.1316       H94-C88=1.1081       H95-C88=1.1121       H96-C88=1.1008       H97-C89=1.1081       
H98-C89=1.1022       H99-C89=1.1118       H100-C91=1.1086      H101-C91=1.1124      H102-C91=1.1016      H103-C92=1.1078      
H104-C92=1.0995      H105-C92=1.1126      C106-C107=1.3395     C106-C108=1.3930     C107-C106=1.3395     C107-C109=1.4938     
C107-N110=1.3469     C108-C106=1.3930     C108-C111=1.4059     C108-N112=1.4140     C109-C107=1.4938     C109-H113=1.1259     
C109-C114=1.3489     N110-C107=1.3469     N110-C115=1.3989     N110-H116=1.0474     C111-C108=1.4059     C111-C114=1.4506     
C111-H117=1.1029     N112-C108=1.4140     N112-C118=1.3807     N112-H119=1.0140     H113-C109=1.1259     C114-C109=1.3489     
C114-C111=1.4506     C114-H120=1.0788     C115-N110=1.3989     C115-O121=1.1917     C115-C122=1.5563     H116-N110=1.0474     
H117-C111=1.1029     C118-N112=1.3807     C118-O123=1.2181     C118-C124=1.5228     H119-N112=1.0140     H120-C114=1.0788     
O121-C115=1.1917     C122-C115=1.5563     C122-C125=1.4940     C122-H126=1.0857     C122-C127=1.5170     O123-C118=1.2181     
C124-C118=1.5228     C124-C128=1.4864     C124-H129=1.1097     C124-C130=1.5483     C125-C122=1.4940     C125-C127=1.5125     
C125-H131=1.0943     C125-H132=1.1130     H126-C122=1.0857     C127-C122=1.5170     C127-C125=1.5125     C127-H133=1.0966     
C127-C134=1.4923     C128-C124=1.4864     C128-C130=1.5001     C128-H135=1.1220     C128-H136=1.1036     H129-C124=1.1097     
C130-C124=1.5483     C130-C128=1.5001     C130-H137=1.0972     C130-C138=1.4702     H131-C125=1.0943     H132-C125=1.1130     
H133-C127=1.0966     C134-C127=1.4923     C134-O139=1.3590     C134-O140=1.2326     H135-C128=1.1220     H136-C128=1.1036     
H137-C130=1.0972     C138-C130=1.4702     C138-O141=1.3879     C138-O142=1.2258     O139-C134=1.3590     O139-C143=1.4555     
O140-C134=1.2326     O141-C138=1.3879     O141-C144=1.4420     O142-C138=1.2258     C143-O139=1.4555     C143-C145=1.5251     
C143-C146=1.5299     C143-H147=1.1125     C144-O141=1.4420     C144-C148=1.5316     C144-C149=1.5268     C144-H150=1.1145     
C145-C143=1.5251     C145-H151=1.1083     C145-H152=1.1101     C145-H153=1.1089     C146-C143=1.5299     C146-H154=1.1080     
C146-H155=1.1091     C146-H156=1.1101     H147-C143=1.1125     C148-C144=1.5316     C148-H157=1.1075     C148-H158=1.1105     
C148-H159=1.1085     C149-C144=1.5268     C149-H160=1.1085     C149-H161=1.1084     C149-H162=1.1105     H150-C144=1.1145     
H151-C145=1.1083     H152-C145=1.1101     H153-C145=1.1089     H154-C146=1.1080     H155-C146=1.1091     H156-C146=1.1101     
H157-C148=1.1075     H158-C148=1.1105     H159-C148=1.1085     H160-C149=1.1085     H161-C149=1.1084     H162-C149=1.1105     
H163-C19=1.3793      H164-C22=1.3360      H165-C42=1.2555      H166-C45=1.3489      O167-C18=0.9761      O167-C171=1.5421     
O168-C23=1.3829      O168-C182=1.5163     O169-C41=1.2339      O169-C193=1.3851     O170-C46=1.3700      O170-C204=1.2983     
C171-O167=1.5421     C171-C172=1.3105     C171-C173=1.4949     C172-C171=1.3105     C172-C174=1.6738     C172-H175=1.0892     
C172-C225=1.7235     C173-C171=1.4949     C173-H177=1.0399     C174-C172=1.6738     C174-C178=0.8987     H175-C172=1.0892     
H175-C225=1.2423     H177-C173=1.0399     C178-C174=0.8987     C182-O168=1.5163     C182-C183=1.4120     C182-C184=1.3688     
C183-C182=1.4120     C183-C185=1.3196     C183-H186=1.0830     C184-C182=1.3688     C184-C187=1.3463     C184-H188=1.1091     
C185-C183=1.3196     C185-C189=1.4486     C185-H190=1.1794     H186-C183=1.0830     C187-C184=1.3463     C187-C189=1.5333     
C187-H191=1.1148     H188-C184=1.1091     C189-C185=1.4486     C189-C187=1.5333     C189-H192=0.9777     H190-C185=1.1794     
H191-C187=1.1148     H192-C189=0.9777     C193-O169=1.3851     C193-C194=1.4236     C193-C195=1.3846     C194-C193=1.4236     
C194-C196=1.4133     C194-H197=1.0977     C195-C193=1.3846     C195-C198=1.4244     C195-H199=1.0712     C196-C194=1.4133     
C196-C200=1.5313     C196-H201=1.0474     H197-C194=1.0977     C198-C195=1.4244     C198-C200=1.2745     C198-H202=1.1734     
H199-C195=1.0712     C200-C196=1.5313     C200-C198=1.2745     C200-H203=1.1003     H201-C196=1.0474     H202-C198=1.1734     
H203-C200=1.1003     C204-O170=1.2983     C204-C205=1.6215     C204-C206=1.2558     C205-C204=1.6215     C205-C207=1.3782     
C205-H208=1.0527     C206-C204=1.2558     C206-C209=1.5060     C206-H210=1.1576     C207-C205=1.3782     C207-C211=1.5117     
C207-H212=1.0393     H208-C205=1.0527     C209-C206=1.5060     C209-C211=1.2140     C209-H213=1.1111     H210-C206=1.1576     
C211-C207=1.5117     C211-C209=1.2140     C211-H214=1.1774     H212-C207=1.0393     H213-C209=1.1111     H214-C211=1.1774     
N215-Fe47=2.4360     N215-C216=1.2846     C216-N215=1.2846     C216-C217=1.4354     C216-C221=1.4265     C217-C216=1.4354     
C217-C218=1.3995     C217-H230=1.0689     C218-C217=1.3995     C218-C219=1.4024     C218-H231=1.0808     C219-C218=1.4024     
C219-C220=1.3932     C219-H232=1.0749     C220-C219=1.3932     C220-C221=1.4005     C220-H233=1.0945     C221-C216=1.4265     
C221-C220=1.4005     C221-C222=1.4914     C222-C221=1.4914     C222-C223=1.5355     C222-H234=1.1192     C222-H235=1.1100     
C223-C222=1.5355     C223-C224=1.4846     C223-H236=1.1355     C223-H237=1.1038     C224-C223=1.4846     C224-C225=1.4260     
C224-C229=1.3660     C225-C172=1.7235     C225-H175=1.2423     C225-C224=1.4260     C225-C226=1.4867     C225-H238=1.0679     
C226-C225=1.4867     C226-C227=1.3554     C226-H239=1.1153     C227-C226=1.3554     C227-C228=1.3911     C227-H240=1.0991     
C228-C227=1.3911     C228-C229=1.4016     C228-H241=1.0809     C229-C224=1.3660     C229-C228=1.4016     C229-H242=1.1045     
H230-C217=1.0689     H231-C218=1.0808     H232-C219=1.0749     H233-C220=1.0945     H234-C222=1.1192     H235-C222=1.1100     
H236-C223=1.1355     H237-C223=1.1038     H238-C225=1.0679     H239-C226=1.1153     H240-C227=1.0991     H241-C228=1.0809     
H242-C9=1.1610       H242-C229=1.1045     
 C  H  Rav=1.1096 sigma=0.1450  Rmin=0.0931  Rmax=1.3793    92
 C  C  Rav=1.4110 sigma=0.2281  Rmin=0.1992  Rmax=1.9369   106
 N  H  Rav=0.9206 sigma=0.1110  Rmin=0.7999  Rmax=1.0474     4
 N  C  Rav=1.4342 sigma=0.2244  Rmin=0.9210  Rmax=1.8319    15
 O  C  Rav=1.3284 sigma=0.1377  Rmin=0.9761  Rmax=1.5495    24
 Fe N  Rav=2.1238 sigma=0.1716  Rmin=1.9547  Rmax=2.4360     5
 Fe Cl Rav=1.7023 sigma=0.0000  Rmin=1.7023  Rmax=1.7023     1

 selected bond angles (degree)
 --------------------
C16-N2-C11= 89.78              Fe47-N2-C11=138.94             Fe47-N2-C16=122.25             C9-C4-C5= 74.78                
C7-C5-C4=107.92                C9-C7-C5= 91.55                C7-C9-C4= 81.64                H242-C9-C4=135.04              
H242-C9-C7=140.51              C17-C10-C11=143.26             

 selected dihedral angles (degree)
 ---------------------------------
C7-C5-C4-C9=344.66            C9-C7-C5-C4= 19.39            C4-C9-C7-C5=346.64            H242-C9-C7-C5=185.48          
           -------------------------------------------------
          |                Final Singlepoint                |
           -------------------------------------------------
         :::::::::::::::::::::::::::::::::::::::::::::::::::::
         ::                     SUMMARY                     ::
         :::::::::::::::::::::::::::::::::::::::::::::::::::::
         :: total energy              45.840169855672 Eh    ::
         :: total w/o Gsolv           45.988216491379 Eh    ::
         :: total w/o Gsasa/hb        45.962473166338 Eh    ::
         :: gradient norm            454.328119422540 Eh/a0 ::
         ::.................................................::
         :: bond energy              -44.764820999181 Eh    ::
         :: angle energy               1.609477497804 Eh    ::
         :: torsion energy             0.455247927794 Eh    ::
         :: repulsion energy          90.198347955115 Eh    ::
         :: electrostat energy        -1.152098640176 Eh    ::
         :: dispersion energy         -0.318399605895 Eh    ::
         :: HB energy                 -0.018609762028 Eh    ::
         :: XB energy                 -0.000106568330 Eh    ::
         :: bonded atm energy         -0.020821313722 Eh    ::
         :: external energy            0.000000000000 Eh    ::
         :: -> Gsolv                  -0.148046635707 Eh    ::
         ::    -> Gborn               -0.025743325041 Eh    ::
         ::    -> Gsasa               -0.122629327165 Eh    ::
         ::    -> Ghb                 -0.006457194966 Eh    ::
         ::    -> Gshift               0.006783211464 Eh    ::
         :: add. restraining           0.000000000000 Eh    ::
         :: total charge               0.000000000000 e     ::
         :::::::::::::::::::::::::::::::::::::::::::::::::::::

           -------------------------------------------------
          |                Property Printout                |
           -------------------------------------------------

molecular dipole:
                 x           y           z       tot (Debye)
 q only:        2.568       0.738      -0.482       6.901
           -------------------------------------------------
          |                Geometry Summary                 |
           -------------------------------------------------

      molecular mass/u    :     1944.3747980
   center of mass at/Å    :       -0.0850457      -0.1211793       0.0671914
  moments of inertia/u·Å² :        0.5025661E+05   0.6440210E+05   0.6596998E+05
rotational constants/cm⁻¹ :        0.3354311E-03   0.2617560E-03   0.2555349E-03

 * 169 selected distances

     #   Z          #   Z                                           value/Å
     2   7 N       11   6 C                                       1.1513922
    10   6 C       11   6 C                                       1.3408067
    12   6 C       13   1 H                                       0.0931402 (min)
    14   6 C       16   6 C                                       1.0449460
    17   6 C       18   6 C                                       1.3183639
    19   6 C       20   6 C                                       1.3285984
    20   6 C       21   1 H                                       0.7138708
    22   6 C       23   6 C                                       0.9497954
    26   6 C       27   6 C                                       1.4306796
    27   6 C       28   6 C                                       1.0344166
    28   6 C       30   6 C                                       1.3884765
    30   6 C       31   1 H                                       0.9990113
    24   7 N       32   6 C                                       0.9209875
    32   6 C       33   6 C                                       1.0308825
    34   6 C       35   6 C                                       0.9341270
    35   6 C       37   6 C                                       1.1082315
     3   6 C       39   6 C                                       0.1991509
    40   6 C       41   6 C                                       1.0920156
    43   6 C       44   1 H                                       0.6637517
    45   6 C       46   6 C                                       0.9818265
    47  26 Fe      48  17 Cl                                      1.7023198 (max)
    26   6 C       49   6 C                                       1.0357680
    50   6 C       53   7 N                                       1.3125072
    51   6 C       54   6 C                                       1.4325750
    51   6 C       55   7 N                                       1.3702989
    52   6 C       57   6 C                                       1.1214011
    54   6 C       57   6 C                                       1.1144038
    53   7 N       59   1 H                                       0.8210986
    55   7 N       62   1 H                                       0.7998723
    65   6 C       68   6 C                                       1.1569939
    65   6 C       70   6 C                                       1.2976801
    68   6 C       70   6 C                                       1.4488696
    67   6 C       71   6 C                                       1.1989196
    67   6 C       73   6 C                                       1.3357647
    71   6 C       73   6 C                                       1.4638490
    68   6 C       75   1 H                                       1.1392446
    70   6 C       76   1 H                                       1.1288358
    70   6 C       77   6 C                                       1.4400742
    71   6 C       79   1 H                                       1.0967641
    73   6 C       80   1 H                                       1.1453463
    73   6 C       81   6 C                                       1.3917211
    77   6 C       83   8 O                                       1.1605270
    81   6 C       85   8 O                                       1.2020728
    82   8 O       86   6 C                                       1.3441903
    84   8 O       87   6 C                                       1.3357342
    86   6 C       90   1 H                                       1.1283323
    87   6 C       93   1 H                                       1.1316367
    88   6 C       94   1 H                                       1.1080677
    88   6 C       95   1 H                                       1.1121131
    88   6 C       96   1 H                                       1.1007935
    89   6 C       97   1 H                                       1.1080657
    89   6 C       98   1 H                                       1.1022108
    89   6 C       99   1 H                                       1.1118476
    91   6 C      100   1 H                                       1.1085780
    91   6 C      101   1 H                                       1.1123779
    91   6 C      102   1 H                                       1.1015691
    92   6 C      103   1 H                                       1.1078028
    92   6 C      104   1 H                                       1.0995487
    92   6 C      105   1 H                                       1.1125700
   106   6 C      107   6 C                                       1.3395044
   106   6 C      108   6 C                                       1.3929956
   107   6 C      110   7 N                                       1.3469309
   108   6 C      111   6 C                                       1.4058685
   108   6 C      112   7 N                                       1.4140368
   109   6 C      114   6 C                                       1.3489080
   110   7 N      115   6 C                                       1.3989096
   110   7 N      116   1 H                                       1.0474443
   111   6 C      117   1 H                                       1.1029244
   112   7 N      118   6 C                                       1.3807334
   112   7 N      119   1 H                                       1.0140461
   114   6 C      120   1 H                                       1.0787591
   115   6 C      121   8 O                                       1.1917150
   118   6 C      123   8 O                                       1.2180807
   122   6 C      125   6 C                                       1.4940065
   122   6 C      126   1 H                                       1.0856647
   122   6 C      127   6 C                                       1.5170050
   125   6 C      127   6 C                                       1.5125027
   124   6 C      128   6 C                                       1.4863944
   124   6 C      129   1 H                                       1.1096965
   128   6 C      130   6 C                                       1.5000562
   125   6 C      131   1 H                                       1.0943036
   125   6 C      132   1 H                                       1.1129856
   127   6 C      133   1 H                                       1.0965781
   128   6 C      135   1 H                                       1.1219920
   128   6 C      136   1 H                                       1.1035716
   130   6 C      137   1 H                                       1.0972100
   130   6 C      138   6 C                                       1.4702361
   134   6 C      139   8 O                                       1.3590002
   134   6 C      140   8 O                                       1.2325526
   138   6 C      141   8 O                                       1.3878543
   138   6 C      142   8 O                                       1.2258255
   141   8 O      144   6 C                                       1.4419780
   143   6 C      145   6 C                                       1.5251333
   143   6 C      146   6 C                                       1.5299305
   143   6 C      147   1 H                                       1.1125279
   144   6 C      148   6 C                                       1.5315730
   144   6 C      149   6 C                                       1.5268440
   144   6 C      150   1 H                                       1.1145174
   145   6 C      151   1 H                                       1.1083096
   145   6 C      152   1 H                                       1.1101136
   145   6 C      153   1 H                                       1.1088974
   146   6 C      154   1 H                                       1.1080034
   146   6 C      155   1 H                                       1.1091432
   146   6 C      156   1 H                                       1.1100646
   148   6 C      157   1 H                                       1.1075308
   148   6 C      158   1 H                                       1.1104696
   148   6 C      159   1 H                                       1.1084554
   149   6 C      160   1 H                                       1.1085424
   149   6 C      161   1 H                                       1.1083984
   149   6 C      162   1 H                                       1.1104903
    18   6 C      167   8 O                                       0.9761077
    23   6 C      168   8 O                                       1.3829436
    41   6 C      169   8 O                                       1.2338936
    46   6 C      170   8 O                                       1.3700307
   171   6 C      172   6 C                                       1.3105198
   172   6 C      175   1 H                                       1.0892069
   173   6 C      177   1 H                                       1.0398583
   174   6 C      178   6 C                                       0.8987450
   182   6 C      183   6 C                                       1.4119799
   182   6 C      184   6 C                                       1.3687731
   183   6 C      185   6 C                                       1.3195654
   183   6 C      186   1 H                                       1.0829994
   184   6 C      187   6 C                                       1.3463368
   189   6 C      192   1 H                                       0.9777379
   169   8 O      193   6 C                                       1.3851033
   193   6 C      194   6 C                                       1.4236192
   193   6 C      195   6 C                                       1.3846373
   194   6 C      196   6 C                                       1.4132758
   194   6 C      197   1 H                                       1.0977452
   195   6 C      198   6 C                                       1.4244450
   195   6 C      199   1 H                                       1.0711639
   198   6 C      200   6 C                                       1.2745020
   196   6 C      201   1 H                                       1.0474316
   200   6 C      203   1 H                                       1.1003296
   170   8 O      204   6 C                                       1.2982746
   204   6 C      206   6 C                                       1.2557517
   205   6 C      207   6 C                                       1.3782460
   205   6 C      208   1 H                                       1.0527145
   209   6 C      211   6 C                                       1.2139941
   207   6 C      212   1 H                                       1.0392723
   215   7 N      216   6 C                                       1.2846348
   217   6 C      218   6 C                                       1.3994586
   218   6 C      219   6 C                                       1.4023611
   219   6 C      220   6 C                                       1.3932427
   216   6 C      221   6 C                                       1.4264740
   220   6 C      221   6 C                                       1.4004874
   222   6 C      223   6 C                                       1.5354546
   223   6 C      224   6 C                                       1.4845687
   175   1 H      225   6 C                                       1.2422721
   224   6 C      225   6 C                                       1.4259718
   225   6 C      226   6 C                                       1.4867487
   226   6 C      227   6 C                                       1.3553655
   227   6 C      228   6 C                                       1.3911499
   224   6 C      229   6 C                                       1.3659741
   228   6 C      229   6 C                                       1.4016147
   217   6 C      230   1 H                                       1.0688993
   218   6 C      231   1 H                                       1.0807745
   219   6 C      232   1 H                                       1.0748671
   220   6 C      233   1 H                                       1.0944914
   222   6 C      234   1 H                                       1.1191981
   222   6 C      235   1 H                                       1.1099731
   223   6 C      236   1 H                                       1.1355428
   223   6 C      237   1 H                                       1.1037600
   225   6 C      238   1 H                                       1.0678837
   226   6 C      239   1 H                                       1.1153253
   227   6 C      240   1 H                                       1.0991395
   228   6 C      241   1 H                                       1.0808701
     9   6 C      242   1 H                                       1.1609595
   229   6 C      242   1 H                                       1.1044558

 * 6 distinct bonds (by element types)

   Z      Z             #   av. dist./Å        max./Å        min./Å
   1 H    6 C          71     1.0749507     1.2422721     0.0931402
   6 C    6 C          67     1.3148442     1.5354546     0.1991509
   1 H    7 N           4     0.9206153     1.0474443     0.7998723
   6 C    7 N           9     1.2867146     1.4140368     0.9209875
   6 C    8 O          17     1.2791697     1.4419780     0.9761077
  17 Cl  26 Fe          1     1.7023198     1.7023198     1.7023198


optimized geometry written to: xtbopt.xyz


           -------------------------------------------------
          | TOTAL ENERGY               45.840169855672 Eh   |
          | GRADIENT NORM               0.239723991946 Eh/α |
           -------------------------------------------------

------------------------------------------------------------------------
 * finished run on 2026/09/07 at 18:12:21.441     
------------------------------------------------------------------------
 total:
 * wall-time:     0 d,  0 h,  0 min,  8.356 sec
 *  cpu-time:     0 d,  0 h,  0 min,  8.340 sec
 * ratio c/w:     0.998 speedup
 SCF:
 * wall-time:     0 d,  0 h,  0 min,  0.022 sec
 *  cpu-time:     0 d,  0 h,  0 min,  0.022 sec
 * ratio c/w:     0.998 speedup
 ANC optimizer:
 * wall-time:     0 d,  0 h,  0 min,  8.326 sec
 *  cpu-time:     0 d,  0 h,  0 min,  8.312 sec
 * ratio c/w:     0.998 speedup

