      -----------------------------------------------------------      
     |                   =====================                   |     
     |                           x T B                           |     
     |                   =====================                   |     
     |                         S. Grimme                         |     
     |          Mulliken Center for Theoretical Chemistry        |     
     |                    University of Bonn                     |     
      -----------------------------------------------------------      

   * xtb version 6.7.1 (edcfbbe) compiled by 'runner@sat12-gn217-0cbadaec-b866-44ae-a866-732403219ae3-6E01A8DFFD18.local' on 2026-06-10

   xtb is free software: you can redistribute it and/or modify it under
   the terms of the GNU Lesser General Public License as published by
   the Free Software Foundation, either version 3 of the License, or
   (at your option) any later version.
   
   xtb is distributed in the hope that it will be useful,
   but WITHOUT ANY WARRANTY; without even the implied warranty of
   MERCHANTABILITY or FITNESS FOR A PARTICULAR PURPOSE.  See the
   GNU Lesser General Public License for more details.
   
   Cite this work as:
   * C. Bannwarth, E. Caldeweyher, S. Ehlert, A. Hansen, P. Pracht,
     J. Seibert, S. Spicher, S. Grimme, WIREs Comput. Mol. Sci., 2020, 11,
     e01493. DOI: 10.1002/wcms.1493
   
   for GFN2-xTB:
   * C. Bannwarth, S. Ehlert and S. Grimme., J. Chem. Theory Comput., 2019,
     15, 1652-1671. DOI: 10.1021/acs.jctc.8b01176
   for GFN1-xTB:
   * S. Grimme, C. Bannwarth, P. Shushkov, J. Chem. Theory Comput., 2017,
     13, 1989-2009. DOI: 10.1021/acs.jctc.7b00118
   for GFN0-xTB:
   * P. Pracht, E. Caldeweyher, S. Ehlert, S. Grimme, ChemRxiv, 2019, preprint.
     DOI: 10.26434/chemrxiv.8326202.v1
   for GFN-FF:
   * S. Spicher and S. Grimme, Angew. Chem. Int. Ed., 2020, 59, 15665-15673.
     DOI: 10.1002/anie.202004239
   
   for ALPB and GBSA implicit solvation:
   * S. Ehlert, M. Stahn, S. Spicher, S. Grimme, J. Chem. Theory Comput.,
     2021, 17, 4250-4261. DOI: 10.1021/acs.jctc.1c00471
   
   for ddCOSMO and CPCM-X implicit solvation:
   * M. Stahn, S. Ehlert, S. Grimme, J. Phys. Chem. A,
     2023, XX, XXXX-XXXX. DOI: 10.1021/acs.jpca.3c04382
   
   for DFT-D4:
   * E. Caldeweyher, C. Bannwarth and S. Grimme, J. Chem. Phys., 2017,
     147, 034112. DOI: 10.1063/1.4993215
   * E. Caldeweyher, S. Ehlert, A. Hansen, H. Neugebauer, S. Spicher,
     C. Bannwarth and S. Grimme, J. Chem. Phys., 2019, 150, 154122.
     DOI: 10.1063/1.5090222
   * E. Caldeweyher, J.-M. Mewes, S. Ehlert and S. Grimme, Phys. Chem. Chem. Phys.
     2020, 22, 8499-8512. DOI: 10.1039/D0CP00502A
   
   for sTDA-xTB:
   * S. Grimme and C. Bannwarth, J. Chem. Phys., 2016, 145, 054103.
     DOI: 10.1063/1.4959605
   
   in the mass-spec context:
   * V. Asgeirsson, C. Bauer and S. Grimme, Chem. Sci., 2017, 8, 4879.
     DOI: 10.1039/c7sc00601b
   * J. Koopman and S. Grimme, ACS Omega 2019, 4, 12, 15120-15133.
     DOI: 10.1021/acsomega.9b02011
   
   for metadynamics refer to:
   * S. Grimme, J. Chem. Theory Comput., 2019, 155, 2847-2862
     DOI: 10.1021/acs.jctc.9b00143
   
   for SPH calculations refer to:
   * S. Spicher and S. Grimme, J. Chem. Theory Comput., 2021, 17, 1701-1714
     DOI: 10.1021/acs.jctc.0c01306
   
   for ONIOM refer to:
   * C. Plett, A. Katbashev, S. Ehlert, S. Grimme, M. Bursch,
     Phys. Chem. Chem. Phys., 2023, 25, 17860-17868. DOI: 10.1039/D3CP02178E
   
   for DIPRO refer to:
   * J. Kohn, N. Gildemeister, S. Grimme, D. Fazzi, A. Hansen,
     J. Chem. Phys., 2023, just accepted.
   
   for PTB refer to:
   * S. Grimme, M. Mueller, A. Hansen, J. Chem. Phys., 2023, 158, 124111.
     DOI: 10.1063/5.0137838
   
   with help from (in alphabetical order)
   P. Atkinson, C. Bannwarth, F. Bohle, G. Brandenburg, E. Caldeweyher
   M. Checinski, S. Dohm, S. Ehlert, S. Ehrlich, I. Gerasimov, C. Hölzer
   A. Katbashev, J. Kohn, J. Koopman, C. Lavigne, S. Lehtola, F. März, M. Müller,
   F. Musil, H. Neugebauer, J. Pisarek, C. Plett, P. Pracht, F. Pultar,
   J. Seibert, P. Shushkov, S. Spicher, M. Stahn, M. Steiner, T. Strunk,
   J. Stückrath, T. Rose, and J. Unsleber
   
 * started run on 2026/07/31 at 15:20:18.010     
   ID    Z sym.   atoms
    1    7 N      1, 2, 24, 25, 53, 55, 110, 112, 215
    2    6 C      3-5, 7, 9-12, 14, 16-20, 22, 23, 26-28, 30, 32-35, 37,
                  39-43, 45, 46, 49-52, 54, 57, 58, 61, 65, 67, 68, 70, 71,
                  73, 77, 81, 86-89, 91, 92, 106-109, 111, 114, 115, 118,
                  122, 124, 125, 127, 128, 130, 134, 138, 143-146, 148, 149,
                  171-174, 176, 178, 182-185, 187, 189, 193-196, 198, 200,
                  204-207, 209, 211, 216, 217, 219-228
    3    1 H      6, 8, 13, 15, 21, 29, 31, 36, 38, 44, 56, 59, 60, 62, 63,
                  69, 72, 74-76, 78-80, 90, 93-105, 113, 116, 117, 119, 120,
                  126, 129, 131-133, 135-137, 147, 150-166, 175, 177,
                  179-181, 186, 188, 190-192, 197, 199, 201-203, 208, 210,
                  212-214, 229-247
    4   26 Fe     47
    5   17 Cl     48
    6    8 O      64, 66, 82-85, 121, 123, 139-142, 167-170
    7   14 Si     218

           -------------------------------------------------
          |                Calculation Setup                |
           -------------------------------------------------

          program call               : /Users/haywoodau3/Documents/genaisubstrate/.chem-env/bin/xtb /Users/haywoodau3/Documents/genaisubstrate/data/jacs_2025/stage3/pilot/reference-optimizations/1ac/start-0001/input-assembly.xyz --gfn 2 --alpb ether --opt --input /Users/haywoodau3/Documents/genaisubstrate/data/jacs_2025/stage3/pilot/reference-optimizations/1ac/start-0001/xcontrol
          coordinate file            : /Users/haywoodau3/Documents/genaisubstrate/data/jacs_2025/stage3/pilot/reference-optimizations/1ac/start-0001/input-assembly.xyz
          omp threads                :                     4


           -------------------------------------------------
          |                 G F N 2 - x T B                 |
           -------------------------------------------------

        Reference                      10.1021/acs.jctc.8b01176
      * Hamiltonian:
        H0-scaling (s, p, d)           1.850000    2.230000    2.230000
        zeta-weighting                 0.500000
      * Dispersion:
        s8                             2.700000
        a1                             0.520000
        a2                             5.000000
        s9                             5.000000
      * Repulsion:
        kExp                           1.500000    1.000000
        rExp                           1.000000
      * Coulomb:
        alpha                          2.000000
        third order                    shell-resolved
        anisotropic                    true
        a3                             3.000000
        a5                             4.000000
        cn-shift                       1.200000
        cn-exp                         4.000000
        max-rad                        5.000000

      * Solvation model:               ALPB
        Solvent                        ether
        Parameter file                 internal GFN2-xTB/ALPB
        Dielectric constant                4.3300E+00
        Reference state                gsolv [1 M gas/solution]
        Free energy shift                  4.9534E-03 Eh       3.1083E+00 kcal/mol
        Temperature                        2.9815E+02 K
        Density                            7.1300E-01 kg/L
        Solvent mass                       7.4120E+01 g/mol
        Interaction kernel             P16
        Born radius scaling (c1)           1.5847E+00
        Born radii integrator          GBOBC
        Born offset                        0.0000E+00 a0       0.0000E+00 AA
        H-bond correction              true
        Ion screening                  false
        Surface tension                    1.0000E-05 Eh       1.5569E+01 dyn/cm
        Grid points                               230 per atom

          ...................................................
          :                      SETUP                      :
          :.................................................:
          :  # basis functions                 685          :
          :  # atomic orbitals                 682          :
          :  # shells                          390          :
          :  # electrons                       715          :
          :  max. iterations                   250          :
          :  Hamiltonian                  GFN2-xTB          :
          :  restarted?                      false          :
          :  GBSA solvation                   true          :
          :  PC potential                    false          :
          :  electronic temp.          300.0000000     K    :
          :  accuracy                    1.0000000          :
          :  -> integral cutoff          0.2500000E+02      :
          :  -> integral neglect         0.1000000E-07      :
          :  -> SCF convergence          0.1000000E-05 Eh   :
          :  -> wf. convergence          0.1000000E-03 e    :
          :  Broyden damping             0.4000000          :
          :  net charge                          0          :
          :  unpaired electrons                  0          :
          ...................................................

 iter      E             dE          RMSdq      gap      omega  full diag
   1   -399.6292560 -0.399629E+03  0.456E+00    0.10       0.0  T
   2   -399.4866635  0.142593E+00  0.315E+00    0.01       1.0  T
   3   -393.9581080  0.552856E+01  0.459E+00    0.16       1.0  T
   4   -399.7754676 -0.581736E+01  0.204E+00    0.10       1.0  T
   5   -400.4782685 -0.702801E+00  0.843E-01    0.19       1.0  T
   6   -400.5095413 -0.312728E-01  0.593E-01    0.10       1.0  T
   7   -400.5198834 -0.103421E-01  0.331E-01    0.07       1.0  T
   8   -400.5207172 -0.833847E-03  0.376E-01    0.07       1.0  T
   9   -400.5301235 -0.940625E-02  0.126E-01    0.06       1.0  T
  10   -400.5305717 -0.448223E-03  0.521E-02    0.06       1.0  T
  11   -400.5307620 -0.190345E-03  0.369E-02    0.06       1.0  T
  12   -400.5307827 -0.206974E-04  0.274E-02    0.06       1.0  T
  13   -400.5308035 -0.207440E-04  0.181E-02    0.06       1.0  T
  14   -400.5308320 -0.284916E-04  0.101E-02    0.06       1.0  T
  15   -400.5308370 -0.506704E-05  0.509E-03    0.06       1.3  T
  16   -400.5308390 -0.199153E-05  0.243E-03    0.06       2.6  T
  17   -400.5308393 -0.247346E-06  0.195E-03    0.06       3.3  T
  18   -400.5308396 -0.340175E-06  0.109E-03    0.06       5.8  T
  19   -400.5308397 -0.100462E-06  0.789E-04    0.06       8.1  T
  20   -400.5308398 -0.384226E-07  0.441E-04    0.06      14.4  T

   *** convergence criteria satisfied after 20 iterations ***

         #    Occupation            Energy/Eh            Energy/eV
      -------------------------------------------------------------
         1        2.0000           -1.0119116             -27.5355
       ...           ...                  ...                  ...
       352        2.0000           -0.3773995             -10.2696
       353        2.0000           -0.3763519             -10.2411
       354        2.0000           -0.3737546             -10.1704
       355        2.0000           -0.3708489             -10.0913
       356        2.0000           -0.3596668              -9.7870
       357        1.9997           -0.3487486              -9.4899
       358        0.7605           -0.3331528              -9.0655 (HOMO)
       359        0.2398           -0.3309606              -9.0059 (LUMO)
       360                         -0.3045819              -8.2881
       361                         -0.3023007              -8.2260
       362                         -0.2669556              -7.2642
       363                         -0.2616988              -7.1212
       ...                                ...                  ...
       682                          1.4439704              39.2924
      -------------------------------------------------------------
                  HL-Gap            0.0021923 Eh            0.0597 eV
             Fermi-level           -0.3365263 Eh           -9.1573 eV

 SCC (total)                   0 d,  0 h,  0 min,  1.781 sec
 SCC setup                      ...        0 min,  0.004 sec (  0.229%)
 Dispersion                     ...        0 min,  0.005 sec (  0.258%)
 classical contributions        ...        0 min,  0.001 sec (  0.044%)
 integral evaluation            ...        0 min,  0.024 sec (  1.322%)
 iterations                     ...        0 min,  1.398 sec ( 78.454%)
 molecular gradient             ...        0 min,  0.330 sec ( 18.547%)
 printout                       ...        0 min,  0.020 sec (  1.145%)

         :::::::::::::::::::::::::::::::::::::::::::::::::::::
         ::                     SUMMARY                     ::
         :::::::::::::::::::::::::::::::::::::::::::::::::::::
         :: total energy            -395.396904606915 Eh    ::
         :: total w/o Gsasa/hb      -395.285902937448 Eh    ::
         :: gradient norm              0.282555134048 Eh/a0 ::
         :: HOMO-LUMO gap              0.059654541026 eV    ::
         ::.................................................::
         :: SCC energy              -400.506746171017 Eh    ::
         :: -> isotropic ES            0.526503346516 Eh    ::
         :: -> anisotropic ES          0.007397842671 Eh    ::
         :: -> anisotropic XC          0.172736135896 Eh    ::
         :: -> dispersion             -0.351848809091 Eh    ::
         :: -> Gsolv                  -0.158308039368 Eh    ::
         ::    -> Gelec               -0.047306369901 Eh    ::
         ::    -> Gsasa               -0.109875121494 Eh    ::
         ::    -> Ghb                 -0.006079985550 Eh    ::
         ::    -> Gshift               0.004953437577 Eh    ::
         :: repulsion energy           5.109841564102 Eh    ::
         :: add. restraining           0.000000000000 Eh    ::
         :: total charge              -0.000000000000 e     ::
         :::::::::::::::::::::::::::::::::::::::::::::::::::::

      ----------------------------------------------------------- 
     |                   =====================                   |
     |                        A N C O P T                        |
     |                   =====================                   |
     |               Approximate Normal Coordinate               |
     |                Rational Function Optimizer                |
      ----------------------------------------------------------- 
      ----------------------------------------------------------- 
     |                   =====================                   |
     |                        A N C O P T                        |
     |                   =====================                   |
     |               Approximate Normal Coordinate               |
     |                Rational Function Optimizer                |
      ----------------------------------------------------------- 

          ...................................................
          :                      SETUP                      :
          :.................................................:
          :   optimization level            normal          :
          :   max. optcycles                   741          :
          :   ANC micro-cycles                  20          :
          :   degrees of freedom               735          :
          :.................................................:
          :   RF solver                   davidson          :
          :   write xtbopt.log                true          :
          :   linear?                        false          :
          :   energy convergence         0.5000000E-05 Eh   :
          :   grad. convergence          0.1000000E-02 Eh/α :
          :   maxmium RF displ.          1.0000000          :
          :   Hlow (freq-cutoff)         0.1000000E-01      :
          :   Hmax (freq-cutoff)         5.0000000          :
          :   S6 in model hess.         20.0000000          :
          ...................................................

generating ANC from exact Hessian ...
Using Lindh-Hessian (1995)
 Shifting diagonal of input Hessian by    9.7717547433458646E-003
 Lowest  eigenvalues of input Hessian
    0.000000    0.000000    0.000000    0.000000    0.000000    0.000000
    0.010000    0.010055    0.010171    0.010660    0.010894    0.011280
    0.011894    0.012783    0.012798    0.014086    0.014412    0.014777
 Highest eigenvalues
    3.078122    3.147664    3.174576    3.209543    3.293451    3.297289


........................................................................
.............................. CYCLE    1 ..............................
........................................................................

 iter      E             dE          RMSdq      gap      omega  full diag
   1   -400.5308398 -0.400531E+03  0.371E-04    0.06       0.0  T
   2   -400.5308397  0.381839E-07  0.701E-04    0.06       9.1  T
   3   -400.5308398 -0.611868E-07  0.185E-04    0.06      34.4  T
     SCC iter.                  ...        0 min,  0.203 sec
     gradient                   ...        0 min,  0.319 sec
 * total energy  :  -395.3969046 Eh     change       -0.2429709E-07 Eh
   gradient norm :     0.2825537 Eh/α   predicted     0.0000000E+00 (-100.00%)
   displ. norm   :     0.5029370 α      lambda       -0.1031672E+00
   maximum displ.:     0.1852097 α      in ANC's #61, #21, #79, ...

........................................................................
.............................. CYCLE    2 ..............................
........................................................................

 iter      E             dE          RMSdq      gap      omega  full diag
   1   -400.7569821 -0.400757E+03  0.191E-01    0.04       0.0  T
   2   -400.7523325  0.464954E-02  0.244E-01    0.05       1.0  T
   3   -400.7579117 -0.557912E-02  0.133E-01    0.05       1.0  T
   4   -400.7585111 -0.599406E-03  0.930E-02    0.05       1.0  T
   5   -400.7583646  0.146438E-03  0.746E-02    0.05       1.0  T
   6   -400.7587068 -0.342131E-03  0.288E-02    0.05       1.0  T
   7   -400.7587219 -0.151595E-04  0.167E-02    0.05       1.0  T
   8   -400.7587401 -0.182316E-04  0.729E-03    0.05       1.0  T
   9   -400.7587404 -0.256328E-06  0.439E-03    0.05       1.4  T
  10   -400.7587435 -0.306509E-05  0.248E-03    0.05       2.6  T
  11   -400.7587440 -0.486796E-06  0.103E-03    0.05       6.2  T
  12   -400.7587440 -0.522102E-07  0.559E-04    0.05      11.4  T
  13   -400.7587440 -0.153495E-07  0.309E-04    0.05      20.6  T
     SCC iter.                  ...        0 min,  0.902 sec
     gradient                   ...        0 min,  0.318 sec
 * total energy  :  -395.4683011 Eh     change       -0.7139643E-01 Eh
   gradient norm :     0.1086228 Eh/α   predicted    -0.6467969E-01 (  -9.41%)
   displ. norm   :     0.5768770 α      lambda       -0.3957783E-01
   maximum displ.:     0.2627531 α      in ANC's #21, #61, #24, ...

........................................................................
.............................. CYCLE    3 ..............................
........................................................................

 iter      E             dE          RMSdq      gap      omega  full diag
   1   -400.8522100 -0.400852E+03  0.176E-01    0.05       0.0  T
   2   -400.8454583  0.675168E-02  0.272E-01    0.03       1.0  T
   3   -400.8539062 -0.844782E-02  0.979E-02    0.04       1.0  T
   4   -400.8539792 -0.730544E-04  0.819E-02    0.05       1.0  T
   5   -400.8541269 -0.147688E-03  0.551E-02    0.04       1.0  T
   6   -400.8543585 -0.231582E-03  0.155E-02    0.04       1.0  T
   7   -400.8543504  0.806296E-05  0.117E-02    0.04       1.0  T
   8   -400.8543602 -0.979921E-05  0.674E-03    0.05       1.0  T
   9   -400.8543635 -0.330306E-05  0.292E-03    0.04       2.2  T
  10   -400.8543642 -0.676026E-06  0.223E-03    0.04       2.9  T
  11   -400.8543645 -0.305233E-06  0.991E-04    0.04       6.4  T
  12   -400.8543646 -0.744087E-07  0.556E-04    0.04      11.4  T
     SCC iter.                  ...        0 min,  0.835 sec
     gradient                   ...        0 min,  0.319 sec
 * total energy  :  -395.4978428 Eh     change       -0.2954178E-01 Eh
   gradient norm :     0.0475062 Eh/α   predicted    -0.2637442E-01 ( -10.72%)
   displ. norm   :     0.6578481 α      lambda       -0.2116826E-01
   maximum displ.:     0.3337733 α      in ANC's #21, #19, #17, ...

........................................................................
.............................. CYCLE    4 ..............................
........................................................................

 iter      E             dE          RMSdq      gap      omega  full diag
   1   -400.8713685 -0.400871E+03  0.131E-01    0.07       0.0  T
   2   -400.8691208  0.224766E-02  0.181E-01    0.03       1.0  T
   3   -400.8723261 -0.320527E-02  0.564E-02    0.05       1.0  T
   4   -400.8723125  0.136033E-04  0.482E-02    0.06       1.0  T
   5   -400.8722857  0.267741E-04  0.420E-02    0.05       1.0  T
   6   -400.8724861 -0.200369E-03  0.985E-03    0.05       1.0  T
   7   -400.8724894 -0.326722E-05  0.561E-03    0.05       1.1  T
   8   -400.8724908 -0.147288E-05  0.411E-03    0.05       1.5  T
   9   -400.8724925 -0.166367E-05  0.198E-03    0.05       3.2  T
  10   -400.8724925  0.838645E-08  0.182E-03    0.05       3.5  T
  11   -400.8724928 -0.287458E-06  0.495E-04    0.05      12.9  T
  12   -400.8724928 -0.896597E-08  0.373E-04    0.05      17.1  T
     SCC iter.                  ...        0 min,  0.842 sec
     gradient                   ...        0 min,  0.320 sec
 * total energy  :  -395.5143671 Eh     change       -0.1652430E-01 Eh
   gradient norm :     0.0301289 Eh/α   predicted    -0.1516457E-01 (  -8.23%)
   displ. norm   :     0.6961135 α      lambda       -0.1294496E-01
   maximum displ.:     0.3276457 α      in ANC's #21, #17, #19, ...

........................................................................
.............................. CYCLE    5 ..............................
........................................................................

 iter      E             dE          RMSdq      gap      omega  full diag
   1   -400.8697095 -0.400870E+03  0.890E-02    0.09       0.0  T
   2   -400.8690212  0.688314E-03  0.111E-01    0.04       1.0  T
   3   -400.8699591 -0.937902E-03  0.458E-02    0.08       1.0  T
   4   -400.8699755 -0.164359E-04  0.320E-02    0.07       1.0  T
   5   -400.8700469 -0.713510E-04  0.221E-02    0.07       1.0  T
   6   -400.8700847 -0.377849E-04  0.751E-03    0.07       1.0  T
   7   -400.8700873 -0.264548E-05  0.402E-03    0.07       1.6  T
   8   -400.8700875 -0.144824E-06  0.316E-03    0.07       2.0  T
   9   -400.8700887 -0.122571E-05  0.169E-03    0.07       3.8  T
  10   -400.8700887 -0.175997E-07  0.131E-03    0.07       4.9  T
  11   -400.8700889 -0.173408E-06  0.313E-04    0.07      20.3  T
  12   -400.8700889 -0.770564E-08  0.207E-04    0.07      30.8  T
     SCC iter.                  ...        0 min,  0.897 sec
     gradient                   ...        0 min,  0.324 sec
 * total energy  :  -395.5248734 Eh     change       -0.1050631E-01 Eh
   gradient norm :     0.0251457 Eh/α   predicted    -0.9608905E-02 (  -8.54%)
   displ. norm   :     0.7275177 α      lambda       -0.8901112E-02
   maximum displ.:     0.2992178 α      in ANC's #17, #21, #11, ...

........................................................................
.............................. CYCLE    6 ..............................
........................................................................

 iter      E             dE          RMSdq      gap      omega  full diag
   1   -400.8703285 -0.400870E+03  0.735E-02    0.10       0.0  T
   2   -400.8696604  0.668118E-03  0.931E-02    0.06       1.0  T
   3   -400.8704828 -0.822460E-03  0.398E-02    0.09       1.0  T
   4   -400.8705271 -0.442648E-04  0.260E-02    0.08       1.0  T
   5   -400.8705921 -0.649847E-04  0.150E-02    0.08       1.0  T
   6   -400.8706043 -0.122144E-04  0.516E-03    0.08       1.2  T
   7   -400.8706046 -0.352456E-06  0.318E-03    0.08       2.0  T
   8   -400.8706048 -0.152027E-06  0.225E-03    0.08       2.8  T
   9   -400.8706055 -0.740525E-06  0.118E-03    0.08       5.4  T
  10   -400.8706056 -0.499908E-07  0.690E-04    0.08       9.2  T
  11   -400.8706056 -0.426267E-07  0.223E-04    0.08      28.5  T
     SCC iter.                  ...        0 min,  0.786 sec
     gradient                   ...        0 min,  0.325 sec
 * total energy  :  -395.5322087 Eh     change       -0.7335262E-02 Eh
   gradient norm :     0.0177705 Eh/α   predicted    -0.6806160E-02 (  -7.21%)
   displ. norm   :     0.7363747 α      lambda       -0.6232393E-02
   maximum displ.:     0.2992157 α      in ANC's #11, #17, #8, ...

........................................................................
.............................. CYCLE    7 ..............................
........................................................................

 iter      E             dE          RMSdq      gap      omega  full diag
   1   -400.8749076 -0.400875E+03  0.617E-02    0.10       0.0  T
   2   -400.8746603  0.247307E-03  0.615E-02    0.08       1.0  T
   3   -400.8749430 -0.282701E-03  0.369E-02    0.10       1.0  T
   4   -400.8749748 -0.317579E-04  0.246E-02    0.09       1.0  T
   5   -400.8750519 -0.770788E-04  0.103E-02    0.09       1.0  T
   6   -400.8750571 -0.520089E-05  0.402E-03    0.09       1.6  T
   7   -400.8750565  0.534711E-06  0.260E-03    0.09       2.4  T
   8   -400.8750569 -0.317726E-06  0.164E-03    0.09       3.9  T
   9   -400.8750573 -0.426489E-06  0.867E-04    0.09       7.3  T
  10   -400.8750573 -0.407976E-07  0.391E-04    0.09      16.3  T
     SCC iter.                  ...        0 min,  0.719 sec
     gradient                   ...        0 min,  0.321 sec
 * total energy  :  -395.5373644 Eh     change       -0.5155665E-02 Eh
   gradient norm :     0.0116576 Eh/α   predicted    -0.4805950E-02 (  -6.78%)
   displ. norm   :     0.7304607 α      lambda       -0.4344308E-02
   maximum displ.:     0.3153767 α      in ANC's #8, #11, #17, ...

........................................................................
.............................. CYCLE    8 ..............................
........................................................................

 iter      E             dE          RMSdq      gap      omega  full diag
   1   -400.8800548 -0.400880E+03  0.551E-02    0.11       0.0  T
   2   -400.8800169  0.378508E-04  0.393E-02    0.10       1.0  T
   3   -400.8800061  0.107786E-04  0.353E-02    0.11       1.0  T
   4   -400.8800552 -0.490342E-04  0.218E-02    0.10       1.0  T
   5   -400.8801184 -0.632290E-04  0.859E-03    0.10       1.0  T
   6   -400.8801227 -0.432360E-05  0.423E-03    0.10       1.5  T
   7   -400.8801221  0.637256E-06  0.258E-03    0.10       2.5  T
   8   -400.8801224 -0.353406E-06  0.147E-03    0.10       4.3  T
   9   -400.8801228 -0.381519E-06  0.790E-04    0.10       8.1  T
  10   -400.8801228 -0.302383E-07  0.438E-04    0.10      14.5  T
     SCC iter.                  ...        0 min,  0.701 sec
     gradient                   ...        0 min,  0.320 sec
 * total energy  :  -395.5409046 Eh     change       -0.3540216E-02 Eh
   gradient norm :     0.0091965 Eh/α   predicted    -0.3331160E-02 (  -5.91%)
   displ. norm   :     0.6955746 α      lambda       -0.2850661E-02
   maximum displ.:     0.3482948 α      in ANC's #8, #11, #6, ...

........................................................................
.............................. CYCLE    9 ..............................
........................................................................

 iter      E             dE          RMSdq      gap      omega  full diag
   1   -400.8838539 -0.400884E+03  0.499E-02    0.12       0.0  T
   2   -400.8838561 -0.217689E-05  0.309E-02    0.11       1.0  T
   3   -400.8838115  0.445222E-04  0.267E-02    0.12       1.0  T
   4   -400.8838823 -0.707240E-04  0.902E-03    0.11       1.0  T
   5   -400.8838871 -0.478033E-05  0.499E-03    0.11       1.3  T
   6   -400.8838854  0.169976E-05  0.535E-03    0.11       1.2  T
   7   -400.8838878 -0.248744E-05  0.191E-03    0.11       3.3  T
   8   -400.8838879 -0.300338E-07  0.107E-03    0.11       6.0  T
   9   -400.8838880 -0.115260E-06  0.683E-04    0.11       9.3  T
  10   -400.8838880 -0.267314E-07  0.399E-04    0.11      15.9  T
     SCC iter.                  ...        0 min,  0.757 sec
     gradient                   ...        0 min,  0.332 sec
 * total energy  :  -395.5431887 Eh     change       -0.2284065E-02 Eh
   gradient norm :     0.0078197 Eh/α   predicted    -0.2114954E-02 (  -7.40%)
   displ. norm   :     0.6541976 α      lambda       -0.1831309E-02
   maximum displ.:     0.3659479 α      in ANC's #8, #6, #11, ...

........................................................................
.............................. CYCLE   10 ..............................
........................................................................

 iter      E             dE          RMSdq      gap      omega  full diag
   1   -400.8857668 -0.400886E+03  0.445E-02    0.12       0.0  T
   2   -400.8857673 -0.572401E-06  0.275E-02    0.12       1.0  T
   3   -400.8856888  0.785731E-04  0.273E-02    0.12       1.0  T
   4   -400.8857693 -0.805700E-04  0.135E-02    0.12       1.0  T
   5   -400.8857822 -0.128732E-04  0.551E-03    0.12       1.2  T
   6   -400.8857845 -0.232163E-05  0.337E-03    0.12       1.9  T
   7   -400.8857845  0.294560E-07  0.178E-03    0.12       3.6  T
   8   -400.8857848 -0.323525E-06  0.730E-04    0.12       8.7  T
   9   -400.8857849 -0.212510E-07  0.478E-04    0.12      13.3  T
     SCC iter.                  ...        0 min,  0.653 sec
     gradient                   ...        0 min,  0.322 sec
 * total energy  :  -395.5446465 Eh     change       -0.1457830E-02 Eh
   gradient norm :     0.0060424 Eh/α   predicted    -0.1307545E-02 ( -10.31%)
   displ. norm   :     0.6142863 α      lambda       -0.1227054E-02
   maximum displ.:     0.3677721 α      in ANC's #8, #6, #7, ...

........................................................................
.............................. CYCLE   11 ..............................
........................................................................

 iter      E             dE          RMSdq      gap      omega  full diag
   1   -400.8864775 -0.400886E+03  0.400E-02    0.12       0.0  T
   2   -400.8864770  0.543471E-06  0.247E-02    0.12       1.0  T
   3   -400.8863913  0.857317E-04  0.267E-02    0.13       1.0  T
   4   -400.8864772 -0.859499E-04  0.100E-02    0.12       1.0  T
   5   -400.8864845 -0.727022E-05  0.403E-03    0.12       1.6  T
   6   -400.8864856 -0.109198E-05  0.258E-03    0.12       2.5  T
   7   -400.8864856 -0.761931E-07  0.107E-03    0.12       5.9  T
   8   -400.8864857 -0.954628E-07  0.509E-04    0.12      12.5  T
   9   -400.8864857 -0.696298E-08  0.307E-04    0.12      20.7  T
     SCC iter.                  ...        0 min,  0.628 sec
     gradient                   ...        0 min,  0.319 sec
 * total energy  :  -395.5456194 Eh     change       -0.9729017E-03 Eh
   gradient norm :     0.0049149 Eh/α   predicted    -0.8450406E-03 ( -13.14%)
   displ. norm   :     0.5343820 α      lambda       -0.8403416E-03
   maximum displ.:     0.3184842 α      in ANC's #8, #6, #7, ...

........................................................................
.............................. CYCLE   12 ..............................
........................................................................

 iter      E             dE          RMSdq      gap      omega  full diag
   1   -400.8868099 -0.400887E+03  0.356E-02    0.12       0.0  T
   2   -400.8868107 -0.739939E-06  0.214E-02    0.12       1.0  T
   3   -400.8867819  0.287563E-04  0.174E-02    0.12       1.0  T
   4   -400.8867999 -0.180052E-04  0.108E-02    0.12       1.0  T
   5   -400.8868130 -0.130812E-04  0.243E-03    0.12       2.6  T
   6   -400.8868131 -0.160066E-06  0.178E-03    0.12       3.6  T
   7   -400.8868132 -0.563380E-07  0.726E-04    0.12       8.8  T
   8   -400.8868132 -0.340775E-07  0.357E-04    0.12      17.8  T
     SCC iter.                  ...        0 min,  0.562 sec
     gradient                   ...        0 min,  0.320 sec
 * total energy  :  -395.5462989 Eh     change       -0.6795274E-03 Eh
   gradient norm :     0.0052154 Eh/α   predicted    -0.5401576E-03 ( -20.51%)
   displ. norm   :     0.5522888 α      lambda       -0.7452052E-03
   maximum displ.:     0.3082548 α      in ANC's #8, #6, #7, ...

........................................................................
.............................. CYCLE   13 ..............................
........................................................................

 iter      E             dE          RMSdq      gap      omega  full diag
   1   -400.8869192 -0.400887E+03  0.379E-02    0.12       0.0  T
   2   -400.8869219 -0.273989E-05  0.222E-02    0.12       1.0  T
   3   -400.8869180  0.385368E-05  0.128E-02    0.12       1.0  T
   4   -400.8869201 -0.204835E-05  0.471E-03    0.12       1.4  T
   5   -400.8869240 -0.393882E-05  0.198E-03    0.12       3.2  T
   6   -400.8869239  0.133800E-06  0.177E-03    0.12       3.6  T
   7   -400.8869239 -0.249443E-07  0.128E-03    0.12       5.0  T
   8   -400.8869241 -0.178546E-06  0.464E-04    0.12      13.7  T
   9   -400.8869241 -0.963888E-08  0.254E-04    0.12      25.1  T
     SCC iter.                  ...        0 min,  0.629 sec
     gradient                   ...        0 min,  0.323 sec
 * total energy  :  -395.5469019 Eh     change       -0.6029538E-03 Eh
   gradient norm :     0.0054979 Eh/α   predicted    -0.4862570E-03 ( -19.35%)
   displ. norm   :     0.5566903 α      lambda       -0.6455759E-03
   maximum displ.:     0.2816807 α      in ANC's #6, #8, #5, ...

........................................................................
.............................. CYCLE   14 ..............................
........................................................................

 iter      E             dE          RMSdq      gap      omega  full diag
   1   -400.8870220 -0.400887E+03  0.393E-02    0.11       0.0  T
   2   -400.8870231 -0.116842E-05  0.233E-02    0.12       1.0  T
   3   -400.8870060  0.170846E-04  0.182E-02    0.11       1.0  T
   4   -400.8870045  0.156792E-05  0.156E-02    0.11       1.0  T
   5   -400.8870305 -0.259906E-04  0.349E-03    0.12       1.8  T
   6   -400.8870322 -0.171520E-05  0.168E-03    0.11       3.8  T
   7   -400.8870322 -0.155071E-07  0.991E-04    0.11       6.4  T
   8   -400.8870322  0.175030E-07  0.594E-04    0.11      10.7  T
     SCC iter.                  ...        0 min,  0.572 sec
     gradient                   ...        0 min,  0.322 sec
 * total energy  :  -395.5474146 Eh     change       -0.5127599E-03 Eh
   gradient norm :     0.0047610 Eh/α   predicted    -0.4228258E-03 ( -17.54%)
   displ. norm   :     0.5006119 α      lambda       -0.4936223E-03
   maximum displ.:     0.2509749 α      in ANC's #5, #6, #8, ...

........................................................................
.............................. CYCLE   15 ..............................
........................................................................

 iter      E             dE          RMSdq      gap      omega  full diag
   1   -400.8873231 -0.400887E+03  0.350E-02    0.11       0.0  T
   2   -400.8873199  0.326986E-05  0.215E-02    0.11       1.0  T
   3   -400.8873029  0.170064E-04  0.190E-02    0.11       1.0  T
   4   -400.8873171 -0.142098E-04  0.141E-02    0.11       1.0  T
   5   -400.8873335 -0.164499E-04  0.426E-03    0.11       1.5  T
   6   -400.8873364 -0.286453E-05  0.150E-03    0.11       4.2  T
   7   -400.8873364 -0.318676E-08  0.919E-04    0.11       6.9  T
   8   -400.8873364  0.277422E-07  0.583E-04    0.11      10.9  T
     SCC iter.                  ...        0 min,  0.564 sec
     gradient                   ...        0 min,  0.321 sec
 * total energy  :  -395.5478156 Eh     change       -0.4009229E-03 Eh
   gradient norm :     0.0035348 Eh/α   predicted    -0.3086747E-03 ( -23.01%)
   displ. norm   :     0.4853835 α      lambda       -0.4356524E-03
   maximum displ.:     0.2655329 α      in ANC's #5, #6, #1, ...

........................................................................
.............................. CYCLE   16 ..............................
........................................................................

 iter      E             dE          RMSdq      gap      omega  full diag
   1   -400.8878069 -0.400888E+03  0.308E-02    0.10       0.0  T
   2   -400.8878019  0.506664E-05  0.195E-02    0.11       1.0  T
   3   -400.8877904  0.114377E-04  0.175E-02    0.10       1.0  T
   4   -400.8878070 -0.165850E-04  0.119E-02    0.10       1.0  T
   5   -400.8878173 -0.102380E-04  0.418E-03    0.10       1.5  T
   6   -400.8878201 -0.283624E-05  0.114E-03    0.10       5.6  T
   7   -400.8878201 -0.118314E-08  0.740E-04    0.10       8.6  T
   8   -400.8878201  0.129564E-07  0.487E-04    0.10      13.1  T
     SCC iter.                  ...        0 min,  0.571 sec
     gradient                   ...        0 min,  0.322 sec
 * total energy  :  -395.5481830 Eh     change       -0.3674074E-03 Eh
   gradient norm :     0.0035588 Eh/α   predicted    -0.2691469E-03 ( -26.74%)
   displ. norm   :     0.5226252 α      lambda       -0.4603072E-03
   maximum displ.:     0.2970621 α      in ANC's #5, #6, #1, ...

........................................................................
.............................. CYCLE   17 ..............................
........................................................................

 iter      E             dE          RMSdq      gap      omega  full diag
   1   -400.8888449 -0.400889E+03  0.281E-02    0.10       0.0  T
   2   -400.8888405  0.441971E-05  0.180E-02    0.10       1.0  T
   3   -400.8888305  0.100748E-04  0.164E-02    0.10       1.0  T
   4   -400.8888466 -0.161811E-04  0.107E-02    0.10       1.0  T
   5   -400.8888549 -0.828262E-05  0.378E-03    0.10       1.7  T
   6   -400.8888572 -0.232198E-05  0.852E-04    0.10       7.5  T
   7   -400.8888573 -0.969408E-08  0.512E-04    0.10      12.4  T
   8   -400.8888573 -0.165323E-08  0.342E-04    0.10      18.6  T
     SCC iter.                  ...        0 min,  0.555 sec
     gradient                   ...        0 min,  0.321 sec
 * total energy  :  -395.5485816 Eh     change       -0.3986737E-03 Eh
   gradient norm :     0.0051652 Eh/α   predicted    -0.2930208E-03 ( -26.50%)
   displ. norm   :     0.6068775 α      lambda       -0.5343679E-03
   maximum displ.:     0.3510726 α      in ANC's #5, #1, #6, ...

........................................................................
.............................. CYCLE   18 ..............................
........................................................................

 iter      E             dE          RMSdq      gap      omega  full diag
   1   -400.8875292 -0.400888E+03  0.279E-02    0.09       0.0  T
   2   -400.8875281  0.106982E-05  0.173E-02    0.10       1.0  T
   3   -400.8875111  0.169756E-04  0.162E-02    0.09       1.0  T
   4   -400.8875294 -0.182510E-04  0.103E-02    0.09       1.0  T
   5   -400.8875387 -0.927780E-05  0.310E-03    0.09       2.1  T
   6   -400.8875401 -0.146736E-05  0.109E-03    0.09       5.8  T
   7   -400.8875402 -0.869493E-07  0.537E-04    0.09      11.8  T
   8   -400.8875402 -0.376417E-09  0.396E-04    0.09      16.1  T
     SCC iter.                  ...        0 min,  0.559 sec
     gradient                   ...        0 min,  0.326 sec
 * total energy  :  -395.5490172 Eh     change       -0.4356006E-03 Eh
   gradient norm :     0.0058714 Eh/α   predicted    -0.3655902E-03 ( -16.07%)
   displ. norm   :     0.6216904 α      lambda       -0.5713154E-03
   maximum displ.:     0.3639052 α      in ANC's #5, #1, #6, ...

........................................................................
.............................. CYCLE   19 ..............................
........................................................................

 iter      E             dE          RMSdq      gap      omega  full diag
   1   -400.8905628 -0.400891E+03  0.245E-02    0.09       0.0  T
   2   -400.8905650 -0.221981E-05  0.148E-02    0.09       1.0  T
   3   -400.8905503  0.147233E-04  0.140E-02    0.09       1.0  T
   4   -400.8905671 -0.167490E-04  0.797E-03    0.09       1.0  T
   5   -400.8905729 -0.588495E-05  0.290E-03    0.09       2.2  T
   6   -400.8905740 -0.103148E-05  0.123E-03    0.09       5.2  T
   7   -400.8905740 -0.402725E-07  0.803E-04    0.09       7.9  T
   8   -400.8905740  0.183792E-08  0.503E-04    0.09      12.6  T
     SCC iter.                  ...        0 min,  0.572 sec
     gradient                   ...        0 min,  0.323 sec
 * total energy  :  -395.5494465 Eh     change       -0.4292189E-03 Eh
   gradient norm :     0.0060444 Eh/α   predicted    -0.3960714E-03 (  -7.72%)
   displ. norm   :     0.6078056 α      lambda       -0.4516546E-03
   maximum displ.:     0.3645114 α      in ANC's #5, #1, #6, ...

........................................................................
.............................. CYCLE   20 ..............................
........................................................................

 iter      E             dE          RMSdq      gap      omega  full diag
   1   -400.8887068 -0.400889E+03  0.223E-02    0.09       0.0  T
   2   -400.8887093 -0.255937E-05  0.131E-02    0.09       1.0  T
   3   -400.8886976  0.116710E-04  0.963E-03    0.09       1.0  T
   4   -400.8887090 -0.113449E-04  0.542E-03    0.09       1.2  T
   5   -400.8887128 -0.382756E-05  0.214E-03    0.09       3.0  T
   6   -400.8887133 -0.485766E-06  0.121E-03    0.09       5.2  T
   7   -400.8887134 -0.851271E-07  0.779E-04    0.09       8.2  T
   8   -400.8887134 -0.808814E-08  0.470E-04    0.09      13.5  T
     SCC iter.                  ...        0 min,  0.568 sec
     gradient                   ...        0 min,  0.322 sec
 * total energy  :  -395.5498208 Eh     change       -0.3743582E-03 Eh
   gradient norm :     0.0045717 Eh/α   predicted    -0.3092546E-03 ( -17.39%)
   displ. norm   :     0.4817885 α      lambda       -0.4045265E-03
   maximum displ.:     0.2962008 α      in ANC's #5, #1, #6, ...
 * RMSD in coord.:     0.5398373 α      energy gain  -0.1529162E+00 Eh

generating ANC from exact Hessian ...
Using Lindh-Hessian (1995)
 Shifting diagonal of input Hessian by    9.8856419310756512E-003
 Lowest  eigenvalues of input Hessian
    0.000000    0.000000    0.000000    0.000000    0.000000    0.000000
    0.010000    0.010158    0.010278    0.010367    0.010492    0.010836
    0.011016    0.011999    0.012553    0.013286    0.013548    0.013690
 Highest eigenvalues
    3.129512    3.202571    3.211787    3.246469    3.329233    3.335857


........................................................................
.............................. CYCLE   21 ..............................
........................................................................

 iter      E             dE          RMSdq      gap      omega  full diag
   1   -400.8907134 -0.400891E+03  0.180E-02    0.09       0.0  T
   2   -400.8907159 -0.252421E-05  0.103E-02    0.09       1.0  T
   3   -400.8907061  0.984118E-05  0.846E-03    0.09       1.0  T
   4   -400.8907153 -0.918402E-05  0.571E-03    0.09       1.1  T
   5   -400.8907180 -0.271522E-05  0.282E-03    0.09       2.3  T
   6   -400.8907185 -0.551425E-06  0.195E-03    0.09       3.3  T
   7   -400.8907185  0.167057E-07  0.131E-03    0.09       4.9  T
   8   -400.8907186 -0.114610E-06  0.602E-04    0.09      10.6  T
   9   -400.8907187 -0.348372E-07  0.318E-04    0.09      20.0  T
     SCC iter.                  ...        0 min,  0.639 sec
     gradient                   ...        0 min,  0.328 sec
 * total energy  :  -395.5501264 Eh     change       -0.3055573E-03 Eh
   gradient norm :     0.0057839 Eh/α   predicted     0.0000000E+00 (-100.00%)
   displ. norm   :     0.1001475 α      lambda       -0.1842710E-03
   maximum displ.:     0.0467719 α      in ANC's #4, #1, #17, ...

........................................................................
.............................. CYCLE   22 ..............................
........................................................................

 iter      E             dE          RMSdq      gap      omega  full diag
   1   -400.8898693 -0.400890E+03  0.982E-03    0.09       0.0  T
   2   -400.8898697 -0.377569E-06  0.602E-03    0.09       1.1  T
   3   -400.8898680  0.171526E-05  0.428E-03    0.09       1.5  T
   4   -400.8898697 -0.165285E-05  0.226E-03    0.09       2.8  T
   5   -400.8898699 -0.241743E-06  0.137E-03    0.09       4.7  T
   6   -400.8898699  0.913462E-08  0.118E-03    0.09       5.4  T
   7   -400.8898699 -0.301304E-07  0.589E-04    0.09      10.8  T
   8   -400.8898699 -0.250022E-07  0.246E-04    0.09      25.8  T
     SCC iter.                  ...        0 min,  0.575 sec
     gradient                   ...        0 min,  0.322 sec
 * total energy  :  -395.5502803 Eh     change       -0.1539000E-03 Eh
   gradient norm :     0.0022460 Eh/α   predicted    -0.9330291E-04 ( -39.37%)
   displ. norm   :     0.3021211 α      lambda       -0.3656073E-03
   maximum displ.:     0.1410720 α      in ANC's #1, #4, #17, ...

........................................................................
.............................. CYCLE   23 ..............................
........................................................................

 iter      E             dE          RMSdq      gap      omega  full diag
   1   -400.8881257 -0.400888E+03  0.191E-02    0.09       0.0  T
   2   -400.8881268 -0.107480E-05  0.113E-02    0.09       1.0  T
   3   -400.8881202  0.662557E-05  0.825E-03    0.09       1.0  T
   4   -400.8881269 -0.669145E-05  0.415E-03    0.09       1.5  T
   5   -400.8881282 -0.130264E-05  0.176E-03    0.09       3.6  T
   6   -400.8881281  0.627484E-07  0.162E-03    0.09       3.9  T
   7   -400.8881282 -0.495969E-07  0.120E-03    0.09       5.3  T
   8   -400.8881282 -0.646285E-07  0.522E-04    0.09      12.2  T
   9   -400.8881283 -0.492717E-07  0.250E-04    0.09      25.5  T
     SCC iter.                  ...        0 min,  0.643 sec
     gradient                   ...        0 min,  0.321 sec
 * total energy  :  -395.5505390 Eh     change       -0.2587713E-03 Eh
   gradient norm :     0.0055152 Eh/α   predicted    -0.1995056E-03 ( -22.90%)
   displ. norm   :     0.2907237 α      lambda       -0.2266774E-03
   maximum displ.:     0.1522491 α      in ANC's #1, #4, #8, ...

........................................................................
.............................. CYCLE   24 ..............................
........................................................................

 iter      E             dE          RMSdq      gap      omega  full diag
   1   -400.8874154 -0.400887E+03  0.156E-02    0.09       0.0  T
   2   -400.8874158 -0.428065E-06  0.936E-03    0.09       1.0  T
   3   -400.8874123  0.345065E-05  0.653E-03    0.09       1.0  T
   4   -400.8874155 -0.312595E-05  0.376E-03    0.09       1.7  T
   5   -400.8874168 -0.131609E-05  0.107E-03    0.09       5.9  T
   6   -400.8874168  0.269885E-07  0.101E-03    0.09       6.3  T
   7   -400.8874168 -0.362007E-07  0.741E-04    0.09       8.6  T
   8   -400.8874168 -0.221562E-07  0.352E-04    0.09      18.1  T
     SCC iter.                  ...        0 min,  0.562 sec
     gradient                   ...        0 min,  0.322 sec
 * total energy  :  -395.5507233 Eh     change       -0.1842986E-03 Eh
   gradient norm :     0.0076777 Eh/α   predicted    -0.1229185E-03 ( -33.30%)
   displ. norm   :     0.3712809 α      lambda       -0.3061801E-03
   maximum displ.:     0.2080884 α      in ANC's #1, #4, #8, ...

........................................................................
.............................. CYCLE   25 ..............................
........................................................................

 iter      E             dE          RMSdq      gap      omega  full diag
   1   -400.8878301 -0.400888E+03  0.192E-02    0.09       0.0  T
   2   -400.8878306 -0.473404E-06  0.116E-02    0.09       1.0  T
   3   -400.8878262  0.432215E-05  0.781E-03    0.09       1.0  T
   4   -400.8878294 -0.315673E-05  0.507E-03    0.09       1.3  T
   5   -400.8878320 -0.256297E-05  0.123E-03    0.09       5.2  T
   6   -400.8878320 -0.513523E-09  0.115E-03    0.09       5.5  T
   7   -400.8878321 -0.111558E-06  0.593E-04    0.09      10.7  T
   8   -400.8878321 -0.859382E-08  0.312E-04    0.09      20.4  T
     SCC iter.                  ...        0 min,  0.562 sec
     gradient                   ...        0 min,  0.323 sec
 * total energy  :  -395.5509846 Eh     change       -0.2612439E-03 Eh
   gradient norm :     0.0065634 Eh/α   predicted    -0.1741947E-03 ( -33.32%)
   displ. norm   :     0.4659083 α      lambda       -0.3922837E-03
   maximum displ.:     0.2791465 α      in ANC's #1, #4, #15, ...

........................................................................
.............................. CYCLE   26 ..............................
........................................................................

 iter      E             dE          RMSdq      gap      omega  full diag
   1   -400.8893489 -0.400889E+03  0.253E-02    0.09       0.0  T
   2   -400.8893499 -0.100232E-05  0.151E-02    0.09       1.0  T
   3   -400.8893449  0.500966E-05  0.937E-03    0.09       1.0  T
   4   -400.8893462 -0.130731E-05  0.684E-03    0.09       1.0  T
   5   -400.8893513 -0.506070E-05  0.176E-03    0.09       3.6  T
   6   -400.8893514 -0.116552E-06  0.139E-03    0.09       4.6  T
   7   -400.8893516 -0.155372E-06  0.699E-04    0.09       9.1  T
   8   -400.8893516 -0.798951E-08  0.358E-04    0.09      17.8  T
     SCC iter.                  ...        0 min,  0.634 sec
     gradient                   ...        0 min,  0.325 sec
 * total energy  :  -395.5513060 Eh     change       -0.3213697E-03 Eh
   gradient norm :     0.0032774 Eh/α   predicted    -0.2387222E-03 ( -25.72%)
   displ. norm   :     0.4847570 α      lambda       -0.3281651E-03
   maximum displ.:     0.3052977 α      in ANC's #1, #4, #15, ...

........................................................................
.............................. CYCLE   27 ..............................
........................................................................

 iter      E             dE          RMSdq      gap      omega  full diag
   1   -400.8902972 -0.400890E+03  0.276E-02    0.09       0.0  T
   2   -400.8902986 -0.146159E-05  0.163E-02    0.09       1.0  T
   3   -400.8902970  0.164114E-05  0.880E-03    0.09       1.0  T
   4   -400.8902966  0.428481E-06  0.486E-03    0.09       1.3  T
   5   -400.8902993 -0.275052E-05  0.173E-03    0.09       3.7  T
   6   -400.8902993 -0.185322E-07  0.142E-03    0.09       4.5  T
   7   -400.8902994 -0.945494E-07  0.933E-04    0.09       6.8  T
   8   -400.8902995 -0.409788E-07  0.415E-04    0.09      15.3  T
     SCC iter.                  ...        0 min,  0.569 sec
     gradient                   ...        0 min,  0.323 sec
 * total energy  :  -395.5515877 Eh     change       -0.2817475E-03 Eh
   gradient norm :     0.0029327 Eh/α   predicted    -0.2026433E-03 ( -28.08%)
   displ. norm   :     0.4882909 α      lambda       -0.2998026E-03
   maximum displ.:     0.3183672 α      in ANC's #1, #4, #15, ...

........................................................................
.............................. CYCLE   28 ..............................
........................................................................

 iter      E             dE          RMSdq      gap      omega  full diag
   1   -400.8908816 -0.400891E+03  0.292E-02    0.09       0.0  T
   2   -400.8908833 -0.171107E-05  0.172E-02    0.09       1.0  T
   3   -400.8908822  0.103719E-05  0.996E-03    0.09       1.0  T
   4   -400.8908814  0.833818E-06  0.454E-03    0.09       1.4  T
   5   -400.8908838 -0.236948E-05  0.204E-03    0.09       3.1  T
   6   -400.8908839 -0.152978E-06  0.144E-03    0.09       4.4  T
   7   -400.8908839 -0.767665E-08  0.109E-03    0.09       5.8  T
   8   -400.8908840 -0.370327E-07  0.461E-04    0.09      13.8  T
   9   -400.8908840 -0.151809E-07  0.268E-04    0.09      23.8  T
     SCC iter.                  ...        0 min,  0.633 sec
     gradient                   ...        0 min,  0.323 sec
 * total energy  :  -395.5518505 Eh     change       -0.2628323E-03 Eh
   gradient norm :     0.0032747 Eh/α   predicted    -0.1856421E-03 ( -29.37%)
   displ. norm   :     0.4521584 α      lambda       -0.2694248E-03
   maximum displ.:     0.3076313 α      in ANC's #1, #4, #15, ...

........................................................................
.............................. CYCLE   29 ..............................
........................................................................

 iter      E             dE          RMSdq      gap      omega  full diag
   1   -400.8918449 -0.400892E+03  0.281E-02    0.09       0.0  T
   2   -400.8918456 -0.750569E-06  0.167E-02    0.09       1.0  T
   3   -400.8918396  0.605963E-05  0.124E-02    0.09       1.0  T
   4   -400.8918395  0.430460E-07  0.772E-03    0.09       1.0  T
   5   -400.8918471 -0.753751E-05  0.213E-03    0.09       3.0  T
   6   -400.8918474 -0.379413E-06  0.115E-03    0.09       5.5  T
   7   -400.8918475 -0.944169E-08  0.754E-04    0.09       8.4  T
   8   -400.8918474  0.172661E-07  0.420E-04    0.09      15.1  T
     SCC iter.                  ...        0 min,  0.568 sec
     gradient                   ...        0 min,  0.324 sec
 * total energy  :  -395.5520895 Eh     change       -0.2389850E-03 Eh
   gradient norm :     0.0031938 Eh/α   predicted    -0.1622935E-03 ( -32.09%)
   displ. norm   :     0.4306754 α      lambda       -0.2509732E-03
   maximum displ.:     0.2985326 α      in ANC's #1, #4, #15, ...

........................................................................
.............................. CYCLE   30 ..............................
........................................................................

 iter      E             dE          RMSdq      gap      omega  full diag
   1   -400.8917223 -0.400892E+03  0.276E-02    0.09       0.0  T
   2   -400.8917225 -0.156517E-06  0.167E-02    0.09       1.0  T
   3   -400.8917141  0.837651E-05  0.135E-02    0.08       1.0  T
   4   -400.8917187 -0.464749E-05  0.726E-03    0.09       1.0  T
   5   -400.8917249 -0.619093E-05  0.247E-03    0.09       2.6  T
   6   -400.8917255 -0.585868E-06  0.116E-03    0.09       5.5  T
   7   -400.8917255 -0.315009E-08  0.727E-04    0.09       8.8  T
   8   -400.8917255  0.330742E-07  0.469E-04    0.09      13.6  T
     SCC iter.                  ...        0 min,  0.583 sec
     gradient                   ...        0 min,  0.325 sec
 * total energy  :  -395.5523181 Eh     change       -0.2285763E-03 Eh
   gradient norm :     0.0030470 Eh/α   predicted    -0.1487627E-03 ( -34.92%)
   displ. norm   :     0.4150010 α      lambda       -0.2767053E-03
   maximum displ.:     0.2974045 α      in ANC's #1, #6, #4, ...

........................................................................
.............................. CYCLE   31 ..............................
........................................................................

 iter      E             dE          RMSdq      gap      omega  full diag
   1   -400.8934519 -0.400893E+03  0.283E-02    0.08       0.0  T
   2   -400.8934509  0.909418E-06  0.176E-02    0.09       1.0  T
   3   -400.8934398  0.111423E-04  0.152E-02    0.08       1.0  T
   4   -400.8934478 -0.804165E-05  0.808E-03    0.09       1.0  T
   5   -400.8934556 -0.770655E-05  0.292E-03    0.09       2.2  T
   6   -400.8934566 -0.103020E-05  0.745E-04    0.09       8.5  T
   7   -400.8934566  0.338258E-08  0.450E-04    0.09      14.1  T
   8   -400.8934566  0.414929E-08  0.316E-04    0.09      20.1  T
     SCC iter.                  ...        0 min,  0.572 sec
     gradient                   ...        0 min,  0.323 sec
 * total energy  :  -395.5525600 Eh     change       -0.2419042E-03 Eh
   gradient norm :     0.0035032 Eh/α   predicted    -0.1621813E-03 ( -32.96%)
   displ. norm   :     0.4711786 α      lambda       -0.3053455E-03
   maximum displ.:     0.3342230 α      in ANC's #1, #6, #4, ...

........................................................................
.............................. CYCLE   32 ..............................
........................................................................

 iter      E             dE          RMSdq      gap      omega  full diag
   1   -400.8916374 -0.400892E+03  0.320E-02    0.08       0.0  T
   2   -400.8916369  0.449535E-06  0.198E-02    0.09       1.0  T
   3   -400.8916242  0.126607E-04  0.165E-02    0.08       1.0  T
   4   -400.8916379 -0.136600E-04  0.684E-03    0.09       1.0  T
   5   -400.8916425 -0.460142E-05  0.217E-03    0.08       2.9  T
   6   -400.8916427 -0.172602E-06  0.169E-03    0.08       3.8  T
   7   -400.8916428 -0.733802E-07  0.947E-04    0.08       6.7  T
   8   -400.8916428  0.385188E-08  0.575E-04    0.08      11.1  T
     SCC iter.                  ...        0 min,  0.565 sec
     gradient                   ...        0 min,  0.322 sec
 * total energy  :  -395.5528255 Eh     change       -0.2654889E-03 Eh
   gradient norm :     0.0031641 Eh/α   predicted    -0.1865679E-03 ( -29.73%)
   displ. norm   :     0.4488488 α      lambda       -0.2857876E-03
   maximum displ.:     0.3260612 α      in ANC's #1, #6, #3, ...

........................................................................
.............................. CYCLE   33 ..............................
........................................................................

 iter      E             dE          RMSdq      gap      omega  full diag
   1   -400.8915012 -0.400892E+03  0.296E-02    0.08       0.0  T
   2   -400.8915010  0.195650E-06  0.183E-02    0.08       1.0  T
   3   -400.8914901  0.108988E-04  0.149E-02    0.08       1.0  T
   4   -400.8915021 -0.119804E-04  0.652E-03    0.08       1.0  T
   5   -400.8915063 -0.417323E-05  0.138E-03    0.08       4.6  T
   6   -400.8915063 -0.957067E-08  0.126E-03    0.08       5.0  T
   7   -400.8915064 -0.944356E-07  0.834E-04    0.08       7.6  T
   8   -400.8915064 -0.405163E-08  0.461E-04    0.08      13.8  T
     SCC iter.                  ...        0 min,  0.566 sec
     gradient                   ...        0 min,  0.322 sec
 * total energy  :  -395.5530760 Eh     change       -0.2504953E-03 Eh
   gradient norm :     0.0027865 Eh/α   predicted    -0.1716838E-03 ( -31.46%)
   displ. norm   :     0.4273187 α      lambda       -0.2418273E-03
   maximum displ.:     0.3167801 α      in ANC's #1, #6, #3, ...

........................................................................
.............................. CYCLE   34 ..............................
........................................................................

 iter      E             dE          RMSdq      gap      omega  full diag
   1   -400.8916096 -0.400892E+03  0.266E-02    0.08       0.0  T
   2   -400.8916097 -0.124390E-06  0.162E-02    0.08       1.0  T
   3   -400.8915967  0.129849E-04  0.133E-02    0.08       1.0  T
   4   -400.8916033 -0.658201E-05  0.936E-03    0.08       1.0  T
   5   -400.8916127 -0.941750E-05  0.232E-03    0.08       2.7  T
   6   -400.8916133 -0.597695E-06  0.115E-03    0.08       5.5  T
   7   -400.8916133 -0.328372E-07  0.706E-04    0.08       9.0  T
   8   -400.8916133  0.218724E-07  0.468E-04    0.08      13.6  T
     SCC iter.                  ...        0 min,  0.567 sec
     gradient                   ...        0 min,  0.324 sec
 * total energy  :  -395.5532866 Eh     change       -0.2105741E-03 Eh
   gradient norm :     0.0023556 Eh/α   predicted    -0.1429967E-03 ( -32.09%)
   displ. norm   :     0.3593840 α      lambda       -0.1758141E-03
   maximum displ.:     0.2737205 α      in ANC's #1, #6, #3, ...

........................................................................
.............................. CYCLE   35 ..............................
........................................................................

 iter      E             dE          RMSdq      gap      omega  full diag
   1   -400.8914489 -0.400891E+03  0.207E-02    0.08       0.0  T
   2   -400.8914480  0.867163E-06  0.128E-02    0.08       1.0  T
   3   -400.8914314  0.166279E-04  0.131E-02    0.08       1.0  T
   4   -400.8914449 -0.134615E-04  0.805E-03    0.08       1.0  T
   5   -400.8914510 -0.616780E-05  0.142E-03    0.08       4.5  T
   6   -400.8914512 -0.205116E-06  0.919E-04    0.08       6.9  T
   7   -400.8914513 -0.324138E-07  0.547E-04    0.08      11.6  T
     SCC iter.                  ...        0 min,  0.493 sec
     gradient                   ...        0 min,  0.323 sec
 * total energy  :  -395.5534413 Eh     change       -0.1547462E-03 Eh
   gradient norm :     0.0018551 Eh/α   predicted    -0.9926192E-04 ( -35.86%)
   displ. norm   :     0.4071158 α      lambda       -0.1239868E-03
   maximum displ.:     0.3198848 α      in ANC's #1, #6, #3, ...

........................................................................
.............................. CYCLE   36 ..............................
........................................................................

 iter      E             dE          RMSdq      gap      omega  full diag
   1   -400.8921824 -0.400892E+03  0.211E-02    0.08       0.0  T
   2   -400.8921805  0.188994E-05  0.132E-02    0.08       1.0  T
   3   -400.8921596  0.209026E-04  0.149E-02    0.08       1.0  T
   4   -400.8921801 -0.205034E-04  0.755E-03    0.08       1.0  T
   5   -400.8921848 -0.469340E-05  0.115E-03    0.08       5.5  T
   6   -400.8921848  0.142282E-07  0.896E-04    0.08       7.1  T
   7   -400.8921849 -0.490788E-07  0.643E-04    0.08       9.9  T
     SCC iter.                  ...        0 min,  0.495 sec
     gradient                   ...        0 min,  0.322 sec
 * total energy  :  -395.5536010 Eh     change       -0.1596516E-03 Eh
   gradient norm :     0.0017994 Eh/α   predicted    -0.6656148E-04 ( -58.31%)
   displ. norm   :     0.3016635 α      lambda       -0.9137703E-04
   maximum displ.:     0.2382157 α      in ANC's #1, #3, #6, ...

........................................................................
.............................. CYCLE   37 ..............................
........................................................................

 iter      E             dE          RMSdq      gap      omega  full diag
   1   -400.8916527 -0.400892E+03  0.144E-02    0.08       0.0  T
   2   -400.8916519  0.791381E-06  0.916E-03    0.08       1.0  T
   3   -400.8916424  0.955154E-05  0.102E-02    0.08       1.0  T
   4   -400.8916514 -0.903709E-05  0.541E-03    0.08       1.2  T
   5   -400.8916538 -0.235664E-05  0.119E-03    0.08       5.3  T
   6   -400.8916538  0.178717E-07  0.942E-04    0.08       6.8  T
   7   -400.8916538 -0.141873E-07  0.595E-04    0.08      10.7  T
     SCC iter.                  ...        0 min,  0.494 sec
     gradient                   ...        0 min,  0.323 sec
 * total energy  :  -395.5537176 Eh     change       -0.1166875E-03 Eh
   gradient norm :     0.0022908 Eh/α   predicted    -0.4753708E-04 ( -59.26%)
   displ. norm   :     0.1930823 α      lambda       -0.9786597E-04
   maximum displ.:     0.1527814 α      in ANC's #1, #3, #6, ...

........................................................................
.............................. CYCLE   38 ..............................
........................................................................

 iter      E             dE          RMSdq      gap      omega  full diag
   1   -400.8925541 -0.400893E+03  0.740E-03    0.08       0.0  T
   2   -400.8925543 -0.168782E-06  0.428E-03    0.08       1.5  T
   3   -400.8925538  0.497628E-06  0.325E-03    0.08       2.0  T
   4   -400.8925538  0.410784E-07  0.276E-03    0.08       2.3  T
   5   -400.8925545 -0.693428E-06  0.720E-04    0.08       8.8  T
   6   -400.8925545 -0.343007E-07  0.422E-04    0.08      15.1  T
     SCC iter.                  ...        0 min,  0.425 sec
     gradient                   ...        0 min,  0.321 sec
 * total energy  :  -395.5538041 Eh     change       -0.8647932E-04 Eh
   gradient norm :     0.0018631 Eh/α   predicted    -0.5075968E-04 ( -41.30%)
   displ. norm   :     0.3229332 α      lambda       -0.9411830E-04
   maximum displ.:     0.2500019 α      in ANC's #1, #3, #6, ...

........................................................................
.............................. CYCLE   39 ..............................
........................................................................

 iter      E             dE          RMSdq      gap      omega  full diag
   1   -400.8933536 -0.400893E+03  0.116E-02    0.08       0.0  T
   2   -400.8933536 -0.486315E-07  0.692E-03    0.08       1.0  T
   3   -400.8933500  0.366535E-05  0.653E-03    0.08       1.0  T
   4   -400.8933527 -0.267129E-05  0.403E-03    0.08       1.6  T
   5   -400.8933541 -0.147863E-05  0.140E-03    0.08       4.6  T
   6   -400.8933543 -0.163088E-06  0.631E-04    0.08      10.1  T
   7   -400.8933543 -0.690790E-08  0.411E-04    0.08      15.5  T
     SCC iter.                  ...        0 min,  0.499 sec
     gradient                   ...        0 min,  0.323 sec
 * total energy  :  -395.5539223 Eh     change       -0.1181330E-03 Eh
   gradient norm :     0.0019031 Eh/α   predicted    -0.4924125E-04 ( -58.32%)
   displ. norm   :     0.3005339 α      lambda       -0.7164600E-04
   maximum displ.:     0.2323175 α      in ANC's #1, #3, #8, ...

........................................................................
.............................. CYCLE   40 ..............................
........................................................................

 iter      E             dE          RMSdq      gap      omega  full diag
   1   -400.8929965 -0.400893E+03  0.108E-02    0.08       0.0  T
   2   -400.8929966 -0.600552E-07  0.635E-03    0.08       1.0  T
   3   -400.8929932  0.336113E-05  0.603E-03    0.08       1.1  T
   4   -400.8929958 -0.255927E-05  0.308E-03    0.08       2.1  T
   5   -400.8929969 -0.109984E-05  0.612E-04    0.08      10.4  T
   6   -400.8929969 -0.215395E-07  0.409E-04    0.08      15.6  T
   7   -400.8929969 -0.993958E-08  0.196E-04    0.08      32.4  T
     SCC iter.                  ...        0 min,  0.496 sec
     gradient                   ...        0 min,  0.323 sec
 * total energy  :  -395.5540070 Eh     change       -0.8470381E-04 Eh
   gradient norm :     0.0018962 Eh/α   predicted    -0.3726256E-04 ( -56.01%)
   displ. norm   :     0.2358441 α      lambda       -0.4848494E-04
   maximum displ.:     0.1872890 α      in ANC's #1, #3, #6, ...

........................................................................
.............................. CYCLE   41 ..............................
........................................................................

 iter      E             dE          RMSdq      gap      omega  full diag
   1   -400.8929347 -0.400893E+03  0.923E-03    0.08       0.0  T
   2   -400.8929348 -0.153765E-06  0.569E-03    0.08       1.1  T
   3   -400.8929323  0.250502E-05  0.518E-03    0.08       1.2  T
   4   -400.8929346 -0.229481E-05  0.228E-03    0.08       2.8  T
   5   -400.8929350 -0.360309E-06  0.117E-03    0.08       5.4  T
   6   -400.8929350 -0.410887E-07  0.865E-04    0.08       7.4  T
   7   -400.8929350 -0.177495E-07  0.363E-04    0.08      17.5  T
     SCC iter.                  ...        0 min,  0.496 sec
     gradient                   ...        0 min,  0.322 sec
 * total energy  :  -395.5540624 Eh     change       -0.5540360E-04 Eh
   gradient norm :     0.0016135 Eh/α   predicted    -0.2484364E-04 ( -55.16%)
   displ. norm   :     0.1716135 α      lambda       -0.3321736E-04
   maximum displ.:     0.1400372 α      in ANC's #1, #3, #6, ...

........................................................................
.............................. CYCLE   42 ..............................
........................................................................

 iter      E             dE          RMSdq      gap      omega  full diag
   1   -400.8934393 -0.400893E+03  0.549E-03    0.08       0.0  T
   2   -400.8934391  0.224294E-06  0.369E-03    0.08       1.7  T
   3   -400.8934368  0.231074E-05  0.499E-03    0.08       1.3  T
   4   -400.8934395 -0.269708E-05  0.104E-03    0.08       6.1  T
   5   -400.8934396 -0.116829E-06  0.531E-04    0.08      12.0  T
   6   -400.8934397 -0.259773E-07  0.234E-04    0.08      27.2  T
     SCC iter.                  ...        0 min,  0.422 sec
     gradient                   ...        0 min,  0.361 sec
 * total energy  :  -395.5541060 Eh     change       -0.4368181E-04 Eh
   gradient norm :     0.0012586 Eh/α   predicted    -0.1682923E-04 ( -61.47%)
   displ. norm   :     0.1591935 α      lambda       -0.3420943E-04
   maximum displ.:     0.1264091 α      in ANC's #1, #3, #5, ...
 * RMSD in coord.:     0.4296530 α      energy gain  -0.4285231E-02 Eh

generating ANC from exact Hessian ...
Using Lindh-Hessian (1995)
 Shifting diagonal of input Hessian by    9.8870577526219677E-003
 Lowest  eigenvalues of input Hessian
    0.000000    0.000000    0.000000    0.000000    0.000000    0.000000
    0.010000    0.010191    0.010270    0.010445    0.010594    0.010892
    0.010958    0.012071    0.012568    0.013135    0.013717    0.013914
 Highest eigenvalues
    3.129258    3.202585    3.211769    3.246359    3.329312    3.334272


........................................................................
.............................. CYCLE   43 ..............................
........................................................................

 iter      E             dE          RMSdq      gap      omega  full diag
   1   -400.8932454 -0.400893E+03  0.563E-03    0.08       0.0  T
   2   -400.8932452  0.202047E-06  0.387E-03    0.08       1.6  T
   3   -400.8932444  0.840047E-06  0.395E-03    0.08       1.6  T
   4   -400.8932457 -0.129404E-05  0.164E-03    0.08       3.9  T
   5   -400.8932459 -0.171845E-06  0.914E-04    0.08       7.0  T
   6   -400.8932460 -0.845899E-07  0.409E-04    0.08      15.6  T
     SCC iter.                  ...        0 min,  0.437 sec
     gradient                   ...        0 min,  0.327 sec
 * total energy  :  -395.5541509 Eh     change       -0.4490411E-04 Eh
   gradient norm :     0.0011322 Eh/α   predicted     0.0000000E+00 (-100.00%)
   displ. norm   :     0.0533657 α      lambda       -0.1325614E-05
   maximum displ.:     0.0395068 α      in ANC's #1, #7, #5, ...

........................................................................
.............................. CYCLE   44 ..............................
........................................................................

 iter      E             dE          RMSdq      gap      omega  full diag
   1   -400.8929312 -0.400893E+03  0.326E-03    0.08       0.0  T
   2   -400.8929310  0.203368E-06  0.245E-03    0.08       2.6  T
   3   -400.8929305  0.504130E-06  0.283E-03    0.08       2.2  T
   4   -400.8929313 -0.792891E-06  0.907E-04    0.08       7.0  T
   5   -400.8929314 -0.842952E-07  0.479E-04    0.08      13.3  T
     SCC iter.                  ...        0 min,  0.368 sec
     gradient                   ...        0 min,  0.324 sec
 * total energy  :  -395.5541714 Eh     change       -0.2043477E-04 Eh
   gradient norm :     0.0004536 Eh/α   predicted    -0.7722716E-05 ( -62.21%)
   displ. norm   :     0.1360727 α      lambda       -0.3158901E-04
   maximum displ.:     0.0890015 α      in ANC's #1, #7, #5, ...

........................................................................
.............................. CYCLE   45 ..............................
........................................................................

 iter      E             dE          RMSdq      gap      omega  full diag
   1   -400.8925197 -0.400893E+03  0.610E-03    0.08       0.0  T
   2   -400.8925194  0.338178E-06  0.411E-03    0.08       1.5  T
   3   -400.8925176  0.178052E-05  0.480E-03    0.08       1.3  T
   4   -400.8925201 -0.248560E-05  0.184E-03    0.08       3.5  T
   5   -400.8925203 -0.232508E-06  0.826E-04    0.08       7.7  T
   6   -400.8925204 -0.819672E-07  0.295E-04    0.08      21.5  T
     SCC iter.                  ...        0 min,  0.431 sec
     gradient                   ...        0 min,  0.322 sec
 * total energy  :  -395.5542125 Eh     change       -0.4107245E-04 Eh
   gradient norm :     0.0013000 Eh/α   predicted    -0.1592915E-04 ( -61.22%)
   displ. norm   :     0.2090816 α      lambda       -0.3920556E-04
   maximum displ.:     0.1363608 α      in ANC's #1, #7, #5, ...

........................................................................
.............................. CYCLE   46 ..............................
........................................................................

 iter      E             dE          RMSdq      gap      omega  full diag
   1   -400.8923074 -0.400892E+03  0.898E-03    0.08       0.0  T
   2   -400.8923076 -0.203689E-06  0.556E-03    0.08       1.1  T
   3   -400.8923062  0.141661E-05  0.477E-03    0.08       1.3  T
   4   -400.8923080 -0.188260E-05  0.239E-03    0.08       2.7  T
   5   -400.8923085 -0.448341E-06  0.107E-03    0.08       5.9  T
   6   -400.8923086 -0.143190E-06  0.435E-04    0.08      14.6  T
   7   -400.8923087 -0.169840E-07  0.201E-04    0.08      31.7  T
     SCC iter.                  ...        0 min,  0.490 sec
     gradient                   ...        0 min,  0.322 sec
 * total energy  :  -395.5542611 Eh     change       -0.4864915E-04 Eh
   gradient norm :     0.0013119 Eh/α   predicted    -0.2005665E-04 ( -58.77%)
   displ. norm   :     0.2138854 α      lambda       -0.3136302E-04
   maximum displ.:     0.1434920 α      in ANC's #1, #7, #5, ...

........................................................................
.............................. CYCLE   47 ..............................
........................................................................

 iter      E             dE          RMSdq      gap      omega  full diag
   1   -400.8921746 -0.400892E+03  0.906E-03    0.08       0.0  T
   2   -400.8921748 -0.246763E-06  0.566E-03    0.08       1.1  T
   3   -400.8921732  0.159160E-05  0.491E-03    0.08       1.3  T
   4   -400.8921753 -0.205734E-05  0.178E-03    0.08       3.6  T
   5   -400.8921755 -0.245221E-06  0.721E-04    0.08       8.8  T
   6   -400.8921756 -0.284767E-07  0.493E-04    0.08      12.9  T
     SCC iter.                  ...        0 min,  0.420 sec
     gradient                   ...        0 min,  0.322 sec
 * total energy  :  -395.5542993 Eh     change       -0.3823256E-04 Eh
   gradient norm :     0.0010617 Eh/α   predicted    -0.1602222E-04 ( -58.09%)
   displ. norm   :     0.1718807 α      lambda       -0.2202891E-04
   maximum displ.:     0.1192956 α      in ANC's #1, #7, #5, ...

........................................................................
.............................. CYCLE   48 ..............................
........................................................................

 iter      E             dE          RMSdq      gap      omega  full diag
   1   -400.8922661 -0.400892E+03  0.661E-03    0.08       0.0  T
   2   -400.8922662 -0.958516E-07  0.416E-03    0.08       1.5  T
   3   -400.8922653  0.983745E-06  0.392E-03    0.08       1.6  T
   4   -400.8922663 -0.104654E-05  0.140E-03    0.08       4.5  T
   5   -400.8922665 -0.187929E-06  0.785E-04    0.08       8.1  T
   6   -400.8922666 -0.789374E-07  0.243E-04    0.08      26.2  T
     SCC iter.                  ...        0 min,  0.422 sec
     gradient                   ...        0 min,  0.323 sec
 * total energy  :  -395.5543278 Eh     change       -0.2847978E-04 Eh
   gradient norm :     0.0006219 Eh/α   predicted    -0.1115979E-04 ( -60.82%)
   displ. norm   :     0.1621602 α      lambda       -0.2146136E-04
   maximum displ.:     0.1144690 α      in ANC's #1, #7, #5, ...

........................................................................
.............................. CYCLE   49 ..............................
........................................................................

 iter      E             dE          RMSdq      gap      omega  full diag
   1   -400.8923739 -0.400892E+03  0.661E-03    0.08       0.0  T
   2   -400.8923739 -0.111405E-07  0.411E-03    0.08       1.5  T
   3   -400.8923717  0.222430E-05  0.449E-03    0.08       1.4  T
   4   -400.8923740 -0.226179E-05  0.112E-03    0.08       5.7  T
   5   -400.8923741 -0.124955E-06  0.667E-04    0.08       9.5  T
   6   -400.8923741 -0.317625E-07  0.400E-04    0.08      15.9  T
     SCC iter.                  ...        0 min,  0.427 sec
     gradient                   ...        0 min,  0.324 sec
 * total energy  :  -395.5543565 Eh     change       -0.2872072E-04 Eh
   gradient norm :     0.0004896 Eh/α   predicted    -0.1085688E-04 ( -62.20%)
   displ. norm   :     0.1903513 α      lambda       -0.2521074E-04
   maximum displ.:     0.1342879 α      in ANC's #1, #7, #5, ...

........................................................................
.............................. CYCLE   50 ..............................
........................................................................

 iter      E             dE          RMSdq      gap      omega  full diag
   1   -400.8923611 -0.400892E+03  0.785E-03    0.08       0.0  T
   2   -400.8923611 -0.227051E-07  0.474E-03    0.08       1.3  T
   3   -400.8923584  0.269572E-05  0.458E-03    0.08       1.4  T
   4   -400.8923611 -0.273604E-05  0.932E-04    0.08       6.8  T
   5   -400.8923612 -0.735477E-07  0.484E-04    0.08      13.1  T
   6   -400.8923612 -0.206384E-07  0.271E-04    0.08      23.5  T
     SCC iter.                  ...        0 min,  0.426 sec
     gradient                   ...        0 min,  0.323 sec
 * total energy  :  -395.5543891 Eh     change       -0.3253838E-04 Eh
   gradient norm :     0.0006267 Eh/α   predicted    -0.1280856E-04 ( -60.64%)
   displ. norm   :     0.2042084 α      lambda       -0.2425150E-04
   maximum displ.:     0.1454715 α      in ANC's #1, #6, #7, ...

........................................................................
.............................. CYCLE   51 ..............................
........................................................................

 iter      E             dE          RMSdq      gap      omega  full diag
   1   -400.8924547 -0.400892E+03  0.865E-03    0.08       0.0  T
   2   -400.8924548 -0.748428E-07  0.516E-03    0.08       1.2  T
   3   -400.8924539  0.904203E-06  0.239E-03    0.08       2.7  T
   4   -400.8924545 -0.617080E-06  0.183E-03    0.08       3.5  T
   5   -400.8924549 -0.339488E-06  0.440E-04    0.08      14.5  T
   6   -400.8924549 -0.778340E-08  0.370E-04    0.08      17.2  T
     SCC iter.                  ...        0 min,  0.425 sec
     gradient                   ...        0 min,  0.323 sec
 * total energy  :  -395.5544191 Eh     change       -0.3007225E-04 Eh
   gradient norm :     0.0006557 Eh/α   predicted    -0.1235374E-04 ( -58.92%)
   displ. norm   :     0.1759404 α      lambda       -0.1776391E-04
   maximum displ.:     0.1269454 α      in ANC's #1, #6, #16, ...

........................................................................
.............................. CYCLE   52 ..............................
........................................................................

 iter      E             dE          RMSdq      gap      omega  full diag
   1   -400.8924737 -0.400892E+03  0.762E-03    0.08       0.0  T
   2   -400.8924738 -0.779759E-07  0.454E-03    0.08       1.4  T
   3   -400.8924734  0.427021E-06  0.150E-03    0.08       4.2  T
   4   -400.8924737 -0.381496E-06  0.687E-04    0.08       9.3  T
   5   -400.8924738 -0.934200E-07  0.358E-04    0.08      17.8  T
     SCC iter.                  ...        0 min,  0.350 sec
     gradient                   ...        0 min,  0.321 sec
 * total energy  :  -395.5544413 Eh     change       -0.2215259E-04 Eh
   gradient norm :     0.0006505 Eh/α   predicted    -0.9004386E-05 ( -59.35%)
   displ. norm   :     0.1490975 α      lambda       -0.1454482E-04
   maximum displ.:     0.1086100 α      in ANC's #1, #6, #16, ...

........................................................................
.............................. CYCLE   53 ..............................
........................................................................

 iter      E             dE          RMSdq      gap      omega  full diag
   1   -400.8926979 -0.400893E+03  0.655E-03    0.08       0.0  T
   2   -400.8926980 -0.464416E-07  0.393E-03    0.08       1.6  T
   3   -400.8926972  0.716393E-06  0.190E-03    0.08       3.4  T
   4   -400.8926978 -0.592683E-06  0.119E-03    0.08       5.4  T
   5   -400.8926980 -0.166367E-06  0.480E-04    0.08      13.2  T
   6   -400.8926980 -0.245807E-07  0.246E-04    0.08      25.9  T
     SCC iter.                  ...        0 min,  0.417 sec
     gradient                   ...        0 min,  0.322 sec
 * total energy  :  -395.5544600 Eh     change       -0.1871781E-04 Eh
   gradient norm :     0.0006043 Eh/α   predicted    -0.7344673E-05 ( -60.76%)
   displ. norm   :     0.1547277 α      lambda       -0.1501036E-04
   maximum displ.:     0.1115695 α      in ANC's #1, #16, #6, ...

........................................................................
.............................. CYCLE   54 ..............................
........................................................................

 iter      E             dE          RMSdq      gap      omega  full diag
   1   -400.8926940 -0.400893E+03  0.733E-03    0.08       0.0  T
   2   -400.8926941 -0.655268E-07  0.442E-03    0.08       1.4  T
   3   -400.8926933  0.853876E-06  0.289E-03    0.08       2.2  T
   4   -400.8926937 -0.455233E-06  0.193E-03    0.08       3.3  T
   5   -400.8926942 -0.462327E-06  0.290E-04    0.08      21.9  T
   6   -400.8926942  0.579803E-11  0.248E-04    0.08      25.7  T
     SCC iter.                  ...        0 min,  0.425 sec
     gradient                   ...        0 min,  0.323 sec
 * total energy  :  -395.5544795 Eh     change       -0.1950888E-04 Eh
   gradient norm :     0.0006151 Eh/α   predicted    -0.7586652E-05 ( -61.11%)
   displ. norm   :     0.1767722 α      lambda       -0.1737827E-04
   maximum displ.:     0.1261060 α      in ANC's #1, #6, #16, ...

........................................................................
.............................. CYCLE   55 ..............................
........................................................................

 iter      E             dE          RMSdq      gap      omega  full diag
   1   -400.8927756 -0.400893E+03  0.919E-03    0.08       0.0  T
   2   -400.8927756 -0.818811E-07  0.552E-03    0.08       1.2  T
   3   -400.8927744  0.129474E-05  0.383E-03    0.08       1.7  T
   4   -400.8927746 -0.286619E-06  0.304E-03    0.08       2.1  T
   5   -400.8927758 -0.112690E-05  0.351E-04    0.08      18.1  T
   6   -400.8927758  0.200583E-08  0.321E-04    0.08      19.8  T
   7   -400.8927758 -0.633423E-08  0.182E-04    0.08      35.0  T
     SCC iter.                  ...        0 min,  0.495 sec
     gradient                   ...        0 min,  0.321 sec
 * total energy  :  -395.5545018 Eh     change       -0.2230884E-04 Eh
   gradient norm :     0.0006409 Eh/α   predicted    -0.8810317E-05 ( -60.51%)
   displ. norm   :     0.1978775 α      lambda       -0.1852601E-04
   maximum displ.:     0.1392209 α      in ANC's #1, #6, #16, ...

........................................................................
.............................. CYCLE   56 ..............................
........................................................................

 iter      E             dE          RMSdq      gap      omega  full diag
   1   -400.8926918 -0.400893E+03  0.115E-02    0.08       0.0  T
   2   -400.8926919 -0.141192E-06  0.691E-03    0.08       1.0  T
   3   -400.8926908  0.105311E-05  0.431E-03    0.08       1.5  T
   4   -400.8926910 -0.175658E-06  0.288E-03    0.08       2.2  T
   5   -400.8926920 -0.102559E-05  0.509E-04    0.08      12.5  T
   6   -400.8926921 -0.154198E-07  0.387E-04    0.08      16.5  T
   7   -400.8926921 -0.118474E-07  0.162E-04    0.08      39.3  T
     SCC iter.                  ...        0 min,  0.493 sec
     gradient                   ...        0 min,  0.320 sec
 * total energy  :  -395.5545248 Eh     change       -0.2294418E-04 Eh
   gradient norm :     0.0007122 Eh/α   predicted    -0.9425158E-05 ( -58.92%)
   displ. norm   :     0.1992269 α      lambda       -0.1715304E-04
   maximum displ.:     0.1392224 α      in ANC's #1, #6, #16, ...

........................................................................
.............................. CYCLE   57 ..............................
........................................................................

 iter      E             dE          RMSdq      gap      omega  full diag
   1   -400.8927693 -0.400893E+03  0.128E-02    0.08       0.0  T
   2   -400.8927695 -0.155247E-06  0.771E-03    0.08       1.0  T
   3   -400.8927682  0.134216E-05  0.534E-03    0.08       1.2  T
   4   -400.8927690 -0.860658E-06  0.268E-03    0.08       2.4  T
   5   -400.8927698 -0.762449E-06  0.623E-04    0.08      10.2  T
   6   -400.8927698 -0.198143E-07  0.477E-04    0.08      13.3  T
     SCC iter.                  ...        0 min,  0.419 sec
     gradient                   ...        0 min,  0.322 sec
 * total energy  :  -395.5545450 Eh     change       -0.2019960E-04 Eh
   gradient norm :     0.0005635 Eh/α   predicted    -0.8729046E-05 ( -56.79%)
   displ. norm   :     0.1743576 α      lambda       -0.1192181E-04
   maximum displ.:     0.1215956 α      in ANC's #1, #2, #6, ...

........................................................................
.............................. CYCLE   58 ..............................
........................................................................

 iter      E             dE          RMSdq      gap      omega  full diag
   1   -400.8926151 -0.400893E+03  0.120E-02    0.08       0.0  T
   2   -400.8926151 -0.310325E-07  0.730E-03    0.08       1.0  T
   3   -400.8926134  0.175571E-05  0.577E-03    0.08       1.1  T
   4   -400.8926146 -0.128734E-05  0.268E-03    0.08       2.4  T
   5   -400.8926154 -0.785626E-06  0.866E-04    0.08       7.3  T
   6   -400.8926155 -0.794316E-07  0.398E-04    0.08      16.0  T
     SCC iter.                  ...        0 min,  0.422 sec
     gradient                   ...        0 min,  0.321 sec
 * total energy  :  -395.5545582 Eh     change       -0.1318368E-04 Eh
   gradient norm :     0.0005237 Eh/α   predicted    -0.6042278E-05 ( -54.17%)
   displ. norm   :     0.1086213 α      lambda       -0.7070806E-05
   maximum displ.:     0.0768186 α      in ANC's #1, #2, #15, ...

........................................................................
.............................. CYCLE   59 ..............................
........................................................................

 iter      E             dE          RMSdq      gap      omega  full diag
   1   -400.8929523 -0.400893E+03  0.779E-03    0.08       0.0  T
   2   -400.8929523  0.969072E-08  0.482E-03    0.08       1.3  T
   3   -400.8929510  0.127643E-05  0.437E-03    0.08       1.5  T
   4   -400.8929519 -0.922390E-06  0.216E-03    0.08       2.9  T
   5   -400.8929525 -0.560645E-06  0.705E-04    0.08       9.0  T
   6   -400.8929526 -0.531760E-07  0.294E-04    0.08      21.7  T
     SCC iter.                  ...        0 min,  0.422 sec
     gradient                   ...        0 min,  0.321 sec
 * total energy  :  -395.5545653 Eh     change       -0.7103798E-05 Eh
   gradient norm :     0.0009009 Eh/α   predicted    -0.3554436E-05 ( -49.96%)
   displ. norm   :     0.1006370 α      lambda       -0.5964793E-05
   maximum displ.:     0.0708211 α      in ANC's #1, #2, #15, ...

........................................................................
.............................. CYCLE   60 ..............................
........................................................................

 iter      E             dE          RMSdq      gap      omega  full diag
   1   -400.8926461 -0.400893E+03  0.665E-03    0.08       0.0  T
   2   -400.8926462 -0.429109E-07  0.405E-03    0.08       1.6  T
   3   -400.8926454  0.776866E-06  0.344E-03    0.08       1.9  T
   4   -400.8926461 -0.653555E-06  0.150E-03    0.08       4.3  T
   5   -400.8926463 -0.217236E-06  0.644E-04    0.08       9.9  T
   6   -400.8926463 -0.262429E-07  0.418E-04    0.08      15.2  T
     SCC iter.                  ...        0 min,  0.472 sec
     gradient                   ...        0 min,  0.327 sec
 * total energy  :  -395.5545716 Eh     change       -0.6372136E-05 Eh
   gradient norm :     0.0005291 Eh/α   predicted    -0.2997386E-05 ( -52.96%)
   displ. norm   :     0.1032165 α      lambda        0.1226948E-05
   maximum displ.:     0.0726941 α      in ANC's #1, #2, #15, ...

........................................................................
.............................. CYCLE   61 ..............................
........................................................................

 iter      E             dE          RMSdq      gap      omega  full diag
   1   -400.8922404 -0.400892E+03  0.688E-03    0.08       0.0  T
   2   -400.8922404 -0.597528E-07  0.418E-03    0.08       1.5  T
   3   -400.8922396  0.804864E-06  0.350E-03    0.08       1.8  T
   4   -400.8922402 -0.626564E-06  0.167E-03    0.08       3.8  T
   5   -400.8922405 -0.276983E-06  0.707E-04    0.08       9.0  T
   6   -400.8922405 -0.237619E-07  0.505E-04    0.08      12.6  T
     SCC iter.                  ...        0 min,  0.435 sec
     gradient                   ...        0 min,  0.321 sec
 * total energy  :  -395.5545719 Eh     change       -0.2358995E-06 Eh
   gradient norm :     0.0017027 Eh/α   predicted     0.6149056E-06 (-360.66%)
   displ. norm   :     0.0220189 α      lambda       -0.5603747E-05
   maximum displ.:     0.0102418 α      in ANC's #2, #1, #6, ...

........................................................................
.............................. CYCLE   62 ..............................
........................................................................

 iter      E             dE          RMSdq      gap      omega  full diag
   1   -400.8925468 -0.400893E+03  0.279E-03    0.08       0.0  T
   2   -400.8925469 -0.404805E-07  0.176E-03    0.08       3.6  T
   3   -400.8925467  0.144313E-06  0.148E-03    0.08       4.3  T
   4   -400.8925469 -0.143314E-06  0.648E-04    0.08       9.8  T
   5   -400.8925469 -0.189325E-07  0.364E-04    0.08      17.5  T
     SCC iter.                  ...        0 min,  0.348 sec
     gradient                   ...        0 min,  0.320 sec
 * total energy  :  -395.5545780 Eh     change       -0.6158293E-05 Eh
   gradient norm :     0.0007247 Eh/α   predicted    -0.2804493E-05 ( -54.46%)
   displ. norm   :     0.0630218 α      lambda       -0.5844439E-05
   maximum displ.:     0.0411745 α      in ANC's #1, #2, #4, ...

........................................................................
.............................. CYCLE   63 ..............................
........................................................................

 iter      E             dE          RMSdq      gap      omega  full diag
   1   -400.8927501 -0.400893E+03  0.281E-03    0.08       0.0  T
   2   -400.8927502 -0.241251E-07  0.178E-03    0.08       3.6  T
   3   -400.8927499  0.224326E-06  0.184E-03    0.08       3.5  T
   4   -400.8927501 -0.195104E-06  0.833E-04    0.08       7.6  T
   5   -400.8927502 -0.569382E-07  0.465E-04    0.08      13.7  T
     SCC iter.                  ...        0 min,  0.347 sec
     gradient                   ...        0 min,  0.322 sec
 * total energy  :  -395.5545846 Eh     change       -0.6524417E-05 Eh
   gradient norm :     0.0004520 Eh/α   predicted    -0.2928161E-05 ( -55.12%)
   displ. norm   :     0.1010499 α      lambda       -0.5830318E-05
   maximum displ.:     0.0686427 α      in ANC's #1, #2, #4, ...

........................................................................
.............................. CYCLE   64 ..............................
........................................................................

 iter      E             dE          RMSdq      gap      omega  full diag
   1   -400.8929453 -0.400893E+03  0.315E-03    0.08       0.0  T
   2   -400.8929453 -0.135551E-07  0.189E-03    0.08       3.4  T
   3   -400.8929450  0.262905E-06  0.173E-03    0.08       3.7  T
   4   -400.8929452 -0.230684E-06  0.771E-04    0.08       8.2  T
   5   -400.8929453 -0.531910E-07  0.342E-04    0.08      18.6  T
     SCC iter.                  ...        0 min,  0.352 sec
     gradient                   ...        0 min,  0.320 sec
 * total energy  :  -395.5545915 Eh     change       -0.6962304E-05 Eh
   gradient norm :     0.0008234 Eh/α   predicted    -0.2930196E-05 ( -57.91%)
   displ. norm   :     0.1433850 α      lambda       -0.6752571E-05
   maximum displ.:     0.0987897 α      in ANC's #1, #2, #4, ...

........................................................................
.............................. CYCLE   65 ..............................
........................................................................

 iter      E             dE          RMSdq      gap      omega  full diag
   1   -400.8927155 -0.400893E+03  0.495E-03    0.08       0.0  T
   2   -400.8927156 -0.196598E-07  0.304E-03    0.08       2.1  T
   3   -400.8927149  0.649348E-06  0.265E-03    0.08       2.4  T
   4   -400.8927154 -0.525279E-06  0.130E-03    0.08       4.9  T
   5   -400.8927156 -0.165627E-06  0.487E-04    0.08      13.1  T
   6   -400.8927156 -0.154632E-07  0.317E-04    0.08      20.1  T
     SCC iter.                  ...        0 min,  0.424 sec
     gradient                   ...        0 min,  0.320 sec
 * total energy  :  -395.5545991 Eh     change       -0.7595710E-05 Eh
   gradient norm :     0.0005297 Eh/α   predicted    -0.3409191E-05 ( -55.12%)
   displ. norm   :     0.1097632 α      lambda       -0.3524604E-05
   maximum displ.:     0.0783315 α      in ANC's #1, #2, #16, ...

........................................................................
.............................. CYCLE   66 ..............................
........................................................................

 iter      E             dE          RMSdq      gap      omega  full diag
   1   -400.8926917 -0.400893E+03  0.430E-03    0.08       0.0  T
   2   -400.8926918 -0.349077E-07  0.265E-03    0.08       2.4  T
   3   -400.8926914  0.397929E-06  0.212E-03    0.08       3.0  T
   4   -400.8926916 -0.192782E-06  0.150E-03    0.08       4.3  T
   5   -400.8926918 -0.243257E-06  0.420E-04    0.08      15.2  T
   6   -400.8926918  0.224173E-08  0.321E-04    0.08      19.8  T
     SCC iter.                  ...        0 min,  0.422 sec
     gradient                   ...        0 min,  0.323 sec
 * total energy  :  -395.5546020 Eh     change       -0.2847423E-05 Eh
   gradient norm :     0.0003640 Eh/α   predicted    -0.1774105E-05 ( -37.69%)
   displ. norm   :     0.0209417 α      lambda       -0.7616120E-06
   maximum displ.:     0.0152334 α      in ANC's #1, #16, #2, ...

   *** GEOMETRY OPTIMIZATION CONVERGED AFTER 66 ITERATIONS ***

------------------------------------------------------------------------
 total energy gain   :        -0.1576974 Eh      -98.9566 kcal/mol
 total RMSD          :         0.9884049 a0        0.5230 Å
 total power (kW/mol):        -6.2732478 (step)   -6.8181 (real)
------------------------------------------------------------------------

 ANCopt (total)                0 d,  0 h,  1 min,  0.726 sec
 optimizer setup                ...        0 min,  0.001 sec (  0.001%)
 model hessian                  ...        0 min,  0.282 sec (  0.465%)
 ANC generation                 ...        0 min,  0.121 sec (  0.200%)
 coordinate transformation      ...        0 min,  0.014 sec (  0.023%)
 single point calculation       ...        1 min,  0.228 sec ( 99.179%)
 optimization log               ...        0 min,  0.024 sec (  0.039%)
 hessian update                 ...        0 min,  0.010 sec (  0.016%)
 rational function              ...        0 min,  0.037 sec (  0.060%)

================
 final structure:
================
247
 xtb: 6.7.1 (edcfbbe)
N            0.23543208203234       -1.76214025908195       -0.76526906024980
N           -0.03752851951339       -1.05526586612325        1.98243202822936
C           -0.32413214039644       -1.02017862492819       -3.06807180578934
C            0.10099973671577       -1.97073475753527       -2.11328730828741
C            0.51814789795725       -3.32024485503320       -2.44403347337295
H            0.50193198499481       -3.74608742747161       -3.44825566538610
C            0.93192733292701       -3.90157514697626       -1.27856539342872
H            1.32532100310155       -4.90740669658455       -1.12539943205746
C            0.71954606715271       -2.92921769355475       -0.22398950418245
C            0.88958753963577       -3.20352780992295        1.14812544812151
C            0.46616443302009       -2.31954304476177        2.16032401894585
C            0.37874096032974       -2.68225628958071        3.56245640024613
H            0.71191285788728       -3.63548220908370        3.97559594366195
C           -0.22601603336008       -1.64120886410078        4.20679480463771
H           -0.48529288267140       -1.54987239805921        5.26243797073187
C           -0.47027696008470       -0.61698477700941        3.20820949113942
C            1.43487234894954       -4.54671527682192        1.55552518496509
C            2.77203279674324       -4.68504195242101        1.99789945860728
C            3.28928538590692       -5.93486248426552        2.38458890564723
C            2.46555004802716       -7.06255025936327        2.32135047636037
H            2.86842339478226       -8.04179585182531        2.61178859754136
C            1.13964984856729       -6.96573977105971        1.89120104355498
C            0.62619083248091       -5.70833952141070        1.52063285749905
N           -0.78912425209550        1.61124420797631        1.21487534128142
N           -0.46957859740391        0.91573771914170       -1.51524787643890
C           -1.03905293910777        0.64217817088438        3.49179269347434
C           -1.12176846759032        1.68591272625989        2.54377720223285
C           -1.50664956119933        3.04394319752748        2.87260361300715
H           -1.83636416746472        3.37119081479829        3.85957093171876
C           -1.35521411115277        3.78600060461079        1.73409340330422
H           -1.54274237826950        4.85042345041370        1.58921038433505
C           -0.94232319240693        2.87288481349138        0.68868925893440
C           -0.80989516755061        3.22562132112863       -0.66791656568218
C           -0.66993546114760        2.26257794507103       -1.68592274018143
C           -0.86030079793759        2.55206625512001       -3.09331706872346
H           -1.03741919965070        3.54758901231465       -3.50188936373930
C           -0.82558862658409        1.35669538740186       -3.75290549278513
H           -0.96453605302950        1.16190607464942       -4.81717873888966
C           -0.54752779325291        0.33762975948678       -2.75838001798264
C           -0.88797860988406        4.67254482095855       -1.07262018659190
C            0.29704503902936        5.36681534503363       -1.41972201784463
C            0.25732912556730        6.70378104583695       -1.85550986438215
C           -0.97399124001011        7.36335190918956       -1.91780776971154
H           -1.00908871414926        8.40959298466698       -2.24891792049224
C           -2.16192884224707        6.71363625748681       -1.56965967940164
C           -2.11751318160165        5.36638734920343       -1.16420252574542
Fe          -0.16883663768022       -0.04131738310193        0.23278813683808
Cl          -2.39252832023227       -0.68349684167684        0.19134069774279
C           -1.63933423449172        0.86734054582718        4.85804773359194
C           -0.88756144893777        1.42501419622832        5.92654059471744
C           -2.99866228875282        0.50644487503151        5.07478182858648
C           -1.48162471905473        1.62401937569204        7.18900939185150
N            0.46182328539718        1.78029141020666        5.66852721702001
C           -3.58898981148894        0.73030342275453        6.33726311945747
N           -3.71046996324697       -0.09889834190715        4.01192162329677
H           -0.88121036786081        2.04104564160253        8.00202570462345
C           -2.82450380344672        1.27945549005216        7.37004841070407
C            1.42580186160497        2.20680013178198        6.55397098609206
H            0.74486810807001        1.66990433304413        4.69325736486579
H           -4.64026793450854        0.46790257805072        6.48025573054978
C           -5.03789902591282       -0.47888967362874        3.98126476795238
H           -3.17015921685833       -0.28078672222399        3.16076700595497
H           -3.28964727087436        1.44266506899444        8.35079594400988
O            1.26682125104067        2.32849401494222        7.76370259692971
C            2.75799690851111        2.52853154022913        5.90950951530594
O           -5.84840340516760       -0.23750006308423        4.87063341418401
C           -5.43288486486673       -1.24766010042238        2.74313755900423
C            4.00929749032931        2.15801158056406        6.66424618201353
H            2.82445567188423        2.51738524990478        4.81619868202398
C            3.58447078734475        3.60599439559903        6.62173747531931
C           -6.78063797695354       -0.96168845378504        2.12896222106493
H           -4.64071929917682       -1.56457168460901        2.05505858849137
C           -6.60399881586001       -2.21811566219577        2.94814917867448
H            3.88161278049038        1.64632241053124        7.62130393291044
H            4.88031473619392        1.87550017094832        6.06954435272529
H            3.13777348233551        4.01508875383763        7.53136329717037
C            4.36712244157254        4.56579445905042        5.78294244490640
H           -7.37993857199676       -0.17368591568274        2.59376400350717
H           -6.85471504363273       -1.06287190748026        1.04269249569976
H           -7.03548918040144       -2.21313926517570        3.95394120677708
C           -6.56865714678594       -3.54615949828949        2.26943786820408
O            4.44984514157378        5.76854792006640        6.37694455469981
O            4.87946504215281        4.29547909229206        4.71359342963078
O           -7.18374348174846       -4.48509231030942        3.02206758534095
O           -6.07055099628437       -3.77253767754313        1.18509517387504
C            5.19480527789618        6.83010741788712        5.70921332111710
C           -7.26119258437242       -5.84100935755099        2.49926813349893
C            4.21914308346813        7.69449289849473        4.89861668718806
C            5.93826040353987        7.60259609630098        6.79777894179036
H            5.90542729719326        6.33773957226676        5.02158932386802
C           -7.26620248125122       -6.77744969658570        3.70861444487482
C           -8.50564853416213       -5.97225599328287        1.61401274384255
H           -6.35560870506162       -6.00356368609709        1.88437135199400
H            3.71897938239348        7.08800166630970        4.12590625310732
H            3.45694686176583        8.13212047966038        5.55692648899587
H            4.76370640364047        8.51132744170495        4.40528531582232
H            6.61024418138123        6.93907437121664        7.35709586720930
H            6.54321135680522        8.40511777624355        6.35490592444675
H            5.23553268339764        8.05343245202424        7.51006562373942
H           -6.36008174234094       -6.63194878607092        4.31091653306733
H           -8.14436124423019       -6.58939231045913        4.34454855280761
H           -7.30555754555004       -7.82505723215198        3.37993282697547
H           -8.44388535526787       -5.27820410979146        0.76475520443171
H           -8.58977564944964       -6.99566059505208        1.22265152880336
H           -9.41766626249313       -5.75317112880577        2.18995399735046
C           -0.54177694813122       -1.50496138450701       -4.47975325785017
C            0.43110461608265       -1.30281340388886       -5.49595396119796
C           -1.73709216699536       -2.20955959258839       -4.79161682621846
C            0.24449773090740       -1.85214074157674       -6.77993270891360
N            1.56511835537180       -0.51640363754218       -5.16913170695488
C           -1.91202855884264       -2.76303168500987       -6.07774827176779
N           -2.73653623903134       -2.28668716326970       -3.79362041536200
H            1.00974644615138       -1.69081707581136       -7.54451504441216
C           -0.91829984904623       -2.58346748587763       -7.04470549518568
C            2.51773149127963        0.01932608485172       -6.00781963714804
H            1.56826319351746       -0.17774971205461       -4.20551799396500
H           -2.82659198444930       -3.32298704743880       -6.29079058468248
C           -3.96213568832030       -2.91949411946215       -3.84962885833051
H           -2.53753950435211       -1.76407458739806       -2.93630263238733
H           -1.05966774411985       -3.01806716458504       -8.04283053856852
O            2.64244366763949       -0.25056000016575       -7.19659381638063
C            3.40477069770662        1.04532615781549       -5.33542167568276
O           -4.32517003029789       -3.65006459682470       -4.76610018013553
C           -4.85736985001198       -2.61875865878913       -2.67214755191561
C            3.72572526039313        2.28735537245536       -6.13024987938070
H            3.32764757195014        1.16595953776856       -4.24921113995967
C            4.80095378061580        1.24655115651965       -5.92402390730172
C           -5.76015483480158       -3.71102329856481       -2.15916002775668
H           -4.51111288411023       -1.88711581657548       -1.93268990178295
C           -6.35918832629852       -2.60682451175327       -2.99613462356610
H            3.30365393647187        2.35310758640644       -7.13662473264956
H            3.82160859362754        3.22469656614970       -5.57713582751881
H            5.05940075415545        0.61771198640122       -6.78005277715822
C            5.91159917073137        1.57016668535777       -4.97389043845068
H           -5.68308337832642       -4.68484782713126       -2.64986034736224
H           -5.95702202858318       -3.71125669144569       -1.08376201779178
H           -6.61130821854964       -2.85404044330880       -4.03195003150421
C           -7.21624440627320       -1.56478753236032       -2.35741298979282
O            7.08838802822044        1.11306957861326       -5.43240762233917
O            5.77173160990510        2.18408397011215       -3.93249923963255
O           -8.20249193785972       -1.17455946888637       -3.19342523973238
O           -7.07008832302687       -1.12242081755627       -1.23569974644837
C            8.28928156130834        1.36243023958133       -4.64399847228822
C           -9.13879044065831       -0.16365967441203       -2.72348790679306
C            9.20707197719801        0.15544206061134       -4.84393326769822
C            8.90945485406917        2.69084541876228       -5.08693454625769
H            7.96985681944364        1.43955010320840       -3.58715042996175
C           -8.57409374486328        1.23253446455381       -3.01523229123652
C          -10.47135340658212       -0.44508080888133       -3.41675888966357
H           -9.23140863186642       -0.29479400446261       -1.63003252424315
H            8.69971617715464       -0.76543742457801       -4.52921841281183
H            9.49458686245515        0.05527225819300       -5.90161054080545
H           10.12585120897357        0.27556713307001       -4.25404788912688
H            8.20681078129958        3.51729859271832       -4.92013119329128
H            9.82462310859882        2.89573831203730       -4.51460504419661
H            9.17725471897863        2.65837162323400       -6.15432725080513
H           -7.61964853196525        1.37812408699299       -2.48377068580315
H           -8.40698010056249        1.36287754778502       -4.09339761727957
H           -9.28098684368585        2.00390380829359       -2.67939197854984
H          -10.82320509175423       -1.46077502183603       -3.18727462594133
H          -11.23721955360679        0.26700898958354       -3.08126450491798
H          -10.37358762962179       -0.35382969382357       -4.50648850467008
H            4.32738911370696       -6.01837472902020        2.72697082811647
H            0.50227986094535       -7.85594073782500        1.83820435691872
H            1.18101380685208        7.21512492951935       -2.14997024981762
H           -3.12208715508566        7.24108306308276       -1.61475398606352
O            3.51431147888718       -3.52589947468444        2.02788726525549
O           -0.65720822468705       -5.52633143125104        1.06129004092033
O            1.45104637820558        4.61663977339380       -1.37252696897691
O           -3.23315072956614        4.65859622344536       -0.78124445225688
C            4.84461503058625       -3.55726803239100        2.44529625552646
C            5.86221409046742       -3.84213430835524        1.52423686794026
C            5.15304698603249       -3.22397654884592        3.77088200157184
C            7.19889486084580       -3.79968172218946        1.94111671513640
H            5.59627544583209       -4.08923071180077        0.49121896665297
C            6.49368594110790       -3.18361392030620        4.17637116953224
H            4.33627981298314       -2.99620572736884        4.46346324959585
C            7.51817065858778       -3.47282494589608        3.26550217461807
H            7.99775772979389       -4.02119780083411        1.22419390659268
H            6.74046208762969       -2.92333042389186        5.21181091405329
H            8.56762886431703       -3.44144683403016        3.58745945225723
C           -1.62941326530668       -6.50813165783185        1.22246632039404
C           -2.02611864167142       -6.94429045402178        2.49485648991544
C           -2.26512904098288       -6.99438118922128        0.07170115631687
C           -3.05216027274495       -7.89042010221949        2.60754087522032
H           -1.53196348766905       -6.53669185348601        3.38324945644443
C           -3.29584836467463       -7.93384153740305        0.19877841135125
H           -1.94480022719280       -6.61976092781208       -0.90583824864558
C           -3.68798699468951       -8.38990577335179        1.46363981897534
H           -3.36215218667344       -8.23666861406393        3.59970252079580
H           -3.79499222895712       -8.31405982688986       -0.69909558593438
H           -4.49097237138444       -9.13267837957184        1.55904335845518
C            2.71878211669992        5.16672147236952       -1.25227970170157
C            3.01428756316728        6.23504576495198       -0.38989218061486
C            3.74621812537495        4.53218714242011       -1.96941636181894
C            4.33880024911120        6.67634930002409       -0.27052371269451
H            2.21343301588888        6.71192677213068        0.18575341669915
C            5.06546481595969        4.97513727829633       -1.83342153950001
H            3.50284077904077        3.68703985441173       -2.62110733353037
C            5.36736679005950        6.05377882537514       -0.98992489972690
H            4.56858661472565        7.51427819263033        0.39981458068942
H            5.85079231246712        4.45935965171279       -2.39699791737908
H            6.40140408840491        6.40801682472970       -0.88795793170254
C           -4.51271770329364        5.05171484328468       -1.15593677375592
C           -4.86233181082607        5.25136783332033       -2.49934847674956
C           -5.47978793152059        5.15735876604916       -0.14584676747687
C           -6.18483237760551        5.57770159996718       -2.82387522916423
H           -4.10053594456464        5.14341290141714       -3.27862239624089
C           -6.80027546304635        5.47677558084791       -0.48512813696081
H           -5.17975951845091        4.97813732218734        0.89142519278004
C           -7.15664812670974        5.69416589709721       -1.82194410789691
H           -6.46093306384796        5.73410330315675       -3.87235559304924
H           -7.55714921618097        5.55804936523497        0.30246910918318
H           -8.19211709747254        5.94884434553825       -2.08399474191989
N            1.38456713163678        0.45365729264912        0.29546512895150
C            2.54284457871932        1.02302204515382        0.39396507194290
C            5.53008650342506       -5.10625101976512       -3.68096419583438
Si           4.79933636441444       -3.34043807321265       -3.76927589034116
C            6.15890563188451       -2.15196311991401       -4.38284866077828
C            3.31380711501806       -3.33275964706297       -4.96395006003643
C            4.31357918060817       -2.84308304134302       -1.98152015313568
C            3.97545074561881       -1.37483212738351       -1.74310702605750
C            3.76017009976349       -1.11630193532369       -0.24148622019031
C            3.76878680316289        0.33386553017694        0.12822645316824
C            4.96186765849786        1.01652317554123        0.25292407627647
C            5.01339740055246        2.34415124823045        0.64760537749494
C            3.83005500989997        3.01632661731485        0.93860497987093
C            2.62089443143033        2.38725816925366        0.81122325036912
H            4.80332991387052       -5.81331814059339       -3.29198637458029
H            5.82766318728879       -5.45419066969740       -4.66567138212244
H            6.40645258607524       -5.15221982949485       -3.04132340725572
H            6.50697168435848       -2.42764159061217       -5.37323320259945
H            5.79481057608853       -1.13069927094788       -4.44027712402896
H            7.01558997791313       -2.16225463497797       -3.71545260562157
H            2.41266692463733       -2.98387875874829       -4.47226506183360
H            3.11186281486195       -4.32815147675717       -5.34759054622715
H            3.48996446892053       -2.68733567986617       -5.81861866091447
H            5.15730790233266       -3.09466019195508       -1.33667993647413
H            3.47344027342640       -3.45069193244619       -1.64168114614812
H            3.07084539040904       -1.10219685817233       -2.29103695151755
H            4.78932396009778       -0.74196782827090       -2.10300662025512
H            4.57030573541622       -1.60594922523062        0.30510366867225
H            2.81791839135282       -1.56612521508137        0.07270273607914
H            5.88029136282327        0.48405718978507        0.05145050479111
H            5.95979374022877        2.85093637954691        0.74332365176267
H            3.86656001787291        4.04216919118539        1.27105212051145
H            1.69344935114993        2.89569026926277        1.01981278308226

 Bond Distances (Angstroems)
 ---------------------------
N1-C4=1.3707         N1-C9=1.3746         N1-Fe47=2.0300       N2-C11=1.3725        N2-C16=1.3718        N2-Fe47=2.0265       
C3-C4=1.4128         C3-C39=1.4105        C3-C106=1.5084       C4-N1=1.3707         C4-C3=1.4128         C4-C5=1.4507         
C5-C4=1.4507         C5-H6=1.0909         C5-C7=1.3666         H6-C5=1.0909         C7-C5=1.3666         C7-H8=1.0908         
C7-C9=1.4501         H8-C7=1.0908         C9-N1=1.3746         C9-C7=1.4501         C9-C10=1.4096        C10-C9=1.4096        
C10-C11=1.4090       C10-C17=1.5058       C11-N2=1.3725        C11-C10=1.4090       C11-C12=1.4509       C12-C11=1.4509       
C12-H13=1.0910       C12-C14=1.3655       H13-C12=1.0910       C14-C12=1.3655       C14-H15=1.0908       C14-C16=1.4512       
H15-C14=1.0908       C16-N2=1.3718        C16-C14=1.4512       C16-C26=1.4105       C17-C10=1.5058       C17-C18=1.4152       
C17-C23=1.4158       C18-C17=1.4152       C18-C19=1.4068       C18-O167=1.3768      C19-C18=1.4068       C19-C20=1.3979       
C19-H163=1.0963      C20-C19=1.3979       C20-H21=1.0980       C20-C22=1.3973       H21-C20=1.0980       C22-C20=1.3973       
C22-C23=1.4078       C22-H164=1.0961      C23-C17=1.4158       C23-C22=1.4078       C23-O168=1.3752      N24-C27=1.3719       
N24-C32=1.3755       N24-Fe47=2.0200      N25-C34=1.3723       N25-C39=1.3732       N25-Fe47=2.0154      C26-C16=1.4105       
C26-C27=1.4124       C26-C49=1.5092       C27-N24=1.3719       C27-C26=1.4124       C27-C28=1.4493       C28-C27=1.4493       
C28-H29=1.0908       C28-C30=1.3674       H29-C28=1.0908       C30-C28=1.3674       C30-H31=1.0905       C30-C32=1.4481       
H31-C30=1.0905       C32-N24=1.3755       C32-C30=1.4481       C32-C33=1.4080       C33-C32=1.4080       C33-C34=1.4083       
C33-C40=1.5045       C34-N25=1.3723       C34-C33=1.4083       C34-C35=1.4494       C35-C34=1.4494       C35-H36=1.0906       
C35-C37=1.3657       H36-C35=1.0906       C37-C35=1.3657       C37-H38=1.0908       C37-C39=1.4508       H38-C37=1.0908       
C39-C3=1.4105        C39-N25=1.3732       C39-C37=1.4508       C40-C33=1.5045       C40-C41=1.4166       C40-C46=1.4148       
C41-C40=1.4166       C41-C42=1.4068       C41-O169=1.3772      C42-C41=1.4068       C42-C43=1.3982       C42-H165=1.0961      
C43-C42=1.3982       C43-H44=1.0979       C43-C45=1.3980       H44-C43=1.0979       C45-C43=1.3980       C45-C46=1.4076       
C45-H166=1.0964      C46-C40=1.4148       C46-C45=1.4076       C46-O170=1.3756      Fe47-N1=2.0300       Fe47-N2=2.0265       
Fe47-N24=2.0200      Fe47-N25=2.0154      Fe47-Cl48=2.3149     Fe47-N215=1.6316     Cl48-Fe47=2.3149     C49-C26=1.5092       
C49-C50=1.4205       C49-C51=1.4230       C50-C49=1.4205       C50-C52=1.4094       C50-N53=1.4190       C51-C49=1.4230       
C51-C54=1.4115       C51-N55=1.4152       C52-C50=1.4094       C52-H56=1.0933       C52-C57=1.3982       N53-C50=1.4190       
N53-C58=1.3767       N53-H59=1.0215       C54-C51=1.4115       C54-C57=1.3974       C54-H60=1.0929       N55-C51=1.4152       
N55-C61=1.3811       N55-H62=1.0244       H56-C52=1.0933       C57-C52=1.3982       C57-C54=1.3974       C57-H63=1.0977       
C58-N53=1.3767       C58-O64=1.2262       C58-C65=1.5145       H59-N53=1.0215       H60-C54=1.0929       C61-N55=1.3811       
C61-O66=1.2273       C61-C67=1.5100       H62-N55=1.0244       H63-C57=1.0977       O64-C58=1.2262       C65-C58=1.5145       
C65-C68=1.5075       C65-H69=1.0954       C65-C70=1.5334       O66-C61=1.2273       C67-C61=1.5100       C67-C71=1.5085       
C67-H72=1.0961       C67-C73=1.5347       C68-C65=1.5075       C68-C70=1.5096       C68-H74=1.0927       C68-H75=1.0919       
H69-C65=1.0954       C70-C65=1.5334       C70-C68=1.5096       C70-H76=1.0928       C70-C77=1.4958       C71-C67=1.5085       
C71-C73=1.5103       C71-H78=1.0937       C71-H79=1.0935       H72-C67=1.0961       C73-C67=1.5347       C73-C71=1.5103       
C73-H80=1.0945       C73-C81=1.4918       H74-C68=1.0927       H75-C68=1.0919       H76-C70=1.0928       C77-C70=1.4958       
C77-O82=1.3440       C77-O83=1.2162       H78-C71=1.0937       H79-C71=1.0935       H80-C73=1.0945       C81-C73=1.4918       
C81-O84=1.3514       C81-O85=1.2146       O82-C77=1.3440       O82-C86=1.4587       O83-C77=1.2162       O84-C81=1.3514       
O84-C87=1.4553       O85-C81=1.2146       C86-O82=1.4587       C86-C88=1.5350       C86-C89=1.5279       C86-H90=1.1046       
C87-O84=1.4553       C87-C91=1.5295       C87-C92=1.5328       C87-H93=1.1066       C88-C86=1.5350       C88-H94=1.1023       
C88-H95=1.0981       C88-H96=1.0987       C89-C86=1.5279       C89-H97=1.0976       C89-H98=1.0982       C89-H99=1.0975       
H90-C86=1.1046       C91-C87=1.5295       C91-H100=1.0977      C91-H101=1.1004      C91-H102=1.0987      C92-C87=1.5328       
C92-H103=1.0985      C92-H104=1.0989      C92-H105=1.1007      H93-C87=1.1066       H94-C88=1.1023       H95-C88=1.0981       
H96-C88=1.0987       H97-C89=1.0976       H98-C89=1.0982       H99-C89=1.0975       H100-C91=1.0977      H101-C91=1.1004      
H102-C91=1.0987      H103-C92=1.0985      H104-C92=1.0989      H105-C92=1.1007      C106-C3=1.5084       C106-C107=1.4213     
C106-C108=1.4221     C107-C106=1.4213     C107-C109=1.4090     C107-N110=1.4182     C108-C106=1.4221     C108-C111=1.4111     
C108-N112=1.4145     C109-C107=1.4090     C109-H113=1.0937     C109-C114=1.3989     N110-C107=1.4182     N110-C115=1.3776     
N110-H116=1.0214     C111-C108=1.4111     C111-C114=1.3981     C111-H117=1.0933     N112-C108=1.4145     N112-C118=1.3805     
N112-H119=1.0236     H113-C109=1.0937     C114-C109=1.3989     C114-C111=1.3981     C114-H120=1.0978     C115-N110=1.3776     
C115-O121=1.2254     C115-C122=1.5138     H116-N110=1.0214     H117-C111=1.0933     C118-N112=1.3805     C118-O123=1.2270     
C118-C124=1.5094     H119-N112=1.0236     H120-C114=1.0978     O121-C115=1.2254     C122-C115=1.5138     C122-C125=1.5091     
C122-H126=1.0956     C122-C127=1.5285     O123-C118=1.2270     C124-C118=1.5094     C124-C128=1.5071     C124-H129=1.0964     
C124-C130=1.5364     C125-C122=1.5091     C125-C127=1.5106     C125-H131=1.0933     C125-H132=1.0926     H126-C122=1.0956     
C127-C122=1.5285     C127-C125=1.5106     C127-H133=1.0932     C127-C134=1.4970     C128-C124=1.5071     C128-C130=1.5095     
C128-H135=1.0932     C128-H136=1.0933     H129-C124=1.0964     C130-C124=1.5364     C130-C128=1.5095     C130-H137=1.0943     
C130-C138=1.4928     H131-C125=1.0933     H132-C125=1.0926     H133-C127=1.0932     C134-C127=1.4970     C134-O139=1.3431     
C134-O140=1.2169     H135-C128=1.0932     H136-C128=1.0933     H137-C130=1.0943     C138-C130=1.4928     C138-O141=1.3505     
C138-O142=1.2146     O139-C134=1.3431     O139-C143=1.4581     O140-C134=1.2169     O141-C138=1.3505     O141-C144=1.4558     
O142-C138=1.2146     C143-O139=1.4581     C143-C145=1.5294     C143-C146=1.5315     C143-H147=1.1068     C144-O141=1.4558     
C144-C148=1.5341     C144-C149=1.5282     C144-H150=1.1052     C145-C143=1.5294     C145-H151=1.0975     C145-H152=1.1006     
C145-H153=1.0984     C146-C143=1.5315     C146-H154=1.0975     C146-H155=1.0987     C146-H156=1.1010     H147-C143=1.1068     
C148-C144=1.5341     C148-H157=1.1021     C148-H158=1.0988     C148-H159=1.0989     C149-C144=1.5282     C149-H160=1.0991     
C149-H161=1.0983     C149-H162=1.0979     H150-C144=1.1052     H151-C145=1.0975     H152-C145=1.1006     H153-C145=1.0984     
H154-C146=1.0975     H155-C146=1.0987     H156-C146=1.1010     H157-C148=1.1021     H158-C148=1.0988     H159-C148=1.0989     
H160-C149=1.0991     H161-C149=1.0983     H162-C149=1.0979     H163-C19=1.0963      H164-C22=1.0961      H165-C42=1.0961      
H166-C45=1.0964      O167-C18=1.3768      O167-C171=1.3946     O168-C23=1.3752      O168-C182=1.3911     O169-C41=1.3772      
O169-C193=1.3872     O170-C46=1.3756      O170-C204=1.3900     C171-O167=1.3946     C171-C172=1.4018     C171-C173=1.4012     
C172-C171=1.4018     C172-C174=1.4008     C172-H175=1.0949     C173-C171=1.4012     C173-C176=1.4012     C173-H177=1.0948     
C174-C172=1.4008     C174-C178=1.4010     C174-H179=1.0960     H175-C172=1.0949     C176-C173=1.4012     C176-C178=1.4010     
C176-H180=1.0958     H177-C173=1.0948     C178-C174=1.4010     C178-C176=1.4010     C178-H181=1.0982     H179-C174=1.0960     
H180-C176=1.0958     H181-C178=1.0982     C182-O168=1.3911     C182-C183=1.4024     C182-C184=1.4017     C183-C182=1.4024     
C183-C185=1.4002     C183-H186=1.0952     C184-C182=1.4017     C184-C187=1.4004     C184-H188=1.0948     C185-C183=1.4002     
C185-C189=1.4008     C185-H190=1.0956     H186-C183=1.0952     C187-C184=1.4004     C187-C189=1.4006     C187-H191=1.0954     
H188-C184=1.0948     C189-C185=1.4008     C189-C187=1.4006     C189-H192=1.0980     H190-C185=1.0956     H191-C187=1.0954     
H192-C189=1.0980     C193-O169=1.3872     C193-C194=1.4044     C193-C195=1.4045     C194-C193=1.4044     C194-C196=1.4012     
C194-H197=1.0955     C195-C193=1.4045     C195-C198=1.3983     C195-H199=1.0946     C196-C194=1.4012     C196-C200=1.4011     
C196-H201=1.0974     H197-C194=1.0955     C198-C195=1.3983     C198-C200=1.4022     C198-H202=1.0956     H199-C195=1.0946     
C200-C196=1.4011     C200-C198=1.4022     C200-H203=1.0978     H201-C196=1.0974     H202-C198=1.0956     H203-C200=1.0978     
C204-O170=1.3900     C204-C205=1.4024     C204-C206=1.4024     C205-C204=1.4024     C205-C207=1.4003     C205-H208=1.0951     
C206-C204=1.4024     C206-C209=1.4003     C206-H210=1.0946     C207-C205=1.4003     C207-C211=1.4007     C207-H212=1.0954     
H208-C205=1.0951     C209-C206=1.4003     C209-C211=1.4005     C209-H213=1.0953     H210-C206=1.0946     C211-C207=1.4007     
C211-C209=1.4005     C211-H214=1.0981     H212-C207=1.0954     H213-C209=1.0953     H214-C211=1.0981     N215-Fe47=1.6316     
N215-C216=1.2944     C216-N215=1.2944     C216-C224=1.4313     C216-C228=1.4288     C217-Si218=1.9131    C217-H229=1.0860     
C217-H230=1.0859     C217-H231=1.0859     Si218-C217=1.9131    Si218-C219=1.9072    Si218-C220=1.9063    Si218-C221=1.9182    
C219-Si218=1.9072    C219-H232=1.0854     C219-H233=1.0857     C219-H234=1.0860     C220-Si218=1.9063    C220-H235=1.0842     
C220-H236=1.0857     C220-H237=1.0854     C221-Si218=1.9182    C221-C222=1.5254     C221-H238=1.0913     C221-H239=1.0911     
C222-C221=1.5254     C222-C223=1.5388     C222-H240=1.0922     C222-H241=1.0920     C223-C222=1.5388     C223-C224=1.4966     
C223-H242=1.0931     C223-H243=1.0904     C224-C216=1.4313     C224-C223=1.4966     C224-C225=1.3802     C225-C224=1.3802     
C225-C226=1.3860     C225-H244=1.0806     C226-C225=1.3860     C226-C227=1.3917     C226-H245=1.0778     C227-C226=1.3917     
C227-C228=1.3689     C227-H246=1.0790     C228-C216=1.4288     C228-C227=1.3689     C228-H247=1.0780     H229-C217=1.0860     
H230-C217=1.0859     H231-C217=1.0859     H232-C219=1.0854     H233-C219=1.0857     H234-C219=1.0860     H235-C220=1.0842     
H236-C220=1.0857     H237-C220=1.0854     H238-C221=1.0913     H239-C221=1.0911     H240-C222=1.0922     H241-C222=1.0920     
H242-C223=1.0931     H243-C223=1.0904     H244-C225=1.0806     H245-C226=1.0778     H246-C227=1.0790     H247-C228=1.0780     
 C  H  Rav=1.0945 sigma=0.0055  Rmin=1.0778  Rmax=1.1068   103
 C  C  Rav=1.4425 sigma=0.0537  Rmin=1.3655  Rmax=1.5388   109
 N  H  Rav=1.0227 sigma=0.0013  Rmin=1.0214  Rmax=1.0244     4
 N  C  Rav=1.3800 sigma=0.0278  Rmin=1.2944  Rmax=1.4190    17
 O  C  Rav=1.3355 sigma=0.0875  Rmin=1.2146  Rmax=1.4587    24
 Si C  Rav=1.9112 sigma=0.0048  Rmin=1.9063  Rmax=1.9182     4
 Fe N  Rav=1.9447 sigma=0.1566  Rmin=1.6316  Rmax=2.0300     5
 Fe Cl Rav=2.3149 sigma=0.0000  Rmin=2.3149  Rmax=2.3149     1

 selected bond angles (degree)
 --------------------
C9-N1-C4=107.01                Fe47-N1-C4=126.37              Fe47-N1-C9=126.60              C16-N2-C11=107.11              
Fe47-N2-C11=126.63             Fe47-N2-C16=126.24             C39-C3-C4=123.16               C106-C3-C4=117.37              
C106-C3-C39=119.47             C3-C4-N1=126.28                C5-C4-N1=109.73                C5-C4-C3=123.94                
H6-C5-C4=124.66                C7-C5-C4=106.76                C7-C5-H6=128.57                H8-C7-C5=128.40                
C9-C7-C5=106.90                C9-C7-H8=124.68                C7-C9-N1=109.54                C10-C9-N1=126.23               
C10-C9-C7=124.04               C11-C10-C9=122.75              C17-C10-C9=118.73              C17-C10-C11=118.30             

 selected dihedral angles (degree)
 ---------------------------------
C3-C4-N1-C9=182.25            C3-C4-N1-Fe47=  1.11          C5-C4-N1-C9=359.86            C5-C4-N1-Fe47=178.71          
N1-C4-C3-C39=  6.42           N1-C4-C3-C106=186.38          C5-C4-C3-C39=189.14           C5-C4-C3-C106=  9.09          
H6-C5-C4-N1=179.41            H6-C5-C4-C3=357.09            C7-C5-C4-N1=358.63            C7-C5-C4-C3=176.30            
H8-C7-C5-C4=180.68            H8-C7-C5-H6=359.86            C9-C7-C5-C4=  2.22            C9-C7-C5-H6=181.40            
C7-C9-N1-C4=  1.54            C7-C9-N1-Fe47=182.69          C10-C9-N1-C4=186.34           C10-C9-N1-Fe47=  7.49         
N1-C9-C7-C5=357.58            N1-C9-C7-H8=179.05            C10-C9-C7-C5=172.91           C10-C9-C7-H8=354.38           
C11-C10-C9-N1=  5.45          C11-C10-C9-C7=190.90          C17-C10-C9-N1=179.91          C17-C10-C9-C7=  5.37          
           -------------------------------------------------
          |                Final Singlepoint                |
           -------------------------------------------------

          ...................................................
          :                      SETUP                      :
          :.................................................:
          :  # basis functions                 685          :
          :  # atomic orbitals                 682          :
          :  # shells                          390          :
          :  # electrons                       715          :
          :  max. iterations                   250          :
          :  Hamiltonian                  GFN2-xTB          :
          :  restarted?                      false          :
          :  GBSA solvation                   true          :
          :  PC potential                    false          :
          :  electronic temp.          300.0000000     K    :
          :  accuracy                    1.0000000          :
          :  -> integral cutoff          0.2500000E+02      :
          :  -> integral neglect         0.1000000E-07      :
          :  -> SCF convergence          0.1000000E-05 Eh   :
          :  -> wf. convergence          0.1000000E-03 e    :
          :  Broyden damping             0.4000000          :
          :  net charge                          0          :
          :  unpaired electrons                  0          :
          ...................................................

 iter      E             dE          RMSdq      gap      omega  full diag
   1   -400.8926918 -0.400893E+03  0.209E-04    0.08       0.0  T
   2   -400.8926918  0.608082E-08  0.276E-04    0.08      23.1  T
   3   -400.8926918 -0.119827E-07  0.108E-04    0.08      59.1  T

   *** convergence criteria satisfied after 3 iterations ***

         #    Occupation            Energy/Eh            Energy/eV
      -------------------------------------------------------------
         1        2.0000           -1.0128239             -27.5603
       ...           ...                  ...                  ...
       352        2.0000           -0.3791394             -10.3169
       353        2.0000           -0.3783939             -10.2966
       354        2.0000           -0.3765188             -10.2456
       355        2.0000           -0.3741201             -10.1803
       356        2.0000           -0.3727989             -10.1444
       357        2.0000           -0.3602787              -9.8037
       358        0.8153           -0.3283390              -8.9346 (HOMO)
       359        0.1847           -0.3255172              -8.8578 (LUMO)
       360                         -0.3046382              -8.2896
       361                         -0.3021513              -8.2220
       362                         -0.2665641              -7.2536
       363                         -0.2611323              -7.1058
       ...                                ...                  ...
       682                          1.5194833              41.3472
      -------------------------------------------------------------
                  HL-Gap            0.0028218 Eh            0.0768 eV
             Fermi-level           -0.3356304 Eh           -9.1330 eV

 SCC (total)                   0 d,  0 h,  0 min,  0.620 sec
 SCC setup                      ...        0 min,  0.004 sec (  0.667%)
 Dispersion                     ...        0 min,  0.004 sec (  0.640%)
 classical contributions        ...        0 min,  0.001 sec (  0.160%)
 integral evaluation            ...        0 min,  0.025 sec (  3.998%)
 iterations                     ...        0 min,  0.237 sec ( 38.193%)
 molecular gradient             ...        0 min,  0.329 sec ( 52.992%)
 printout                       ...        0 min,  0.021 sec (  3.348%)

         :::::::::::::::::::::::::::::::::::::::::::::::::::::
         ::                     SUMMARY                     ::
         :::::::::::::::::::::::::::::::::::::::::::::::::::::
         :: total energy            -395.554601969511 Eh    ::
         :: total w/o Gsasa/hb      -395.442249040803 Eh    ::
         :: gradient norm              0.000365232297 Eh/a0 ::
         :: HOMO-LUMO gap              0.076786100325 eV    ::
         ::.................................................::
         :: SCC energy              -400.868405932810 Eh    ::
         :: -> isotropic ES            0.515448911222 Eh    ::
         :: -> anisotropic ES          0.008470300003 Eh    ::
         :: -> anisotropic XC          0.162959129312 Eh    ::
         :: -> dispersion             -0.350729355080 Eh    ::
         :: -> Gsolv                  -0.158289268866 Eh    ::
         ::    -> Gelec               -0.045936340158 Eh    ::
         ::    -> Gsasa               -0.111030740854 Eh    ::
         ::    -> Ghb                 -0.006275625432 Eh    ::
         ::    -> Gshift               0.004953437577 Eh    ::
         :: repulsion energy           5.303204160793 Eh    ::
         :: add. restraining           0.010599802506 Eh    ::
         :: total charge              -0.000000000070 e     ::
         :::::::::::::::::::::::::::::::::::::::::::::::::::::

           -------------------------------------------------
          |                Property Printout                |
           -------------------------------------------------

    * Orbital Energies and Occupations

         #    Occupation            Energy/Eh            Energy/eV
      -------------------------------------------------------------
         1        2.0000           -1.0128239             -27.5603
       ...           ...                  ...                  ...
       346        2.0000           -0.3870823             -10.5330
       347        2.0000           -0.3864280             -10.5152
       348        2.0000           -0.3834919             -10.4353
       349        2.0000           -0.3820718             -10.3967
       350        2.0000           -0.3817370             -10.3876
       351        2.0000           -0.3806353             -10.3576
       352        2.0000           -0.3791394             -10.3169
       353        2.0000           -0.3783939             -10.2966
       354        2.0000           -0.3765188             -10.2456
       355        2.0000           -0.3741201             -10.1803
       356        2.0000           -0.3727989             -10.1444
       357        2.0000           -0.3602787              -9.8037
       358        0.8153           -0.3283390              -8.9346 (HOMO)
       359        0.1847           -0.3255172              -8.8578 (LUMO)
       360                         -0.3046382              -8.2896
       361                         -0.3021513              -8.2220
       362                         -0.2665641              -7.2536
       363                         -0.2611323              -7.1058
       364                         -0.2586632              -7.0386
       365                         -0.2584700              -7.0333
       366                         -0.2528562              -6.8806
       367                         -0.2514850              -6.8433
       368                         -0.2418654              -6.5815
       369                         -0.2403037              -6.5390
       ...                                ...                  ...
       682                          1.5194833              41.3472
      -------------------------------------------------------------
                  HL-Gap            0.0028218 Eh            0.0768 eV
             Fermi-level           -0.3356304 Eh           -9.1330 eV

     #   Z          covCN         q      C6AA      α(0)
     1   7 N        2.613    -0.204    25.458     7.494
     2   7 N        2.615    -0.210    25.576     7.511
     3   6 C        2.949    -0.020    28.501     8.756
     4   6 C        3.094     0.074    26.243     8.396
     5   6 C        2.989    -0.048    29.191     8.863
     6   1 H        0.924     0.045     2.382     2.414
     7   6 C        2.990    -0.039    28.957     8.827
     8   1 H        0.924     0.039     2.460     2.453
     9   6 C        3.093     0.081    26.089     8.372
    10   6 C        2.949     0.010    27.797     8.647
    11   6 C        3.092     0.079    26.134     8.379
    12   6 C        2.991    -0.043    29.046     8.841
    13   1 H        0.924     0.036     2.504     2.475
    14   6 C        2.988    -0.051    29.253     8.872
    15   1 H        0.924     0.042     2.418     2.432
    16   6 C        3.093     0.072    26.293     8.404
    17   6 C        2.960    -0.031    28.783     8.800
    18   6 C        2.855     0.142    24.894     8.178
    19   6 C        2.902    -0.074    29.839     8.957
    20   6 C        2.909    -0.035    28.874     8.811
    21   1 H        0.923     0.055     2.262     2.352
    22   6 C        2.902    -0.073    29.813     8.953
    23   6 C        2.853     0.142    24.902     8.179
    24   7 N        2.619    -0.205    25.469     7.495
    25   7 N        2.621    -0.210    25.586     7.512
    26   6 C        2.949    -0.018    28.459     8.750
    27   6 C        3.090     0.072    26.290     8.404
    28   6 C        2.990    -0.051    29.255     8.872
    29   1 H        0.924     0.043     2.404     2.425
    30   6 C        2.990    -0.043    29.052     8.842
    31   1 H        0.924     0.039     2.457     2.451
    32   6 C        3.091     0.078    26.158     8.383
    33   6 C        2.950     0.009    27.814     8.650
    34   6 C        3.095     0.079    26.129     8.378
    35   6 C        2.991    -0.043    29.060     8.843
    36   1 H        0.924     0.035     2.514     2.480
    37   6 C        2.990    -0.053    29.316     8.882
    38   1 H        0.924     0.042     2.419     2.432
    39   6 C        3.093     0.070    26.336     8.411
    40   6 C        2.961    -0.029    28.728     8.791
    41   6 C        2.849     0.140    24.946     8.186
    42   6 C        2.902    -0.070    29.742     8.942
    43   6 C        2.909    -0.035    28.877     8.812
    44   1 H        0.923     0.057     2.235     2.338
    45   6 C        2.902    -0.070    29.752     8.944
    46   6 C        2.851     0.142    24.905     8.179
    47  26 Fe       4.577     0.844     4.987     7.204
    48  17 Cl       0.749    -0.564   117.876    16.607
    49   6 C        2.966    -0.027    28.677     8.784
    50   6 C        2.893     0.072    26.398     8.424
    51   6 C        2.894     0.076    26.312     8.410
    52   6 C        2.903    -0.055    29.369     8.886
    53   7 N        2.688    -0.159    24.443     7.343
    54   6 C        2.904    -0.054    29.345     8.882
    55   7 N        2.688    -0.160    24.472     7.347
    56   1 H        0.924     0.077     2.012     2.218
    57   6 C        2.908    -0.032    28.787     8.798
    58   6 C        2.746     0.276    22.331     7.738
    59   1 H        0.860     0.195     1.131     1.666
    60   1 H        0.924     0.079     1.994     2.208
    61   6 C        2.747     0.278    22.296     7.732
    62   1 H        0.859     0.198     1.116     1.655
    63   1 H        0.924     0.054     2.276     2.359
    64   8 O        0.857    -0.459    22.887     6.414
    65   6 C        3.856    -0.041    21.267     6.559
    66   8 O        0.857    -0.461    22.931     6.420
    67   6 C        3.856    -0.038    21.216     6.551
    68   6 C        3.803    -0.053    21.519     6.604
    69   1 H        0.924     0.058     2.224     2.332
    70   6 C        3.855    -0.042    21.294     6.563
    71   6 C        3.802    -0.049    21.449     6.594
    72   1 H        0.924     0.067     2.119     2.276
    73   6 C        3.855    -0.041    21.276     6.560
    74   1 H        0.924     0.080     1.984     2.203
    75   1 H        0.924     0.073     2.048     2.238
    76   1 H        0.924     0.084     1.941     2.179
    77   6 C        2.702     0.358    20.926     7.487
    78   1 H        0.924     0.073     2.051     2.240
    79   1 H        0.924     0.087     1.909     2.161
    80   1 H        0.924     0.081     1.972     2.196
    81   6 C        2.703     0.358    20.917     7.486
    82   8 O        1.700    -0.289    18.807     5.855
    83   8 O        0.856    -0.458    22.867     6.411
    84   8 O        1.700    -0.295    18.903     5.870
    85   8 O        0.856    -0.454    22.782     6.399
    86   6 C        3.729     0.118    18.747     6.181
    87   6 C        3.730     0.121    18.688     6.171
    88   6 C        3.746    -0.119    22.846     6.818
    89   6 C        3.747    -0.125    22.958     6.834
    90   1 H        0.923     0.053     2.284     2.363
    91   6 C        3.747    -0.122    22.910     6.827
    92   6 C        3.746    -0.119    22.845     6.818
    93   1 H        0.922     0.045     2.385     2.415
    94   1 H        0.923     0.047     2.353     2.399
    95   1 H        0.923     0.060     2.198     2.318
    96   1 H        0.923     0.061     2.182     2.310
    97   1 H        0.924     0.057     2.237     2.339
    98   1 H        0.923     0.063     2.165     2.301
    99   1 H        0.924     0.064     2.148     2.292
   100   1 H        0.924     0.055     2.254     2.348
   101   1 H        0.923     0.065     2.146     2.291
   102   1 H        0.923     0.062     2.182     2.310
   103   1 H        0.923     0.049     2.329     2.387
   104   1 H        0.923     0.060     2.196     2.318
   105   1 H        0.923     0.058     2.220     2.330
   106   6 C        2.967    -0.029    28.710     8.789
   107   6 C        2.893     0.073    26.363     8.418
   108   6 C        2.894     0.075    26.319     8.411
   109   6 C        2.903    -0.053    29.324     8.879
   110   7 N        2.689    -0.158    24.415     7.339
   111   6 C        2.903    -0.054    29.341     8.882
   112   7 N        2.689    -0.161    24.484     7.349
   113   1 H        0.924     0.077     2.010     2.217
   114   6 C        2.908    -0.031    28.780     8.797
   115   6 C        2.746     0.278    22.303     7.733
   116   1 H        0.860     0.192     1.146     1.677
   117   1 H        0.924     0.077     2.008     2.216
   118   6 C        2.746     0.278    22.301     7.732
   119   1 H        0.859     0.197     1.120     1.658
   120   1 H        0.924     0.054     2.271     2.356
   121   8 O        0.857    -0.457    22.848     6.409
   122   6 C        3.857    -0.038    21.221     6.552
   123   8 O        0.857    -0.460    22.915     6.418
   124   6 C        3.856    -0.038    21.213     6.550
   125   6 C        3.803    -0.051    21.492     6.600
   126   1 H        0.924     0.055     2.260     2.351
   127   6 C        3.855    -0.041    21.262     6.558
   128   6 C        3.803    -0.049    21.456     6.595
   129   1 H        0.924     0.064     2.148     2.292
   130   6 C        3.855    -0.041    21.269     6.559
   131   1 H        0.924     0.078     1.998     2.210
   132   1 H        0.924     0.069     2.092     2.262
   133   1 H        0.924     0.082     1.958     2.188
   134   6 C        2.703     0.358    20.925     7.487
   135   1 H        0.924     0.075     2.031     2.229
   136   1 H        0.924     0.086     1.917     2.165
   137   1 H        0.924     0.080     1.980     2.201
   138   6 C        2.703     0.358    20.920     7.486
   139   8 O        1.700    -0.286    18.746     5.846
   140   8 O        0.856    -0.459    22.888     6.414
   141   8 O        1.700    -0.294    18.893     5.868
   142   8 O        0.856    -0.454    22.781     6.399
   143   6 C        3.730     0.120    18.710     6.175
   144   6 C        3.731     0.120    18.706     6.174
   145   6 C        3.747    -0.125    22.965     6.835
   146   6 C        3.746    -0.120    22.865     6.821
   147   1 H        0.922     0.050     2.325     2.385
   148   6 C        3.745    -0.117    22.817     6.814
   149   6 C        3.747    -0.124    22.950     6.833
   150   1 H        0.922     0.048     2.341     2.393
   151   1 H        0.924     0.061     2.193     2.316
   152   1 H        0.923     0.063     2.160     2.298
   153   1 H        0.923     0.062     2.178     2.308
   154   1 H        0.924     0.050     2.325     2.385
   155   1 H        0.923     0.061     2.192     2.315
   156   1 H        0.923     0.059     2.214     2.327
   157   1 H        0.923     0.048     2.348     2.397
   158   1 H        0.923     0.058     2.225     2.333
   159   1 H        0.923     0.059     2.208     2.324
   160   1 H        0.923     0.057     2.230     2.335
   161   1 H        0.923     0.062     2.170     2.304
   162   1 H        0.924     0.064     2.151     2.293
   163   1 H        0.924     0.047     2.357     2.401
   164   1 H        0.924     0.047     2.356     2.401
   165   1 H        0.924     0.053     2.282     2.363
   166   1 H        0.924     0.050     2.323     2.384
   167   8 O        1.706    -0.290    18.827     5.858
   168   8 O        1.706    -0.290    18.820     5.857
   169   8 O        1.707    -0.283    18.703     5.839
   170   8 O        1.706    -0.288    18.781     5.851
   171   6 C        2.853     0.137    25.000     8.195
   172   6 C        2.906    -0.049    29.208     8.862
   173   6 C        2.906    -0.048    29.188     8.859
   174   6 C        2.909    -0.032    28.809     8.801
   175   1 H        0.924     0.052     2.297     2.370
   176   6 C        2.909    -0.031    28.773     8.796
   177   1 H        0.924     0.050     2.320     2.382
   178   6 C        2.906    -0.035    28.879     8.812
   179   1 H        0.924     0.051     2.307     2.375
   180   1 H        0.924     0.051     2.313     2.378
   181   1 H        0.923     0.050     2.321     2.382
   182   6 C        2.851     0.139    24.974     8.191
   183   6 C        2.905    -0.050    29.241     8.867
   184   6 C        2.906    -0.047    29.170     8.856
   185   6 C        2.909    -0.032    28.795     8.799
   186   1 H        0.924     0.043     2.413     2.429
   187   6 C        2.909    -0.030    28.752     8.792
   188   1 H        0.924     0.052     2.300     2.371
   189   6 C        2.905    -0.037    28.909     8.816
   190   1 H        0.924     0.048     2.346     2.395
   191   1 H        0.924     0.051     2.305     2.374
   192   1 H        0.923     0.048     2.342     2.393
   193   6 C        2.846     0.138    24.985     8.192
   194   6 C        2.905    -0.055    29.370     8.886
   195   6 C        2.907    -0.046    29.133     8.850
   196   6 C        2.909    -0.032    28.801     8.800
   197   1 H        0.924     0.041     2.435     2.440
   198   6 C        2.908    -0.027    28.667     8.779
   199   1 H        0.924     0.045     2.386     2.416
   200   6 C        2.905    -0.038    28.946     8.822
   201   1 H        0.924     0.045     2.378     2.411
   202   1 H        0.924     0.053     2.280     2.361
   203   1 H        0.924     0.047     2.363     2.404
   204   6 C        2.850     0.138    24.983     8.192
   205   6 C        2.905    -0.051    29.265     8.870
   206   6 C        2.906    -0.049    29.210     8.862
   207   6 C        2.910    -0.032    28.803     8.800
   208   1 H        0.924     0.042     2.427     2.436
   209   6 C        2.909    -0.030    28.759     8.794
   210   1 H        0.924     0.052     2.300     2.372
   211   6 C        2.905    -0.037    28.925     8.819
   212   1 H        0.924     0.049     2.331     2.387
   213   1 H        0.924     0.051     2.313     2.378
   214   1 H        0.923     0.049     2.338     2.391
   215   7 N        1.742    -0.296    28.445     7.893
   216   6 C        2.902     0.112    25.533     8.285
   217   6 C        3.648    -0.215    25.159     7.207
   218  14 Si       3.498     0.491   100.886    19.441
   219   6 C        3.649    -0.204    24.918     7.171
   220   6 C        3.649    -0.209    25.028     7.187
   221   6 C        3.699    -0.161    23.807     6.978
   222   6 C        3.805    -0.043    21.343     6.577
   223   6 C        3.809    -0.058    21.612     6.618
   224   6 C        2.967     0.009    27.812     8.650
   225   6 C        2.920    -0.037    28.913     8.818
   226   6 C        2.916    -0.030    28.761     8.794
   227   6 C        2.914    -0.026    28.649     8.777
   228   6 C        2.924    -0.036    28.887     8.814
   229   1 H        0.925     0.034     2.537     2.491
   230   1 H        0.925     0.035     2.514     2.480
   231   1 H        0.925     0.036     2.498     2.471
   232   1 H        0.925     0.035     2.521     2.483
   233   1 H        0.925     0.020     2.735     2.586
   234   1 H        0.925     0.032     2.558     2.501
   235   1 H        0.925     0.030     2.587     2.515
   236   1 H        0.925     0.036     2.497     2.471
   237   1 H        0.925     0.032     2.552     2.498
   238   1 H        0.924     0.027     2.627     2.535
   239   1 H        0.924     0.021     2.716     2.577
   240   1 H        0.924     0.010     2.886     2.657
   241   1 H        0.924     0.026     2.637     2.540
   242   1 H        0.924     0.051     2.310     2.377
   243   1 H        0.924     0.044     2.397     2.421
   244   1 H        0.926     0.054     2.274     2.358
   245   1 H        0.926     0.050     2.315     2.379
   246   1 H        0.926     0.045     2.377     2.411
   247   1 H        0.926     0.038     2.474     2.460

 Mol. C6AA /au·bohr⁶  :     752873.644642
 Mol. C8AA /au·bohr⁸  :   18624713.966437
 Mol. α(0) /au        :       1361.984796


Wiberg/Mayer (AO) data.
largest (>0.10) Wiberg bond orders for each atom

 ---------------------------------------------------------------------------
     #   Z sym  total        # sym  WBO       # sym  WBO       # sym  WBO
 ---------------------------------------------------------------------------
     1   7 N    3.447 --     4 C    1.248     9 C    1.241    47 Fe   0.596
     2   7 N    3.436 --    11 C    1.250    16 C    1.248    47 Fe   0.577
     3   6 C    3.929 --    39 C    1.309     4 C    1.301   106 C    1.001
     4   6 C    3.927 --     3 C    1.301     1 N    1.248     5 C    1.169
     5   6 C    3.953 --     7 C    1.644     4 C    1.169     6 H    0.966
     6   1 H    0.997 --     5 C    0.966
     7   6 C    3.954 --     5 C    1.644     9 C    1.168     8 H    0.969
     8   1 H    0.998 --     7 C    0.969
     9   6 C    3.926 --    10 C    1.309     1 N    1.241     7 C    1.168
    10   6 C    3.932 --    11 C    1.314     9 C    1.309    17 C    1.004
    11   6 C    3.925 --    10 C    1.314     2 N    1.250    12 C    1.163
    12   6 C    3.953 --    14 C    1.659    11 C    1.163    13 H    0.970
    13   1 H    0.998 --    12 C    0.970
    14   6 C    3.953 --    12 C    1.659    16 C    1.162    15 H    0.970
    15   1 H    0.997 --    14 C    0.970
    16   6 C    3.926 --    26 C    1.311     2 N    1.248    14 C    1.162
    17   6 C    3.972 --    18 C    1.338    23 C    1.338    10 C    1.004
                            20 C    0.100
    18   6 C    3.921 --    19 C    1.364    17 C    1.338   167 O    1.036
    19   6 C    3.977 --    20 C    1.439    18 C    1.364   163 H    0.964
    20   6 C    3.986 --    22 C    1.442    19 C    1.439    21 H    0.968
                            17 C    0.100
    21   1 H    0.996 --    20 C    0.968
    22   6 C    3.979 --    20 C    1.442    23 C    1.362   164 H    0.964
    23   6 C    3.919 --    22 C    1.362    17 C    1.338   168 O    1.036
    24   7 N    3.447 --    27 C    1.249    32 C    1.240    47 Fe   0.591
    25   7 N    3.437 --    34 C    1.250    39 C    1.245    47 Fe   0.580
    26   6 C    3.927 --    16 C    1.311    27 C    1.300    49 C    0.997
    27   6 C    3.926 --    26 C    1.300    24 N    1.249    28 C    1.171
    28   6 C    3.954 --    30 C    1.646    27 C    1.171    29 H    0.969
    29   1 H    0.997 --    28 C    0.969
    30   6 C    3.954 --    28 C    1.646    32 C    1.172    31 H    0.970
    31   1 H    0.998 --    30 C    0.970
    32   6 C    3.927 --    33 C    1.311    24 N    1.240    30 C    1.172
    33   6 C    3.932 --    32 C    1.311    34 C    1.311    40 C    1.005
    34   6 C    3.926 --    33 C    1.311    25 N    1.250    35 C    1.166
    35   6 C    3.953 --    37 C    1.655    34 C    1.166    36 H    0.970
    36   1 H    0.998 --    35 C    0.970
    37   6 C    3.952 --    35 C    1.655    39 C    1.163    38 H    0.969
    38   1 H    0.997 --    37 C    0.969
    39   6 C    3.928 --     3 C    1.309    25 N    1.245    37 C    1.163
    40   6 C    3.972 --    46 C    1.340    41 C    1.338    33 C    1.005
    41   6 C    3.921 --    42 C    1.367    40 C    1.338   169 O    1.033
    42   6 C    3.977 --    43 C    1.439    41 C    1.367   165 H    0.964
    43   6 C    3.985 --    45 C    1.441    42 C    1.439    44 H    0.968
    44   1 H    0.996 --    43 C    0.968
    45   6 C    3.976 --    43 C    1.441    46 C    1.364   166 H    0.964
    46   6 C    3.920 --    45 C    1.364    40 C    1.340   170 O    1.035
    47  26 Fe   5.175 --   215 N    1.560     1 N    0.596    24 N    0.591
                            48 Cl   0.590    25 N    0.580     2 N    0.577
                           228 C    0.104   224 C    0.102
    48  17 Cl   0.745 --    47 Fe   0.590
    49   6 C    3.972 --    50 C    1.347    51 C    1.339    26 C    0.997
    50   6 C    3.950 --    52 C    1.370    49 C    1.347    53 N    1.064
    51   6 C    3.950 --    54 C    1.365    49 C    1.339    55 N    1.076
    52   6 C    3.978 --    57 C    1.439    50 C    1.370    56 H    0.958
    53   7 N    3.499 --    58 C    1.216    50 C    1.064    59 H    0.922
                            64 O    0.167
    54   6 C    3.969 --    57 C    1.444    51 C    1.365    60 H    0.956
    55   7 N    3.500 --    61 C    1.205    51 C    1.076    62 H    0.919
                            66 O    0.160
    56   1 H    0.992 --    52 C    0.958
    57   6 C    3.987 --    54 C    1.444    52 C    1.439    63 H    0.968
    58   6 C    3.950 --    64 O    1.659    53 N    1.216    65 C    0.991
    59   1 H    0.961 --    53 N    0.922
    60   1 H    0.992 --    54 C    0.956
    61   6 C    3.948 --    66 O    1.657    55 N    1.205    67 C    0.999
    62   1 H    0.960 --    55 N    0.919
    63   1 H    0.996 --    57 C    0.968
    64   8 O    1.982 --    58 C    1.659    53 N    0.167
    65   6 C    3.940 --    58 C    0.991    69 H    0.966    68 C    0.958
                            70 C    0.893
    66   8 O    1.987 --    61 C    1.657    55 N    0.160
    67   6 C    3.939 --    61 C    0.999    72 H    0.964    71 C    0.956
                            73 C    0.886
    68   6 C    3.937 --    75 H    0.974    74 H    0.973    65 C    0.958
                            70 C    0.945
    69   1 H    0.997 --    65 C    0.966
    70   6 C    3.937 --    77 C    1.006    76 H    0.964    68 C    0.945
                            65 C    0.893
    71   6 C    3.936 --    78 H    0.974    79 H    0.968    67 C    0.956
                            73 C    0.943
    72   1 H    0.995 --    67 C    0.964
    73   6 C    3.937 --    81 C    1.013    80 H    0.963    71 C    0.943
                            67 C    0.886
    74   1 H    0.993 --    68 C    0.973
    75   1 H    0.994 --    68 C    0.974
    76   1 H    0.993 --    70 C    0.964
    77   6 C    3.919 --    83 O    1.696    82 O    1.147    70 C    1.006
    78   1 H    0.994 --    71 C    0.974
    79   1 H    0.992 --    71 C    0.968
    80   1 H    0.993 --    73 C    0.963
    81   6 C    3.918 --    85 O    1.699    84 O    1.132    73 C    1.013
    82   8 O    2.297 --    77 C    1.147    86 C    0.900    83 O    0.170
    83   8 O    1.997 --    77 C    1.696    82 O    0.170
    84   8 O    2.285 --    81 C    1.132    87 C    0.904    85 O    0.167
    85   8 O    2.004 --    81 C    1.699    84 O    0.167
    86   6 C    3.910 --    89 C    1.007    88 C    1.002    90 H    0.961
                            82 O    0.900
    87   6 C    3.913 --    91 C    1.007    92 C    1.003    93 H    0.962
                            84 O    0.904
    88   6 C    3.990 --    86 C    1.002    94 H    0.986    95 H    0.985
                            96 H    0.982
    89   6 C    3.989 --    86 C    1.007    97 H    0.984    99 H    0.983
                            98 H    0.981
    90   1 H    0.997 --    86 C    0.961
    91   6 C    3.989 --    87 C    1.007   100 H    0.985   101 H    0.983
                           102 H    0.982
    92   6 C    3.990 --    87 C    1.003   103 H    0.985   105 H    0.985
                           104 H    0.982
    93   1 H    0.998 --    87 C    0.962
    94   1 H    0.998 --    88 C    0.986
    95   1 H    0.996 --    88 C    0.985
    96   1 H    0.996 --    88 C    0.982
    97   1 H    0.997 --    89 C    0.984
    98   1 H    0.995 --    89 C    0.981
    99   1 H    0.996 --    89 C    0.983
   100   1 H    0.997 --    91 C    0.985
   101   1 H    0.996 --    91 C    0.983
   102   1 H    0.995 --    91 C    0.982
   103   1 H    0.998 --    92 C    0.985
   104   1 H    0.996 --    92 C    0.982
   105   1 H    0.997 --    92 C    0.985
   106   6 C    3.971 --   107 C    1.343   108 C    1.339     3 C    1.001
   107   6 C    3.950 --   109 C    1.371   106 C    1.343   110 N    1.064
   108   6 C    3.950 --   111 C    1.365   106 C    1.339   112 N    1.075
   109   6 C    3.969 --   114 C    1.438   107 C    1.371   113 H    0.958
   110   7 N    3.498 --   115 C    1.212   107 C    1.064   116 H    0.920
                           121 O    0.166
   111   6 C    3.969 --   114 C    1.443   108 C    1.365   117 H    0.957
   112   7 N    3.499 --   118 C    1.205   108 C    1.075   119 H    0.919
                           123 O    0.161
   113   1 H    0.992 --   109 C    0.958
   114   6 C    3.986 --   111 C    1.443   109 C    1.438   120 H    0.968
   115   6 C    3.950 --   121 O    1.662   110 N    1.212   122 C    0.990
   116   1 H    0.962 --   110 N    0.920
   117   1 H    0.992 --   111 C    0.957
   118   6 C    3.949 --   123 O    1.658   112 N    1.205   124 C    1.000
   119   1 H    0.960 --   112 N    0.919
   120   1 H    0.996 --   114 C    0.968
   121   8 O    1.984 --   115 C    1.662   110 N    0.166
   122   6 C    3.940 --   115 C    0.990   126 H    0.965   125 C    0.955
                           127 C    0.899
   123   8 O    1.978 --   118 C    1.658   112 N    0.161
   124   6 C    3.939 --   118 C    1.000   129 H    0.965   128 C    0.958
                           130 C    0.882
   125   6 C    3.938 --   132 H    0.975   131 H    0.973   122 C    0.955
                           127 C    0.943
   126   1 H    0.997 --   122 C    0.965
   127   6 C    3.937 --   134 C    1.004   133 H    0.964   125 C    0.943
                           122 C    0.899
   128   6 C    3.936 --   135 H    0.973   136 H    0.967   124 C    0.958
                           130 C    0.945
   129   1 H    0.996 --   124 C    0.965
   130   6 C    3.937 --   138 C    1.012   137 H    0.964   128 C    0.945
                           124 C    0.882
   131   1 H    0.994 --   125 C    0.973
   132   1 H    0.995 --   125 C    0.975
   133   1 H    0.993 --   127 C    0.964
   134   6 C    3.920 --   140 O    1.693   139 O    1.150   127 C    1.004
   135   1 H    0.994 --   128 C    0.973
   136   1 H    0.992 --   128 C    0.967
   137   1 H    0.993 --   130 C    0.964
   138   6 C    3.918 --   142 O    1.699   141 O    1.134   130 C    1.012
   139   8 O    2.301 --   134 C    1.150   143 C    0.899   140 O    0.171
   140   8 O    1.995 --   134 C    1.693   139 O    0.171
   141   8 O    2.286 --   138 C    1.134   144 C    0.903   142 O    0.167
   142   8 O    2.005 --   138 C    1.699   141 O    0.167
   143   6 C    3.910 --   145 C    1.007   146 C    1.003   147 H    0.961
                           139 O    0.899
   144   6 C    3.912 --   149 C    1.007   148 C    1.002   150 H    0.961
                           141 O    0.903
   145   6 C    3.987 --   143 C    1.007   152 H    0.983   153 H    0.981
                           151 H    0.980
   146   6 C    3.990 --   143 C    1.003   154 H    0.985   156 H    0.984
                           155 H    0.982
   147   1 H    0.998 --   143 C    0.961
   148   6 C    3.991 --   144 C    1.002   157 H    0.985   158 H    0.985
                           159 H    0.982
   149   6 C    3.989 --   144 C    1.007   160 H    0.984   162 H    0.983
                           161 H    0.982
   150   1 H    0.998 --   144 C    0.961
   151   1 H    0.996 --   145 C    0.980
   152   1 H    0.996 --   145 C    0.983
   153   1 H    0.995 --   145 C    0.981
   154   1 H    0.998 --   146 C    0.985
   155   1 H    0.996 --   146 C    0.982
   156   1 H    0.997 --   146 C    0.984
   157   1 H    0.998 --   148 C    0.985
   158   1 H    0.997 --   148 C    0.985
   159   1 H    0.996 --   148 C    0.982
   160   1 H    0.997 --   149 C    0.984
   161   1 H    0.995 --   149 C    0.982
   162   1 H    0.996 --   149 C    0.983
   163   1 H    0.997 --    19 C    0.964
   164   1 H    0.996 --    22 C    0.964
   165   1 H    0.996 --    42 C    0.964
   166   1 H    0.996 --    45 C    0.964
   167   8 O    2.249 --    18 C    1.036   171 C    0.974
   168   8 O    2.264 --    23 C    1.036   182 C    0.985
   169   8 O    2.280 --    41 C    1.033   193 C    0.999
   170   8 O    2.268 --    46 C    1.035   204 C    0.989
   171   6 C    3.924 --   173 C    1.396   172 C    1.394   167 O    0.974
                           178 C    0.104
   172   6 C    3.986 --   174 C    1.441   171 C    1.394   175 H    0.960
                           176 C    0.112
   173   6 C    3.986 --   176 C    1.440   171 C    1.396   177 H    0.968
                           174 C    0.112
   174   6 C    3.988 --   172 C    1.441   178 C    1.438   179 H    0.969
                           173 C    0.112
   175   1 H    0.997 --   172 C    0.960
   176   6 C    3.988 --   173 C    1.440   178 C    1.439   180 H    0.969
                           172 C    0.112
   177   1 H    0.997 --   173 C    0.968
   178   6 C    3.989 --   176 C    1.439   174 C    1.438   181 H    0.969
                           171 C    0.104
   179   1 H    0.997 --   174 C    0.969
   180   1 H    0.997 --   176 C    0.969
   181   1 H    0.997 --   178 C    0.969
   182   6 C    3.922 --   184 C    1.390   183 C    1.388   168 O    0.985
                           189 C    0.102
   183   6 C    3.986 --   185 C    1.444   182 C    1.388   186 H    0.968
                           187 C    0.111
   184   6 C    3.985 --   187 C    1.442   182 C    1.390   188 H    0.968
                           185 C    0.111
   185   6 C    3.989 --   183 C    1.444   189 C    1.436   190 H    0.969
                           184 C    0.111
   186   1 H    0.998 --   183 C    0.968
   187   6 C    3.988 --   184 C    1.442   189 C    1.438   191 H    0.969
                           183 C    0.111
   188   1 H    0.997 --   184 C    0.968
   189   6 C    3.987 --   187 C    1.438   185 C    1.436   192 H    0.969
                           182 C    0.102
   190   1 H    0.997 --   185 C    0.969
   191   1 H    0.997 --   187 C    0.969
   192   1 H    0.998 --   189 C    0.969
   193   6 C    3.919 --   194 C    1.382   195 C    1.377   169 O    0.999
                           200 C    0.100
   194   6 C    3.985 --   196 C    1.441   193 C    1.382   197 H    0.967
                           198 C    0.109
   195   6 C    3.985 --   198 C    1.449   193 C    1.377   199 H    0.968
                           196 C    0.110
   196   6 C    3.989 --   194 C    1.441   200 C    1.438   201 H    0.970
                           195 C    0.110
   197   1 H    0.998 --   194 C    0.967
   198   6 C    3.987 --   195 C    1.449   200 C    1.432   202 H    0.968
                           194 C    0.109
   199   1 H    0.998 --   195 C    0.968
   200   6 C    3.986 --   196 C    1.438   198 C    1.432   203 H    0.970
                           193 C    0.100
   201   1 H    0.998 --   196 C    0.970
   202   1 H    0.997 --   198 C    0.968
   203   1 H    0.998 --   200 C    0.970
   204   6 C    3.921 --   205 C    1.387   206 C    1.386   170 O    0.989
                           211 C    0.102
   205   6 C    3.986 --   207 C    1.443   204 C    1.387   208 H    0.968
                           209 C    0.110
   206   6 C    3.985 --   209 C    1.444   204 C    1.386   210 H    0.968
                           207 C    0.110
   207   6 C    3.988 --   205 C    1.443   211 C    1.436   212 H    0.969
                           206 C    0.110
   208   1 H    0.998 --   205 C    0.968
   209   6 C    3.988 --   206 C    1.444   211 C    1.437   213 H    0.969
                           205 C    0.110
   210   1 H    0.997 --   206 C    0.968
   211   6 C    3.987 --   209 C    1.437   207 C    1.436   214 H    0.969
                           204 C    0.102
   212   1 H    0.997 --   207 C    0.969
   213   1 H    0.997 --   209 C    0.969
   214   1 H    0.998 --   211 C    0.969
   215   7 N    3.272 --    47 Fe   1.560   216 C    1.415
   216   6 C    3.969 --   215 N    1.415   228 C    1.167   224 C    1.165
   217   6 C    3.977 --   230 H    0.989   229 H    0.988   231 H    0.987
                           218 Si   0.895
   218  14 Si   3.601 --   217 C    0.895   220 C    0.891   219 C    0.890
                           221 C    0.854
   219   6 C    3.978 --   232 H    0.989   233 H    0.987   234 H    0.986
                           218 Si   0.890
   220   6 C    3.979 --   236 H    0.989   237 H    0.988   235 H    0.984
                           218 Si   0.891
   221   6 C    3.971 --   222 C    1.021   239 H    0.978   238 H    0.973
                           218 Si   0.854
   222   6 C    3.992 --   221 C    1.021   241 H    0.980   240 H    0.980
                           223 C    0.976
   223   6 C    3.989 --   224 C    1.020   222 C    0.976   243 H    0.961
                           242 H    0.960
   224   6 C    3.919 --   225 C    1.461   216 C    1.165   223 C    1.020
                            47 Fe   0.102
   225   6 C    3.988 --   224 C    1.461   226 C    1.414   244 H    0.962
   226   6 C    3.879 --   225 C    1.414   227 C    1.371   245 H    0.970
   227   6 C    3.988 --   228 C    1.524   226 C    1.371   246 H    0.962
   228   6 C    3.926 --   227 C    1.524   216 C    1.167   247 H    0.966
                            47 Fe   0.104
   229   1 H    0.999 --   217 C    0.988
   230   1 H    0.998 --   217 C    0.989
   231   1 H    0.999 --   217 C    0.987
   232   1 H    0.999 --   219 C    0.989
   233   1 H    1.000 --   219 C    0.987
   234   1 H    0.999 --   219 C    0.986
   235   1 H    0.999 --   220 C    0.984
   236   1 H    0.999 --   220 C    0.989
   237   1 H    0.999 --   220 C    0.988
   238   1 H    0.999 --   221 C    0.973
   239   1 H    0.999 --   221 C    0.978
   240   1 H    0.999 --   222 C    0.980
   241   1 H    0.999 --   222 C    0.980
   242   1 H    0.996 --   223 C    0.960
   243   1 H    0.997 --   223 C    0.961
   244   1 H    0.991 --   225 C    0.962
   245   1 H    0.997 --   226 C    0.970
   246   1 H    0.990 --   227 C    0.962
   247   1 H    0.998 --   228 C    0.966
 ---------------------------------------------------------------------------

Topologies differ in total number of bonds
Writing topology from bond orders to xtbtopo.mol

molecular dipole:
                 x           y           z       tot (Debye)
 q only:        4.204       0.963      -0.184
   full:        4.297       1.293      -0.119      11.409
molecular quadrupole (traceless):
                xx          xy          yy          xz          yz          zz
 q only:       49.937      -2.617      55.867      21.663     -34.198    -105.804
  q+dip:       43.438      -6.117      61.882      23.252     -39.293    -105.321
   full:       44.988      -7.071      68.225      26.818     -45.737    -113.213

           -------------------------------------------------
          |                Geometry Summary                 |
           -------------------------------------------------

      molecular mass/u    :     1954.4864694
   center of mass at/Å    :       -0.0185963      -0.0939818       0.0416224
  moments of inertia/u·Å² :        0.5116294E+05   0.6408017E+05   0.6737209E+05
rotational constants/cm⁻¹ :        0.3294891E-03   0.2630710E-03   0.2502169E-03

 * 239 selected distances

     #   Z          #   Z                                           value/Å
     1   7 N        4   6 C                                       1.3706704
     3   6 C        4   6 C                                       1.4127660
     5   6 C        6   1 H                                       1.0909021
     5   6 C        7   6 C                                       1.3665557
     7   6 C        8   1 H                                       1.0908326
     1   7 N        9   6 C                                       1.3745617
     9   6 C       10   6 C                                       1.4095602
     2   7 N       11   6 C                                       1.3724975
    10   6 C       11   6 C                                       1.4089934
    12   6 C       13   1 H                                       1.0910214
    12   6 C       14   6 C                                       1.3655340
    14   6 C       15   1 H                                       1.0908481
     2   7 N       16   6 C                                       1.3718208
    17   6 C       18   6 C                                       1.4152130
    18   6 C       19   6 C                                       1.4068158
    19   6 C       20   6 C                                       1.3979339
    20   6 C       21   1 H                                       1.0979906
    20   6 C       22   6 C                                       1.3972876
    17   6 C       23   6 C                                       1.4158229
    22   6 C       23   6 C                                       1.4078411
    16   6 C       26   6 C                                       1.4104670
    24   7 N       27   6 C                                       1.3719359
    26   6 C       27   6 C                                       1.4124296
    28   6 C       29   1 H                                       1.0908288
    28   6 C       30   6 C                                       1.3674018
    30   6 C       31   1 H                                       1.0904835
    24   7 N       32   6 C                                       1.3755287
    30   6 C       32   6 C                                       1.4481469
    32   6 C       33   6 C                                       1.4079559
    25   7 N       34   6 C                                       1.3723162
    33   6 C       34   6 C                                       1.4083246
    34   6 C       35   6 C                                       1.4494142
    35   6 C       36   1 H                                       1.0905815
    35   6 C       37   6 C                                       1.3657136
    37   6 C       38   1 H                                       1.0908378
     3   6 C       39   6 C                                       1.4104817
    25   7 N       39   6 C                                       1.3731944
    40   6 C       41   6 C                                       1.4166060
    41   6 C       42   6 C                                       1.4067573
    42   6 C       43   6 C                                       1.3982364
    43   6 C       44   1 H                                       1.0979464
    43   6 C       45   6 C                                       1.3980464
    40   6 C       46   6 C                                       1.4147651
    45   6 C       46   6 C                                       1.4076392
    49   6 C       50   6 C                                       1.4205068
    49   6 C       51   6 C                                       1.4230223
    50   6 C       52   6 C                                       1.4093765
    50   6 C       53   7 N                                       1.4190251
    51   6 C       54   6 C                                       1.4115448
    51   6 C       55   7 N                                       1.4151971
    52   6 C       56   1 H                                       1.0933453
    52   6 C       57   6 C                                       1.3981502
    54   6 C       57   6 C                                       1.3973735
    53   7 N       58   6 C                                       1.3766537
    53   7 N       59   1 H                                       1.0214946
    54   6 C       60   1 H                                       1.0929259
    55   7 N       61   6 C                                       1.3810871
    55   7 N       62   1 H                                       1.0244430
    57   6 C       63   1 H                                       1.0976620
    58   6 C       64   8 O                                       1.2261872
    61   6 C       66   8 O                                       1.2272584
    65   6 C       68   6 C                                       1.5075364
    65   6 C       69   1 H                                       1.0953857
    65   6 C       70   6 C                                       1.5333801
    68   6 C       70   6 C                                       1.5096156
    67   6 C       71   6 C                                       1.5084529
    67   6 C       72   1 H                                       1.0960895
    67   6 C       73   6 C                                       1.5347059
    71   6 C       73   6 C                                       1.5102577
    68   6 C       74   1 H                                       1.0927438
    68   6 C       75   1 H                                       1.0918582
    70   6 C       76   1 H                                       1.0928477
    71   6 C       78   1 H                                       1.0936865
    71   6 C       79   1 H                                       1.0934842
    73   6 C       80   1 H                                       1.0944526
    77   6 C       82   8 O                                       1.3439858
    77   6 C       83   8 O                                       1.2161714
    81   6 C       84   8 O                                       1.3514355
    81   6 C       85   8 O                                       1.2145601
    86   6 C       88   6 C                                       1.5349744
    86   6 C       89   6 C                                       1.5278874
    86   6 C       90   1 H                                       1.1046433
    87   6 C       91   6 C                                       1.5295308
    87   6 C       92   6 C                                       1.5328320
    87   6 C       93   1 H                                       1.1066184
    88   6 C       94   1 H                                       1.1023053
    88   6 C       95   1 H                                       1.0981043
    88   6 C       96   1 H                                       1.0987010
    89   6 C       97   1 H                                       1.0975696
    89   6 C       98   1 H                                       1.0982456
    89   6 C       99   1 H                                       1.0974663
    91   6 C      100   1 H                                       1.0977219
    91   6 C      101   1 H                                       1.1004276
    91   6 C      102   1 H                                       1.0986638
    92   6 C      103   1 H                                       1.0985269
    92   6 C      104   1 H                                       1.0989077
    92   6 C      105   1 H                                       1.1006739
   106   6 C      107   6 C                                       1.4212764
   106   6 C      108   6 C                                       1.4221450
   107   6 C      109   6 C                                       1.4089657
   107   6 C      110   7 N                                       1.4181822
   108   6 C      111   6 C                                       1.4110523
   108   6 C      112   7 N                                       1.4145085
   109   6 C      113   1 H                                       1.0937172
   109   6 C      114   6 C                                       1.3989432
   111   6 C      114   6 C                                       1.3981226
   110   7 N      115   6 C                                       1.3776342
   110   7 N      116   1 H                                       1.0213951 (min)
   111   6 C      117   1 H                                       1.0933268
   112   7 N      118   6 C                                       1.3804622
   112   7 N      119   1 H                                       1.0235808
   114   6 C      120   1 H                                       1.0977776
   115   6 C      121   8 O                                       1.2253881
   118   6 C      123   8 O                                       1.2269666
   122   6 C      125   6 C                                       1.5091059
   122   6 C      126   1 H                                       1.0956067
   122   6 C      127   6 C                                       1.5284867
   125   6 C      127   6 C                                       1.5106023
   124   6 C      128   6 C                                       1.5070565
   124   6 C      129   1 H                                       1.0963544
   124   6 C      130   6 C                                       1.5364144
   128   6 C      130   6 C                                       1.5095108
   125   6 C      131   1 H                                       1.0932786
   125   6 C      132   1 H                                       1.0925830
   127   6 C      133   1 H                                       1.0931693
   128   6 C      135   1 H                                       1.0931886
   128   6 C      136   1 H                                       1.0932693
   130   6 C      137   1 H                                       1.0943464
   134   6 C      139   8 O                                       1.3431337
   134   6 C      140   8 O                                       1.2169442
   138   6 C      141   8 O                                       1.3505106
   138   6 C      142   8 O                                       1.2146155
   143   6 C      145   6 C                                       1.5294228
   143   6 C      146   6 C                                       1.5315008
   143   6 C      147   1 H                                       1.1067555
   144   6 C      148   6 C                                       1.5340651
   144   6 C      149   6 C                                       1.5282497
   144   6 C      150   1 H                                       1.1051784
   145   6 C      151   1 H                                       1.0974856
   145   6 C      152   1 H                                       1.1006272
   145   6 C      153   1 H                                       1.0984308
   146   6 C      154   1 H                                       1.0975232
   146   6 C      155   1 H                                       1.0986698
   146   6 C      156   1 H                                       1.1009536
   148   6 C      157   1 H                                       1.1020951
   148   6 C      158   1 H                                       1.0987980
   148   6 C      159   1 H                                       1.0988619
   149   6 C      160   1 H                                       1.0991349
   149   6 C      161   1 H                                       1.0982621
   149   6 C      162   1 H                                       1.0979052
    19   6 C      163   1 H                                       1.0962934
    22   6 C      164   1 H                                       1.0961328
    42   6 C      165   1 H                                       1.0960717
    45   6 C      166   1 H                                       1.0964205
    18   6 C      167   8 O                                       1.3767674
    23   6 C      168   8 O                                       1.3752223
    41   6 C      169   8 O                                       1.3772110
    46   6 C      170   8 O                                       1.3755990
   167   8 O      171   6 C                                       1.3946047
   171   6 C      172   6 C                                       1.4017872
   171   6 C      173   6 C                                       1.4012107
   172   6 C      174   6 C                                       1.4008236
   172   6 C      175   1 H                                       1.0949458
   173   6 C      176   6 C                                       1.4012008
   173   6 C      177   1 H                                       1.0948320
   174   6 C      178   6 C                                       1.4009888
   176   6 C      178   6 C                                       1.4010334
   174   6 C      179   1 H                                       1.0960063
   176   6 C      180   1 H                                       1.0958018
   178   6 C      181   1 H                                       1.0981821
   168   8 O      182   6 C                                       1.3910760
   182   6 C      183   6 C                                       1.4023504
   182   6 C      184   6 C                                       1.4017254
   183   6 C      185   6 C                                       1.4002217
   183   6 C      186   1 H                                       1.0952480
   184   6 C      187   6 C                                       1.4003989
   184   6 C      188   1 H                                       1.0947760
   185   6 C      189   6 C                                       1.4008110
   187   6 C      189   6 C                                       1.4005863
   185   6 C      190   1 H                                       1.0956131
   187   6 C      191   1 H                                       1.0953942
   189   6 C      192   1 H                                       1.0979976
   169   8 O      193   6 C                                       1.3871566
   193   6 C      194   6 C                                       1.4044048
   193   6 C      195   6 C                                       1.4044728
   194   6 C      196   6 C                                       1.4011894
   194   6 C      197   1 H                                       1.0955143
   195   6 C      198   6 C                                       1.3982531
   195   6 C      199   1 H                                       1.0946268
   196   6 C      200   6 C                                       1.4011001
   198   6 C      200   6 C                                       1.4021766
   196   6 C      201   1 H                                       1.0973970
   198   6 C      202   1 H                                       1.0956206
   200   6 C      203   1 H                                       1.0977774
   170   8 O      204   6 C                                       1.3900463
   204   6 C      205   6 C                                       1.4024431
   204   6 C      206   6 C                                       1.4023793
   205   6 C      207   6 C                                       1.4002926
   205   6 C      208   1 H                                       1.0951051
   206   6 C      209   6 C                                       1.4002952
   206   6 C      210   1 H                                       1.0945642
   207   6 C      211   6 C                                       1.4006627
   209   6 C      211   6 C                                       1.4004775
   207   6 C      212   1 H                                       1.0954471
   209   6 C      213   1 H                                       1.0953415
   211   6 C      214   1 H                                       1.0980564
    47  26 Fe     215   7 N                                       1.6315612
   215   7 N      216   6 C                                       1.2944054
   217   6 C      218  14 Si                                      1.9130841
   218  14 Si     219   6 C                                       1.9071900
   218  14 Si     220   6 C                                       1.9063324
   218  14 Si     221   6 C                                       1.9181745 (max)
   221   6 C      222   6 C                                       1.5254287
   222   6 C      223   6 C                                       1.5388467
   216   6 C      224   6 C                                       1.4312541
   224   6 C      225   6 C                                       1.3802222
   225   6 C      226   6 C                                       1.3860106
   226   6 C      227   6 C                                       1.3916896
   216   6 C      228   6 C                                       1.4287536
   227   6 C      228   6 C                                       1.3689495
   217   6 C      229   1 H                                       1.0860124
   217   6 C      230   1 H                                       1.0859385
   217   6 C      231   1 H                                       1.0859425
   219   6 C      232   1 H                                       1.0853619
   219   6 C      233   1 H                                       1.0857455
   219   6 C      234   1 H                                       1.0860164
   220   6 C      235   1 H                                       1.0842167
   220   6 C      236   1 H                                       1.0857102
   220   6 C      237   1 H                                       1.0853857
   221   6 C      238   1 H                                       1.0913241
   221   6 C      239   1 H                                       1.0911062
   222   6 C      240   1 H                                       1.0921851
   222   6 C      241   1 H                                       1.0919866
   223   6 C      242   1 H                                       1.0930851
   223   6 C      243   1 H                                       1.0903642
   225   6 C      244   1 H                                       1.0805619
   226   6 C      245   1 H                                       1.0778030
   227   6 C      246   1 H                                       1.0789842
   228   6 C      247   1 H                                       1.0780387

 * 7 distinct bonds (by element types)

   Z      Z             #   av. dist./Å        max./Å        min./Å
   1 H    6 C         103     1.0944812     1.1067555     1.0778030
   6 C    6 C          90     1.4331469     1.5388467     1.3655340
   1 H    7 N           4     1.0227284     1.0244430     1.0213951
   6 C    7 N          17     1.3799812     1.4190251     1.2944054
   6 C    8 O          20     1.3112420     1.3946047     1.2145601
   6 C   14 Si          4     1.9111952     1.9181745     1.9063324
   7 N   26 Fe          1     1.6315612     1.6315612     1.6315612


optimized geometry written to: xtbopt.xyz


           -------------------------------------------------
          | TOTAL ENERGY             -395.554601969511 Eh   |
          | GRADIENT NORM               0.000365232297 Eh/α |
          | HOMO-LUMO GAP               0.076786100325 eV   |
           -------------------------------------------------

------------------------------------------------------------------------
 * finished run on 2026/07/31 at 15:21:21.202     
------------------------------------------------------------------------
 total:
 * wall-time:     0 d,  0 h,  1 min,  3.192 sec
 *  cpu-time:     0 d,  0 h,  2 min, 22.833 sec
 * ratio c/w:     2.260 speedup
 SCF:
 * wall-time:     0 d,  0 h,  0 min,  1.783 sec
 *  cpu-time:     0 d,  0 h,  0 min,  3.968 sec
 * ratio c/w:     2.225 speedup
 ANC optimizer:
 * wall-time:     0 d,  0 h,  1 min,  1.352 sec
 *  cpu-time:     0 d,  0 h,  2 min, 18.771 sec
 * ratio c/w:     2.262 speedup

