26

N      2.057843   -0.041527    2.552309
C      2.698606    0.099205    1.286941
C      4.017412   -0.343652    1.128045
C      4.658891   -0.210959   -0.107057
C      3.985038    0.365722   -1.187087
C      2.668323    0.809707   -1.034225
C      2.018324    0.675663    0.199846
S      0.326120    1.256097    0.371708
C     -0.401492   -0.340190   -0.122041
C     -1.898446   -0.241097   -0.080991
C     -2.594725   -0.523497    1.106117
C     -3.986843   -0.398669    1.152284
C     -4.690879    0.017987    0.019049
C     -4.003525    0.314719   -1.161202
C     -2.611425    0.191242   -1.211702
H      4.545919   -0.790217    1.960977
H      5.678345   -0.554273   -0.226725
H      4.483026    0.468753   -2.142513
H      2.152837    1.254660   -1.875919
H     -0.063501   -0.602702   -1.147984
H     -0.053128   -1.139585    0.567372
H     -2.060056   -0.838257    1.993875
H     -4.519517   -0.621574    2.067734
H     -5.768165    0.115355    0.056843
H     -4.549122    0.643877   -2.036105
H     -2.089862    0.433213   -2.129547
