26

N     -1.082537   -1.842244   -0.598185
C     -1.707910   -0.658052   -0.110064
C     -2.530165    0.088270   -0.962501
C     -3.159313    1.245894   -0.495539
C     -2.972397    1.659168    0.826208
C     -2.151478    0.918826    1.681695
C     -1.506801   -0.235043    1.216327
S     -0.442391   -1.163056    2.332129
C      1.029914   -0.110355    2.073108
C      1.596026   -0.300706    0.692981
C      1.394477    0.672512   -0.300754
C      1.891788    0.473232   -1.592155
C      2.592334   -0.696107   -1.900375
C      2.795400   -1.669160   -0.917886
C      2.298081   -1.474832    0.374488
H     -2.683643   -0.229154   -1.986282
H     -3.794501    1.820611   -1.157098
H     -3.462903    2.553738    1.187525
H     -2.009028    1.247892    2.703189
H      1.797100   -0.392596    2.824752
H      0.769242    0.954142    2.258085
H      0.843425    1.578225   -0.079385
H      1.730788    1.223877   -2.355038
H      2.975584   -0.849298   -2.900895
H      3.335047   -2.575904   -1.158720
H      2.453862   -2.239880    1.125070
