26

N     -1.758263    1.073495   -2.353473
C     -2.520740    0.382401   -1.367290
C     -3.882276    0.673426   -1.218469
C     -4.642803    0.002587   -0.256101
C     -4.045561   -0.962046    0.559920
C     -2.686666   -1.256744    0.415744
C     -1.917934   -0.584874   -0.543964
S     -0.173400   -0.983074   -0.711389
C      0.354663    0.266582    0.505514
C      1.849883    0.240360    0.632027
C      2.467799   -0.614682    1.559845
C      3.862353   -0.662021    1.653211
C      4.648082    0.134578    0.815621
C      4.040653    0.976832   -0.119861
C      2.646445    1.027252   -0.216543
H     -4.351769    1.418737   -1.848233
H     -5.695022    0.229793   -0.143480
H     -4.635590   -1.481382    1.303964
H     -2.231175   -2.004770    1.052253
H     -0.116287    0.051557    1.489222
H      0.017208    1.273871    0.178144
H      1.870571   -1.243890    2.208253
H      4.333991   -1.318961    2.372561
H      5.727281    0.095754    0.888258
H      4.650261    1.588149   -0.772661
H      2.188293    1.677070   -0.951996
