26

N      0.393698    0.797587    2.226706
C      1.385258    0.586782    1.224691
C      2.100713    1.680334    0.722680
C      3.083949    1.488612   -0.252239
C      3.358604    0.202818   -0.725569
C      2.646606   -0.892826   -0.229082
C      1.650155   -0.706264    0.738320
S      0.736181   -2.130501    1.351017
C     -0.463737   -2.165245   -0.028092
C     -1.405991   -0.995445    0.043978
C     -2.421607   -0.966692    1.013817
C     -3.277043    0.135685    1.104999
C     -3.122295    1.216607    0.232638
C     -2.111949    1.196962   -0.732729
C     -1.255625    0.095941   -0.828692
H      1.896735    2.678704    1.088862
H      3.635396    2.336166   -0.638222
H      4.122578    0.055313   -1.477892
H      2.862999   -1.885203   -0.603768
H     -1.046250   -3.108237    0.040074
H      0.077942   -2.186755   -0.998370
H     -2.545495   -1.794481    1.701098
H     -4.057640    0.153590    1.854500
H     -3.783545    2.070250    0.306325
H     -1.989831    2.036702   -1.404520
H     -0.469804    0.099598   -1.573975
