26

N     -2.279233    1.832014   -1.530462
C     -2.802272    0.891711   -0.595690
C     -4.105679    0.407184   -0.759962
C     -4.632231   -0.514566    0.149818
C     -3.858482   -0.954293    1.227341
C     -2.556605   -0.473902    1.396366
C     -2.021488    0.446752    0.485628
S     -0.346049    1.051086    0.725787
C      0.407526   -0.281179   -0.263423
C      1.895620   -0.091164   -0.306403
C      2.711490   -0.657789    0.687104
C      4.094545   -0.451962    0.664009
C      4.670134    0.327821   -0.343034
C      3.863095    0.906756   -1.326401
C      2.479619    0.703467   -1.307046
H     -4.711209    0.744605   -1.591825
H     -5.640074   -0.887258    0.020110
H     -4.267557   -1.667194    1.931525
H     -1.963271   -0.819996    2.233224
H     -0.009107   -0.263795   -1.293857
H      0.160592   -1.266416    0.188288
H      2.276900   -1.256387    1.478198
H      4.719729   -0.894132    1.428933
H      5.740553    0.487228   -0.358690
H      4.309151    1.516076   -2.101799
H      1.864303    1.165332   -2.069360
