26

N     -2.243550    0.722677   -2.279234
C     -2.779210    0.129798   -1.098936
C     -4.103229    0.398802   -0.731196
C     -4.642292   -0.176668    0.423284
C     -3.860450   -1.023707    1.213443
C     -2.538002   -1.295896    0.851129
C     -1.990446   -0.718870   -0.302396
S     -0.288521   -1.085989   -0.748122
C      0.391620    0.310019    0.205772
C      1.884339    0.339455    0.053136
C      2.701586   -0.385265    0.936683
C      4.090421   -0.383376    0.772762
C      4.670903    0.332088   -0.278261
C      3.863175    1.043509   -1.169858
C      2.473926    1.044310   -1.009571
H     -4.715075    1.053121   -1.339495
H     -5.666064    0.033229    0.704897
H     -4.279187   -1.469361    2.106471
H     -1.938548   -1.952515    1.468919
H     -0.048069    1.263074   -0.160338
H      0.118838    0.197469    1.277515
H      2.263654   -0.951276    1.749619
H      4.716448   -0.939519    1.458527
H      5.745852    0.331417   -0.404502
H      4.313327    1.591584   -1.987448
H      1.858553    1.591891   -1.712798
