26

N     -0.430906   -0.793849    2.147479
C     -1.411313   -0.318517    1.228498
C     -2.176556    0.806387    1.558254
C     -3.149539    1.278212    0.672443
C     -3.364121    0.624788   -0.544002
C     -2.602233   -0.498119   -0.879380
C     -1.615809   -0.968337   -0.002197
S     -0.636966   -2.406668   -0.462921
C      0.563703   -1.473731   -1.478289
C      1.450681   -0.616876   -0.617744
C      2.463566   -1.205753    0.156967
C      3.266934   -0.414882    0.984279
C      3.062500    0.966305    1.046599
C      2.054455    1.559179    0.281444
C      1.250141    0.772471   -0.548566
H     -2.019213    1.314318    2.501488
H     -3.739579    2.148108    0.930429
H     -4.120197    0.989035   -1.227432
H     -2.772254   -0.996350   -1.825364
H      0.023908   -0.862854   -2.233781
H      1.189291   -2.202283   -2.036009
H      2.625489   -2.276088    0.123755
H      4.045624   -0.873337    1.579982
H      3.683428    1.576639    1.689506
H      1.893736    2.628180    0.334224
H      0.465229    1.244020   -1.126953
