26

N     -0.579770    0.076021    2.172817
C     -1.493448    0.037317    1.079492
C     -2.356153   -1.056450    0.941065
C     -3.265479   -1.103928   -0.119523
C     -3.318792   -0.056382   -1.042861
C     -2.458995    1.037756   -0.910618
C     -1.535573    1.085441    0.142284
S     -0.428282    2.497306    0.282778
C      0.805146    1.861779   -0.907899
C      1.548338    0.683669   -0.341162
C      1.255414   -0.620330   -0.775981
C      1.923878   -1.714738   -0.219049
C      2.887404   -1.516053    0.773553
C      3.183015   -0.222393    1.212201
C      2.515486    0.874894    0.659312
H     -2.323876   -1.869063    1.655948
H     -3.931187   -1.950929   -0.223663
H     -4.025732   -0.092719   -1.861590
H     -2.504202    1.843416   -1.632348
H      0.304631    1.599564   -1.865002
H      1.526649    2.676025   -1.130695
H      0.502845   -0.790260   -1.536074
H      1.692162   -2.717322   -0.554478
H      3.403061   -2.364469    1.204456
H      3.926894   -0.070060    1.983462
H      2.746567    1.871908    1.013575
