26

N     -1.195770   -0.024022   -2.022586
C     -1.745762   -0.008632   -0.707695
C     -2.517320   -1.092017   -0.270977
C     -3.072725   -1.086933    1.011785
C     -2.862632    0.002868    1.860867
C     -2.092034    1.086922    1.430891
C     -1.520890    1.082358    0.151298
S     -0.519711    2.482634   -0.374121
C      1.016903    1.899718    0.427114
C      1.572568    0.694060   -0.279353
C      1.435128   -0.587233    0.281612
C      1.921387   -1.708589   -0.397256
C      2.546987   -1.559592   -1.638040
C      2.685969   -0.288814   -2.202984
C      2.199386    0.835225   -1.528378
H     -2.688568   -1.937314   -0.925642
H     -3.668860   -1.926043    1.346359
H     -3.296147    0.007126    2.852557
H     -1.931051    1.925640    2.096221
H      1.763140    2.721255    0.389587
H      0.823892    1.684162    1.500242
H      0.942178   -0.719051    1.236914
H      1.809842   -2.693643    0.037030
H      2.921754   -2.428850   -2.162756
H      3.167505   -0.175071   -3.165578
H      2.304831    1.813836   -1.980198
