26

N     -0.442770    1.384463   -1.772953
C     -1.417000    0.828977   -0.893195
C     -2.175374    1.679396   -0.079928
C     -3.142308    1.150834    0.780093
C     -3.357711   -0.229073    0.827041
C     -2.602661   -1.083350    0.018348
C     -1.622247   -0.561456   -0.836053
S     -0.652061   -1.682633   -1.856298
C      0.558214   -2.093676   -0.548923
C      1.448494   -0.920069   -0.246401
C      2.454849   -0.546361   -1.152206
C      3.261164    0.565455   -0.889444
C      3.066188    1.312686    0.275452
C      2.064672    0.949246    1.179882
C      1.257447   -0.162813    0.922080
H     -2.017385    2.750021   -0.115168
H     -3.727045    1.811048    1.407487
H     -4.109119   -0.636760    1.490803
H     -2.773251   -2.151475    0.063454
H      1.180419   -2.942230   -0.903915
H      0.025026   -2.440113    0.362675
H      2.609397   -1.112379   -2.062522
H      4.034792    0.849980   -1.590833
H      3.689378    2.174548    0.475992
H      1.911260    1.531515    2.079218
H      0.477632   -0.425782    1.626149
