26

N     -0.844166    0.395343   -2.047939
C     -1.607424    0.308908   -0.847259
C     -2.312366    1.431349   -0.396782
C     -3.074281    1.359345    0.772952
C     -3.137852    0.164070    1.494077
C     -2.435069   -0.959646    1.049968
C     -1.658352   -0.890626   -0.114307
S     -0.749986   -2.346229   -0.657709
C      0.684960   -2.067701    0.440611
C      1.487141   -0.877220   -0.007417
C      2.296438   -0.962581   -1.152249
C      3.016227    0.153311   -1.590439
C      2.930190    1.360931   -0.892151
C      2.124385    1.454751    0.245827
C      1.404501    0.340986    0.688594
H     -2.271834    2.359142   -0.953556
H     -3.618227    2.228916    1.118485
H     -3.730962    0.108641    2.397709
H     -2.486697   -1.880754    1.616467
H      0.338660   -1.948059    1.489935
H      1.327424   -2.973014    0.411457
H      2.363991   -1.890489   -1.706650
H      3.637862    0.082859   -2.473620
H      3.485848    2.224428   -1.234212
H      2.054580    2.391762    0.782964
H      0.775009    0.431579    1.565241
