26

N      1.674229   -2.810379   -0.114770
C      2.486188   -1.663473    0.123701
C      3.820986   -1.662730   -0.299306
C      4.629476   -0.545210   -0.071115
C      4.107133    0.574763    0.581513
C      2.775245    0.579593    1.006106
C      1.958491   -0.535593    0.776604
S      0.250132   -0.505838    1.333938
C     -0.374649    0.202879   -0.224494
C     -1.863589    0.369198   -0.136341
C     -2.717134   -0.682119   -0.510473
C     -4.103451   -0.537737   -0.396511
C     -4.645579    0.650833    0.100366
C     -3.802068    1.695605    0.488229
C     -2.415175    1.555405    0.375938
H      4.232585   -2.527595   -0.804392
H      5.660858   -0.547684   -0.399316
H      4.734290    1.438952    0.758425
H      2.377805    1.451361    1.510309
H      0.109941    1.186418   -0.407620
H     -0.115377   -0.468639   -1.071561
H     -2.309311   -1.611669   -0.888195
H     -4.757365   -1.348705   -0.690117
H     -5.718681    0.760464    0.189169
H     -4.222762    2.612975    0.879287
H     -1.772217    2.368925    0.688680
