26

N     -2.028986    0.906623   -2.347636
C     -2.676660    0.648579   -1.104466
C     -4.016146    0.240755   -1.095623
C     -4.664569   -0.014756    0.116335
C     -3.976966    0.137507    1.323448
C     -2.639583    0.544482    1.320679
C     -1.982724    0.797981    0.109204
S     -0.263782    1.322105    0.132111
C      0.384019   -0.379936    0.063155
C      1.884313   -0.343491    0.050227
C      2.580052   -0.247516   -1.166537
C      3.976869   -0.180184   -1.175227
C      4.686655   -0.197776    0.028677
C      4.000567   -0.278393    1.243700
C      2.603782   -0.345890    1.256926
H     -4.555332    0.122027   -2.027127
H     -5.700019   -0.329878    0.119866
H     -4.480304   -0.059707    2.261107
H     -2.113576    0.659392    2.259971
H      0.006938   -0.887216   -0.851262
H      0.022874   -0.952442    0.944927
H      2.041396   -0.223565   -2.105863
H      4.508895   -0.110793   -2.115234
H      5.767635   -0.144255    0.020259
H      4.550945   -0.285022    2.175644
H      2.083706   -0.398631    2.205480
