      -----------------------------------------------------------      
     |                   =====================                   |     
     |                           x T B                           |     
     |                   =====================                   |     
     |                         S. Grimme                         |     
     |          Mulliken Center for Theoretical Chemistry        |     
     |                    University of Bonn                     |     
      -----------------------------------------------------------      

   * xtb version 6.7.1 (edcfbbe) compiled by 'runner@sat12-gn217-0cbadaec-b866-44ae-a866-732403219ae3-6E01A8DFFD18.local' on 2026-06-10

   xtb is free software: you can redistribute it and/or modify it under
   the terms of the GNU Lesser General Public License as published by
   the Free Software Foundation, either version 3 of the License, or
   (at your option) any later version.
   
   xtb is distributed in the hope that it will be useful,
   but WITHOUT ANY WARRANTY; without even the implied warranty of
   MERCHANTABILITY or FITNESS FOR A PARTICULAR PURPOSE.  See the
   GNU Lesser General Public License for more details.
   
   Cite this work as:
   * C. Bannwarth, E. Caldeweyher, S. Ehlert, A. Hansen, P. Pracht,
     J. Seibert, S. Spicher, S. Grimme, WIREs Comput. Mol. Sci., 2020, 11,
     e01493. DOI: 10.1002/wcms.1493
   
   for GFN2-xTB:
   * C. Bannwarth, S. Ehlert and S. Grimme., J. Chem. Theory Comput., 2019,
     15, 1652-1671. DOI: 10.1021/acs.jctc.8b01176
   for GFN1-xTB:
   * S. Grimme, C. Bannwarth, P. Shushkov, J. Chem. Theory Comput., 2017,
     13, 1989-2009. DOI: 10.1021/acs.jctc.7b00118
   for GFN0-xTB:
   * P. Pracht, E. Caldeweyher, S. Ehlert, S. Grimme, ChemRxiv, 2019, preprint.
     DOI: 10.26434/chemrxiv.8326202.v1
   for GFN-FF:
   * S. Spicher and S. Grimme, Angew. Chem. Int. Ed., 2020, 59, 15665-15673.
     DOI: 10.1002/anie.202004239
   
   for ALPB and GBSA implicit solvation:
   * S. Ehlert, M. Stahn, S. Spicher, S. Grimme, J. Chem. Theory Comput.,
     2021, 17, 4250-4261. DOI: 10.1021/acs.jctc.1c00471
   
   for ddCOSMO and CPCM-X implicit solvation:
   * M. Stahn, S. Ehlert, S. Grimme, J. Phys. Chem. A,
     2023, XX, XXXX-XXXX. DOI: 10.1021/acs.jpca.3c04382
   
   for DFT-D4:
   * E. Caldeweyher, C. Bannwarth and S. Grimme, J. Chem. Phys., 2017,
     147, 034112. DOI: 10.1063/1.4993215
   * E. Caldeweyher, S. Ehlert, A. Hansen, H. Neugebauer, S. Spicher,
     C. Bannwarth and S. Grimme, J. Chem. Phys., 2019, 150, 154122.
     DOI: 10.1063/1.5090222
   * E. Caldeweyher, J.-M. Mewes, S. Ehlert and S. Grimme, Phys. Chem. Chem. Phys.
     2020, 22, 8499-8512. DOI: 10.1039/D0CP00502A
   
   for sTDA-xTB:
   * S. Grimme and C. Bannwarth, J. Chem. Phys., 2016, 145, 054103.
     DOI: 10.1063/1.4959605
   
   in the mass-spec context:
   * V. Asgeirsson, C. Bauer and S. Grimme, Chem. Sci., 2017, 8, 4879.
     DOI: 10.1039/c7sc00601b
   * J. Koopman and S. Grimme, ACS Omega 2019, 4, 12, 15120-15133.
     DOI: 10.1021/acsomega.9b02011
   
   for metadynamics refer to:
   * S. Grimme, J. Chem. Theory Comput., 2019, 155, 2847-2862
     DOI: 10.1021/acs.jctc.9b00143
   
   for SPH calculations refer to:
   * S. Spicher and S. Grimme, J. Chem. Theory Comput., 2021, 17, 1701-1714
     DOI: 10.1021/acs.jctc.0c01306
   
   for ONIOM refer to:
   * C. Plett, A. Katbashev, S. Ehlert, S. Grimme, M. Bursch,
     Phys. Chem. Chem. Phys., 2023, 25, 17860-17868. DOI: 10.1039/D3CP02178E
   
   for DIPRO refer to:
   * J. Kohn, N. Gildemeister, S. Grimme, D. Fazzi, A. Hansen,
     J. Chem. Phys., 2023, just accepted.
   
   for PTB refer to:
   * S. Grimme, M. Mueller, A. Hansen, J. Chem. Phys., 2023, 158, 124111.
     DOI: 10.1063/5.0137838
   
   with help from (in alphabetical order)
   P. Atkinson, C. Bannwarth, F. Bohle, G. Brandenburg, E. Caldeweyher
   M. Checinski, S. Dohm, S. Ehlert, S. Ehrlich, I. Gerasimov, C. Hölzer
   A. Katbashev, J. Kohn, J. Koopman, C. Lavigne, S. Lehtola, F. März, M. Müller,
   F. Musil, H. Neugebauer, J. Pisarek, C. Plett, P. Pracht, F. Pultar,
   J. Seibert, P. Shushkov, S. Spicher, M. Stahn, M. Steiner, T. Strunk,
   J. Stückrath, T. Rose, and J. Unsleber
   
 * started run on 2026/09/07 at 18:12:24.729     
   ID    Z sym.   atoms
    1    7 N      1, 2, 24, 25, 53, 55, 110, 112, 215
    2    6 C      3-5, 7, 9-12, 14, 16-20, 22, 23, 26-28, 30, 32-35, 37,
                  39-43, 45, 46, 49-52, 54, 57, 58, 61, 65, 67, 68, 70, 71,
                  73, 77, 81, 86-89, 91, 92, 106-109, 111, 114, 115, 118,
                  122, 124, 125, 127, 128, 130, 134, 138, 143-146, 148, 149,
                  171-174, 176, 178, 182-185, 187, 189, 193-196, 198, 200,
                  204-207, 209, 211, 216-229
    3    1 H      6, 8, 13, 15, 21, 29, 31, 36, 38, 44, 56, 59, 60, 62, 63,
                  69, 72, 74-76, 78-80, 90, 93-105, 113, 116, 117, 119, 120,
                  126, 129, 131-133, 135-137, 147, 150-166, 175, 177,
                  179-181, 186, 188, 190-192, 197, 199, 201-203, 208, 210,
                  212-214, 230-242
    4   26 Fe     47
    5   17 Cl     48
    6    8 O      64, 66, 82-85, 121, 123, 139-142, 167-170

           -------------------------------------------------
          |                Calculation Setup                |
           -------------------------------------------------

          program call               : /Users/haywoodau3/Documents/genaisubstrate/.chem-env/bin/xtb input.xyz --gfnff --alpb ether --opt --input xcontrol
          coordinate file            : input.xyz
          omp threads                :                     1

          GFN-FF topology read from file successfully!
           ------------------------------------------------- 
          |                   G F N - F F                   |
          |          A general generic force-field          |
          |                  Version 1.0.3                  | 
           ------------------------------------------------- 
      * Solvation model:               ALPB
        Solvent                        ether
        Parameter file                 internal GFN-FF/ALPB
        Dielectric constant                4.3300E+00
        Reference state                gsolv [1 M gas/solution]
        Free energy shift                  6.7832E-03 Eh       4.2565E+00 kcal/mol
        Temperature                        2.9815E+02 K
        Density                            7.1300E-01 kg/L
        Solvent mass                       7.4120E+01 g/mol
        Interaction kernel             P16
        Born radius scaling (c1)           1.8092E+00
        Born radii integrator          GBOBC
        Born offset                        0.0000E+00 a0       0.0000E+00 AA
        H-bond correction              true
        Ion screening                  false
        Surface tension                    1.0000E-05 Eh       1.5569E+01 dyn/cm
        Grid points                               230 per atom
          Number of HB bonds (bound hydrogen)     170442
          Number of HB bonds (unbound hydrogen)   10596
          Number of XB bonds                      760

 E+G (total)                   0 d,  0 h,  0 min,  0.020 sec
 distance/D3 list               ...        0 min,  0.000 sec (  0.287%)
 non bonded repulsion           ...        0 min,  0.001 sec (  4.702%)
 dCN                            ...        0 min,  0.000 sec (  1.741%)
 EEQ energy and q               ...        0 min,  0.001 sec (  3.303%)
 D3                             ...        0 min,  0.001 sec (  6.411%)
 EEQ gradient                   ...        0 min,  0.000 sec (  1.905%)
 bonds                          ...        0 min,  0.001 sec (  5.864%)
 bend and torsion               ...        0 min,  0.000 sec (  0.736%)
 bonded ATM                     ...        0 min,  0.000 sec (  0.779%)
 HB/XB (incl list setup)        ...        0 min,  0.010 sec ( 52.548%)
 GBSA                           ...        0 min,  0.004 sec ( 23.004%)

         :::::::::::::::::::::::::::::::::::::::::::::::::::::
         ::                     SUMMARY                     ::
         :::::::::::::::::::::::::::::::::::::::::::::::::::::
         :: total energy             -47.096665043498 Eh    ::
         :: total w/o Gsolv          -46.950236813250 Eh    ::
         :: total w/o Gsasa/hb       -46.976518651017 Eh    ::
         :: gradient norm              2.627597196557 Eh/a0 ::
         ::.................................................::
         :: bond energy              -51.690625451843 Eh    ::
         :: angle energy               1.867635453165 Eh    ::
         :: torsion energy             0.760821234080 Eh    ::
         :: repulsion energy           3.615935493357 Eh    ::
         :: electrostat energy        -1.108632349754 Eh    ::
         :: dispersion energy         -0.319865967706 Eh    ::
         :: HB energy                 -0.014088363863 Eh    ::
         :: XB energy                 -0.000101695529 Eh    ::
         :: bonded atm energy         -0.061315165158 Eh    ::
         :: external energy            0.000000000000 Eh    ::
         :: -> Gsolv                  -0.146428230248 Eh    ::
         ::    -> Gborn               -0.026281837767 Eh    ::
         ::    -> Gsasa               -0.120534129550 Eh    ::
         ::    -> Ghb                 -0.006395474395 Eh    ::
         ::    -> Gshift               0.006783211464 Eh    ::
         :: add. restraining           0.000000000000 Eh    ::
         :: total charge              -0.000000000000 e     ::
         :::::::::::::::::::::::::::::::::::::::::::::::::::::

      ----------------------------------------------------------- 
     |                   =====================                   |
     |                        A N C O P T                        |
     |                   =====================                   |
     |               Approximate Normal Coordinate               |
     |                Rational Function Optimizer                |
      ----------------------------------------------------------- 
      ----------------------------------------------------------- 
     |                   =====================                   |
     |                        A N C O P T                        |
     |                   =====================                   |
     |               Approximate Normal Coordinate               |
     |                Rational Function Optimizer                |
      ----------------------------------------------------------- 

          ...................................................
          :                      SETUP                      :
          :.................................................:
          :   optimization level            normal          :
          :   max. optcycles                   726          :
          :   ANC micro-cycles                  20          :
          :   degrees of freedom                81          :
          :.................................................:
          :   RF solver                   davidson          :
          :   write xtbopt.log                true          :
          :   linear?                        false          :
          :   energy convergence         0.5000000E-05 Eh   :
          :   grad. convergence          0.1000000E-02 Eh/α :
          :   maxmium RF displ.          1.0000000          :
          :   Hlow (freq-cutoff)         0.1000000E-01      :
          :   Hmax (freq-cutoff)         5.0000000          :
          :   S6 in model hess.         20.0000000          :
          ...................................................

generating ANC from exact Hessian ...
Using GFN-FF Lindh-Hessian
 Shifting diagonal of input Hessian by    9.9908251984251462E-003
 Lowest  eigenvalues of input Hessian
    0.000000    0.000000    0.000000    0.000000    0.000000    0.010000
    0.000000    0.010003    0.010007    0.010015    0.010030    0.010039
    0.010046    0.010049    0.010057    0.010067    0.010152    0.010160
 Highest eigenvalues
   26.326929   28.654697   41.142963   63.982030  138.634829  234.474505


........................................................................
.............................. CYCLE    1 ..............................
........................................................................
     iter. time                 ...        0 min,  0.020 sec
 * total energy  :   -47.0966650 Eh     change        0.0000000E+00 Eh
   gradient norm :     1.5088376 Eh/α   predicted     0.0000000E+00 (   0.00%)
   displ. norm   :     0.3038218 α      lambda       -0.4535941E+00
   maximum displ.:     0.1210727 α      in ANC's #61, #75, #63, ...

........................................................................
.............................. CYCLE    2 ..............................
........................................................................
     iter. time                 ...        0 min,  0.019 sec
 * total energy  :   -47.5036357 Eh     change       -0.4069706E+00 Eh
   gradient norm :     0.8979134 Eh/α   predicted    -0.2477518E+00 ( -39.12%)
   displ. norm   :     0.3820341 α      lambda       -0.3405242E+00
   maximum displ.:     0.1517285 α      in ANC's #75, #70, #72, ...

........................................................................
.............................. CYCLE    3 ..............................
........................................................................
     iter. time                 ...        0 min,  0.019 sec
 * total energy  :   -47.7633453 Eh     change       -0.2597097E+00 Eh
   gradient norm :     0.4449046 Eh/α   predicted    -0.1951129E+00 ( -24.87%)
   displ. norm   :     0.3029911 α      lambda       -0.1298068E+00
   maximum displ.:     0.1207333 α      in ANC's #75, #70, #72, ...

........................................................................
.............................. CYCLE    4 ..............................
........................................................................
     iter. time                 ...        0 min,  0.019 sec
 * total energy  :   -47.8345679 Eh     change       -0.7122258E-01 Eh
   gradient norm :     0.2901876 Eh/α   predicted    -0.7087056E-01 (  -0.49%)
   displ. norm   :     0.1804041 α      lambda       -0.3976514E-01
   maximum displ.:     0.0755252 α      in ANC's #71, #75, #72, ...

........................................................................
.............................. CYCLE    5 ..............................
........................................................................
     iter. time                 ...        0 min,  0.019 sec
 * total energy  :   -47.8425121 Eh     change       -0.7944182E-02 Eh
   gradient norm :     0.2738263 Eh/α   predicted    -0.2052972E-01 ( 158.42%)
   displ. norm   :     0.2626912 α      lambda       -0.4983389E-01
   maximum displ.:     0.1174743 α      in ANC's #71, #74, #62, ...

........................................................................
.............................. CYCLE    6 ..............................
........................................................................
     iter. time                 ...        0 min,  0.019 sec
 * total energy  :   -47.8254627 Eh     change        0.1704936E-01 Eh
   gradient norm :     0.2376175 Eh/α   predicted    -0.2663656E-01 (-256.23%)
   displ. norm   :     0.2406694 α      lambda       -0.3578045E-01
   maximum displ.:     0.0972657 α      in ANC's #71, #62, #11, ...

........................................................................
.............................. CYCLE    7 ..............................
........................................................................
     iter. time                 ...        0 min,  0.019 sec
 * total energy  :   -47.7826118 Eh     change        0.4285097E-01 Eh
   gradient norm :     0.2176520 Eh/α   predicted    -0.1892650E-01 (-144.17%)
   displ. norm   :     0.2325007 α      lambda       -0.3012295E-01
   maximum displ.:     0.0840249 α      in ANC's #62, #11, #71, ...

........................................................................
.............................. CYCLE    8 ..............................
........................................................................
     iter. time                 ...        0 min,  0.019 sec
 * total energy  :   -47.7234894 Eh     change        0.5912237E-01 Eh
   gradient norm :     0.2307666 Eh/α   predicted    -0.1588096E-01 (-126.86%)
   displ. norm   :     0.3128372 α      lambda       -0.3856768E-01
   maximum displ.:     0.1091129 α      in ANC's #11, #62, #66, ...

........................................................................
.............................. CYCLE    9 ..............................
........................................................................
     iter. time                 ...        0 min,  0.019 sec
 * total energy  :   -47.6199327 Eh     change        0.1035567E+00 Eh
   gradient norm :     0.2559852 Eh/α   predicted    -0.2117154E-01 (-120.44%)
   displ. norm   :     0.3862374 α      lambda       -0.4392358E-01
   maximum displ.:     0.1361138 α      in ANC's #11, #66, #62, ...

........................................................................
.............................. CYCLE   10 ..............................
........................................................................
     iter. time                 ...        0 min,  0.019 sec
 * total energy  :   -47.4466066 Eh     change        0.1733261E+00 Eh
   gradient norm :     0.2537139 Eh/α   predicted    -0.2524078E-01 (-114.56%)
   displ. norm   :     0.3559906 α      lambda       -0.3738244E-01
   maximum displ.:     0.1259410 α      in ANC's #11, #66, #55, ...

........................................................................
.............................. CYCLE   11 ..............................
........................................................................
     iter. time                 ...        0 min,  0.019 sec
 * total energy  :   -47.2427713 Eh     change        0.2038352E+00 Eh
   gradient norm :     0.2197315 Eh/α   predicted    -0.2106010E-01 (-110.33%)
   displ. norm   :     0.2788362 α      lambda       -0.3148787E-01
   maximum displ.:     0.0938458 α      in ANC's #11, #55, #66, ...

........................................................................
.............................. CYCLE   12 ..............................
........................................................................
     iter. time                 ...        0 min,  0.019 sec
 * total energy  :   -47.0747753 Eh     change        0.1679961E+00 Eh
   gradient norm :     0.1685404 Eh/α   predicted    -0.1696816E-01 (-110.10%)
   displ. norm   :     0.1902490 α      lambda       -0.2281675E-01
   maximum displ.:     0.0802033 α      in ANC's #61, #76, #55, ...

........................................................................
.............................. CYCLE   13 ..............................
........................................................................
     iter. time                 ...        0 min,  0.019 sec
 * total energy  :   -47.0011808 Eh     change        0.7359452E-01 Eh
   gradient norm :     0.1405216 Eh/α   predicted    -0.1182132E-01 (-116.06%)
   displ. norm   :     0.1052565 α      lambda       -0.9942506E-02
   maximum displ.:     0.0384020 α      in ANC's #61, #76, #62, ...

........................................................................
.............................. CYCLE   14 ..............................
........................................................................
     iter. time                 ...        0 min,  0.019 sec
 * total energy  :   -47.0181611 Eh     change       -0.1698029E-01 Eh
   gradient norm :     0.1301455 Eh/α   predicted    -0.5027600E-02 ( -70.39%)
   displ. norm   :     0.1055606 α      lambda       -0.8772374E-02
   maximum displ.:     0.0394518 α      in ANC's #76, #77, #70, ...

........................................................................
.............................. CYCLE   15 ..............................
........................................................................
     iter. time                 ...        0 min,  0.019 sec
 * total energy  :   -47.0255968 Eh     change       -0.7435771E-02 Eh
   gradient norm :     0.1119000 Eh/α   predicted    -0.4435753E-02 ( -40.35%)
   displ. norm   :     0.1340656 α      lambda       -0.9790711E-02
   maximum displ.:     0.0493283 α      in ANC's #77, #76, #73, ...

........................................................................
.............................. CYCLE   16 ..............................
........................................................................
     iter. time                 ...        0 min,  0.019 sec
 * total energy  :   -47.0164456 Eh     change        0.9151182E-02 Eh
   gradient norm :     0.0846213 Eh/α   predicted    -0.4983547E-02 (-154.46%)
   displ. norm   :     0.1116560 α      lambda       -0.6296706E-02
   maximum displ.:     0.0395471 α      in ANC's #73, #77, #74, ...

........................................................................
.............................. CYCLE   17 ..............................
........................................................................
     iter. time                 ...        0 min,  0.019 sec
 * total energy  :   -47.0151860 Eh     change        0.1259613E-02 Eh
   gradient norm :     0.0717852 Eh/α   predicted    -0.3187717E-02 (-353.07%)
   displ. norm   :     0.0923917 α      lambda       -0.3794963E-02
   maximum displ.:     0.0279910 α      in ANC's #10, #77, #7, ...

........................................................................
.............................. CYCLE   18 ..............................
........................................................................
     iter. time                 ...        0 min,  0.019 sec
 * total energy  :   -47.0276966 Eh     change       -0.1251059E-01 Eh
   gradient norm :     0.0765940 Eh/α   predicted    -0.1913750E-02 ( -84.70%)
   displ. norm   :     0.1076787 α      lambda       -0.3661764E-02
   maximum displ.:     0.0363255 α      in ANC's #7, #10, #77, ...

........................................................................
.............................. CYCLE   19 ..............................
........................................................................
     iter. time                 ...        0 min,  0.019 sec
 * total energy  :   -47.0507015 Eh     change       -0.2300487E-01 Eh
   gradient norm :     0.0867781 Eh/α   predicted    -0.1852233E-02 ( -91.95%)
   displ. norm   :     0.1505146 α      lambda       -0.5044900E-02
   maximum displ.:     0.0546457 α      in ANC's #7, #10, #77, ...

........................................................................
.............................. CYCLE   20 ..............................
........................................................................
     iter. time                 ...        0 min,  0.019 sec
 * total energy  :   -47.0748662 Eh     change       -0.2416473E-01 Eh
   gradient norm :     0.0958838 Eh/α   predicted    -0.2579620E-02 ( -89.32%)
   displ. norm   :     0.1475267 α      lambda       -0.5711688E-02
   maximum displ.:     0.0527720 α      in ANC's #7, #10, #77, ...
 * RMSD in coord.:     0.1735968 α      energy gain   0.2179882E-01 Eh

generating ANC from exact Hessian ...
Using GFN-FF Lindh-Hessian
 Shifting diagonal of input Hessian by    9.9911536044966585E-003
 Lowest  eigenvalues of input Hessian
    0.000000    0.000000    0.000000    0.000000    0.000000    0.010000
    0.000000    0.010004    0.010007    0.010014    0.010029    0.010039
    0.010046    0.010051    0.010057    0.010065    0.010150    0.010158
 Highest eigenvalues
   13.236742   15.030370   16.708127   22.284691   34.341227   37.040830


........................................................................
.............................. CYCLE   21 ..............................
........................................................................
     iter. time                 ...        0 min,  0.020 sec
 * total energy  :   -47.0734728 Eh     change        0.1393464E-02 Eh
   gradient norm :     0.1031427 Eh/α   predicted     0.0000000E+00 (-100.00%)
   displ. norm   :     0.0411809 α      lambda       -0.3754759E-02
   maximum displ.:     0.0311396 α      in ANC's #4, #12, #33, ...

........................................................................
.............................. CYCLE   22 ..............................
........................................................................
     iter. time                 ...        0 min,  0.019 sec
 * total energy  :   -47.0770473 Eh     change       -0.3574578E-02 Eh
   gradient norm :     0.0726124 Eh/α   predicted    -0.2089470E-02 ( -41.55%)
   displ. norm   :     0.0899841 α      lambda       -0.6359681E-02
   maximum displ.:     0.0637929 α      in ANC's #4, #12, #33, ...

........................................................................
.............................. CYCLE   23 ..............................
........................................................................
     iter. time                 ...        0 min,  0.019 sec
 * total energy  :   -47.0790735 Eh     change       -0.2026162E-02 Eh
   gradient norm :     0.0338224 Eh/α   predicted    -0.3205660E-02 (  58.21%)
   displ. norm   :     0.0115562 α      lambda       -0.3286523E-03
   maximum displ.:     0.0046175 α      in ANC's #69, #33, #22, ...

........................................................................
.............................. CYCLE   24 ..............................
........................................................................
     iter. time                 ...        0 min,  0.019 sec
 * total energy  :   -47.0782003 Eh     change        0.8732340E-03 Eh
   gradient norm :     0.0325031 Eh/α   predicted    -0.1643780E-03 (-118.82%)
   displ. norm   :     0.1190472 α      lambda       -0.3459713E-02
   maximum displ.:     0.0509143 α      in ANC's #69, #33, #22, ...

........................................................................
.............................. CYCLE   25 ..............................
........................................................................
     iter. time                 ...        0 min,  0.019 sec
 * total energy  :   -47.0623830 Eh     change        0.1581725E-01 Eh
   gradient norm :     0.0413882 Eh/α   predicted    -0.1756614E-02 (-111.11%)
   displ. norm   :     0.0314965 α      lambda       -0.5931646E-03
   maximum displ.:     0.0142560 α      in ANC's #69, #76, #65, ...

........................................................................
.............................. CYCLE   26 ..............................
........................................................................
     iter. time                 ...        0 min,  0.019 sec
 * total energy  :   -47.0562075 Eh     change        0.6175561E-02 Eh
   gradient norm :     0.0428897 Eh/α   predicted    -0.3015206E-03 (-104.88%)
   displ. norm   :     0.1253216 α      lambda       -0.2930885E-02
   maximum displ.:     0.0554592 α      in ANC's #69, #76, #65, ...

........................................................................
.............................. CYCLE   27 ..............................
........................................................................
     iter. time                 ...        0 min,  0.019 sec
 * total energy  :   -47.0277656 Eh     change        0.2844181E-01 Eh
   gradient norm :     0.0471171 Eh/α   predicted    -0.1490233E-02 (-105.24%)
   displ. norm   :     0.0705882 α      lambda       -0.1496458E-02
   maximum displ.:     0.0281700 α      in ANC's #69, #76, #52, ...

........................................................................
.............................. CYCLE   28 ..............................
........................................................................
     iter. time                 ...        0 min,  0.019 sec
 * total energy  :   -47.0110766 Eh     change        0.1668909E-01 Eh
   gradient norm :     0.0468471 Eh/α   predicted    -0.7525241E-03 (-104.51%)
   displ. norm   :     0.0751372 α      lambda       -0.1847360E-02
   maximum displ.:     0.0244074 α      in ANC's #76, #69, #77, ...

........................................................................
.............................. CYCLE   29 ..............................
........................................................................
     iter. time                 ...        0 min,  0.020 sec
 * total energy  :   -46.9956047 Eh     change        0.1547181E-01 Eh
   gradient norm :     0.0469653 Eh/α   predicted    -0.9289866E-03 (-106.00%)
   displ. norm   :     0.0491063 α      lambda       -0.1223274E-02
   maximum displ.:     0.0191576 α      in ANC's #70, #77, #4, ...

........................................................................
.............................. CYCLE   30 ..............................
........................................................................
     iter. time                 ...        0 min,  0.019 sec
 * total energy  :   -46.9882114 Eh     change        0.7393361E-02 Eh
   gradient norm :     0.0472374 Eh/α   predicted    -0.6136988E-03 (-108.30%)
   displ. norm   :     0.0775396 α      lambda       -0.1868787E-02
   maximum displ.:     0.0305740 α      in ANC's #70, #77, #69, ...

........................................................................
.............................. CYCLE   31 ..............................
........................................................................
     iter. time                 ...        0 min,  0.019 sec
 * total energy  :   -46.9760320 Eh     change        0.1217942E-01 Eh
   gradient norm :     0.0482518 Eh/α   predicted    -0.9400544E-03 (-107.72%)
   displ. norm   :     0.1207015 α      lambda       -0.2198062E-02
   maximum displ.:     0.0446815 α      in ANC's #69, #77, #70, ...

........................................................................
.............................. CYCLE   32 ..............................
........................................................................
     iter. time                 ...        0 min,  0.019 sec
 * total energy  :   -46.9504608 Eh     change        0.2557114E-01 Eh
   gradient norm :     0.0503520 Eh/α   predicted    -0.1115119E-02 (-104.36%)
   displ. norm   :     0.2041494 α      lambda       -0.2786677E-02
   maximum displ.:     0.0855775 α      in ANC's #69, #77, #70, ...

........................................................................
.............................. CYCLE   33 ..............................
........................................................................
     iter. time                 ...        0 min,  0.019 sec
 * total energy  :   -46.8946377 Eh     change        0.5582312E-01 Eh
   gradient norm :     0.0535091 Eh/α   predicted    -0.1452571E-02 (-102.60%)
   displ. norm   :     0.2229506 α      lambda       -0.2365798E-02
   maximum displ.:     0.0982125 α      in ANC's #69, #77, #73, ...

........................................................................
.............................. CYCLE   34 ..............................
........................................................................
     iter. time                 ...        0 min,  0.019 sec
 * total energy  :   -46.8184531 Eh     change        0.7618457E-01 Eh
   gradient norm :     0.0541849 Eh/α   predicted    -0.1241755E-02 (-101.63%)
   displ. norm   :     0.1665264 α      lambda       -0.1873674E-02
   maximum displ.:     0.0742024 α      in ANC's #69, #77, #73, ...

........................................................................
.............................. CYCLE   35 ..............................
........................................................................
     iter. time                 ...        0 min,  0.019 sec
 * total energy  :   -46.7522474 Eh     change        0.6620571E-01 Eh
   gradient norm :     0.0507541 Eh/α   predicted    -0.9628352E-03 (-101.45%)
   displ. norm   :     0.1276960 α      lambda       -0.2206137E-02
   maximum displ.:     0.0554555 α      in ANC's #69, #77, #73, ...

........................................................................
.............................. CYCLE   36 ..............................
........................................................................
     iter. time                 ...        0 min,  0.019 sec
 * total energy  :   -46.7170249 Eh     change        0.3522254E-01 Eh
   gradient norm :     0.0487998 Eh/α   predicted    -0.1121074E-02 (-103.18%)
   displ. norm   :     0.0930487 α      lambda       -0.2232729E-02
   maximum displ.:     0.0370781 α      in ANC's #69, #73, #78, ...

........................................................................
.............................. CYCLE   37 ..............................
........................................................................
     iter. time                 ...        0 min,  0.019 sec
 * total energy  :   -46.6933338 Eh     change        0.2369108E-01 Eh
   gradient norm :     0.0540322 Eh/α   predicted    -0.1126421E-02 (-104.75%)
   displ. norm   :     0.1411938 α      lambda       -0.2708032E-02
   maximum displ.:     0.0610694 α      in ANC's #69, #8, #73, ...

........................................................................
.............................. CYCLE   38 ..............................
........................................................................
     iter. time                 ...        0 min,  0.019 sec
 * total energy  :   -46.6440313 Eh     change        0.4930247E-01 Eh
   gradient norm :     0.0652854 Eh/α   predicted    -0.1381073E-02 (-102.80%)
   displ. norm   :     0.2103388 α      lambda       -0.3927792E-02
   maximum displ.:     0.0914309 α      in ANC's #69, #8, #78, ...

........................................................................
.............................. CYCLE   39 ..............................
........................................................................
     iter. time                 ...        0 min,  0.020 sec
 * total energy  :   -46.5534980 Eh     change        0.9053330E-01 Eh
   gradient norm :     0.0741439 Eh/α   predicted    -0.2050809E-02 (-102.27%)
   displ. norm   :     0.2318773 α      lambda       -0.5276523E-02
   maximum displ.:     0.0923117 α      in ANC's #69, #8, #78, ...

........................................................................
.............................. CYCLE   40 ..............................
........................................................................
     iter. time                 ...        0 min,  0.020 sec
 * total energy  :   -46.4424123 Eh     change        0.1110857E+00 Eh
   gradient norm :     0.0691761 Eh/α   predicted    -0.2780173E-02 (-102.50%)
   displ. norm   :     0.1257342 α      lambda       -0.3911285E-02
   maximum displ.:     0.0531281 α      in ANC's #8, #71, #7, ...

........................................................................
.............................. CYCLE   41 ..............................
........................................................................
     iter. time                 ...        0 min,  0.020 sec
 * total energy  :   -46.3933496 Eh     change        0.4906277E-01 Eh
   gradient norm :     0.0517713 Eh/α   predicted    -0.1986608E-02 (-104.05%)
   displ. norm   :     0.0570010 α      lambda       -0.2131140E-02
   maximum displ.:     0.0236000 α      in ANC's #4, #74, #70, ...

........................................................................
.............................. CYCLE   42 ..............................
........................................................................
     iter. time                 ...        0 min,  0.019 sec
 * total energy  :   -46.3993962 Eh     change       -0.6046657E-02 Eh
   gradient norm :     0.0374857 Eh/α   predicted    -0.1069120E-02 ( -82.32%)
   displ. norm   :     0.0613091 α      lambda       -0.1134604E-02
   maximum displ.:     0.0194169 α      in ANC's #73, #78, #13, ...
 * RMSD in coord.:     0.1130773 α      energy gain   0.6754700E+00 Eh

generating ANC from exact Hessian ...
Using GFN-FF Lindh-Hessian
 Shifting diagonal of input Hessian by    9.9923038663815647E-003
 Lowest  eigenvalues of input Hessian
    0.000000    0.000000    0.000000    0.000000    0.000000    0.010000
    0.000000    0.010005    0.010008    0.010014    0.010028    0.010039
    0.010045    0.010049    0.010057    0.010062    0.010149    0.010153
 Highest eigenvalues
   10.424732   13.880483   14.879722   18.083587   19.531858   44.932779


........................................................................
.............................. CYCLE   43 ..............................
........................................................................
     iter. time                 ...        0 min,  0.020 sec
 * total energy  :   -46.4240404 Eh     change       -0.2464412E-01 Eh
   gradient norm :     0.0589365 Eh/α   predicted     0.0000000E+00 (-100.00%)
   displ. norm   :     0.0197496 α      lambda       -0.7223136E-03
   maximum displ.:     0.0098965 α      in ANC's #11, #10, #3, ...

........................................................................
.............................. CYCLE   44 ..............................
........................................................................
     iter. time                 ...        0 min,  0.019 sec
 * total energy  :   -46.4209880 Eh     change        0.3052373E-02 Eh
   gradient norm :     0.0512368 Eh/α   predicted    -0.5536374E-03 (-118.14%)
   displ. norm   :     0.1019188 α      lambda       -0.4915930E-02
   maximum displ.:     0.0444277 α      in ANC's #10, #11, #81, ...

........................................................................
.............................. CYCLE   45 ..............................
........................................................................
     iter. time                 ...        0 min,  0.019 sec
 * total energy  :   -46.3998509 Eh     change        0.2113713E-01 Eh
   gradient norm :     0.0438196 Eh/α   predicted    -0.2483744E-02 (-111.75%)
   displ. norm   :     0.0321913 α      lambda       -0.8138274E-03
   maximum displ.:     0.0163447 α      in ANC's #81, #20, #10, ...

........................................................................
.............................. CYCLE   46 ..............................
........................................................................
     iter. time                 ...        0 min,  0.019 sec
 * total energy  :   -46.3918546 Eh     change        0.7996304E-02 Eh
   gradient norm :     0.0423884 Eh/α   predicted    -0.4073800E-03 (-105.09%)
   displ. norm   :     0.1019839 α      lambda       -0.2784688E-02
   maximum displ.:     0.0549492 α      in ANC's #81, #20, #31, ...

........................................................................
.............................. CYCLE   47 ..............................
........................................................................
     iter. time                 ...        0 min,  0.019 sec
 * total energy  :   -46.3647453 Eh     change        0.2710923E-01 Eh
   gradient norm :     0.0283839 Eh/α   predicted    -0.1408154E-02 (-105.19%)
   displ. norm   :     0.0300826 α      lambda       -0.5471481E-03
   maximum displ.:     0.0162711 α      in ANC's #81, #3, #20, ...

........................................................................
.............................. CYCLE   48 ..............................
........................................................................
     iter. time                 ...        0 min,  0.019 sec
 * total energy  :   -46.3580330 Eh     change        0.6712359E-02 Eh
   gradient norm :     0.0228023 Eh/α   predicted    -0.2739219E-03 (-104.08%)
   displ. norm   :     0.0215109 α      lambda       -0.3658319E-03
   maximum displ.:     0.0113156 α      in ANC's #3, #81, #11, ...

........................................................................
.............................. CYCLE   49 ..............................
........................................................................
     iter. time                 ...        0 min,  0.019 sec
 * total energy  :   -46.3557620 Eh     change        0.2270968E-02 Eh
   gradient norm :     0.0228516 Eh/α   predicted    -0.1830597E-03 (-108.06%)
   displ. norm   :     0.0288290 α      lambda       -0.4396075E-03
   maximum displ.:     0.0122876 α      in ANC's #3, #31, #81, ...

........................................................................
.............................. CYCLE   50 ..............................
........................................................................
     iter. time                 ...        0 min,  0.019 sec
 * total energy  :   -46.3532123 Eh     change        0.2549646E-02 Eh
   gradient norm :     0.0254645 Eh/α   predicted    -0.2205396E-03 (-108.65%)
   displ. norm   :     0.0512105 α      lambda       -0.7322266E-03
   maximum displ.:     0.0240716 α      in ANC's #31, #81, #3, ...

........................................................................
.............................. CYCLE   51 ..............................
........................................................................
     iter. time                 ...        0 min,  0.019 sec
 * total energy  :   -46.3461920 Eh     change        0.7020298E-02 Eh
   gradient norm :     0.0276639 Eh/α   predicted    -0.3671957E-03 (-105.23%)
   displ. norm   :     0.0557900 α      lambda       -0.7068070E-03
   maximum displ.:     0.0244812 α      in ANC's #31, #81, #79, ...

........................................................................
.............................. CYCLE   52 ..............................
........................................................................
     iter. time                 ...        0 min,  0.019 sec
 * total energy  :   -46.3331212 Eh     change        0.1307084E-01 Eh
   gradient norm :     0.0255001 Eh/α   predicted    -0.3546822E-03 (-102.71%)
   displ. norm   :     0.0424008 α      lambda       -0.4995083E-03
   maximum displ.:     0.0150942 α      in ANC's #79, #81, #11, ...

........................................................................
.............................. CYCLE   53 ..............................
........................................................................
     iter. time                 ...        0 min,  0.019 sec
 * total energy  :   -46.3179890 Eh     change        0.1513225E-01 Eh
   gradient norm :     0.0228397 Eh/α   predicted    -0.2502606E-03 (-101.65%)
   displ. norm   :     0.0291419 α      lambda       -0.3244576E-03
   maximum displ.:     0.0115929 α      in ANC's #79, #11, #10, ...

........................................................................
.............................. CYCLE   54 ..............................
........................................................................
     iter. time                 ...        0 min,  0.019 sec
 * total energy  :   -46.3037721 Eh     change        0.1421690E-01 Eh
   gradient norm :     0.0235343 Eh/α   predicted    -0.1624011E-03 (-101.14%)
   displ. norm   :     0.0433876 α      lambda       -0.4590138E-03
   maximum displ.:     0.0188809 α      in ANC's #79, #10, #80, ...

........................................................................
.............................. CYCLE   55 ..............................
........................................................................
     iter. time                 ...        0 min,  0.019 sec
 * total energy  :   -46.2786858 Eh     change        0.2508626E-01 Eh
   gradient norm :     0.0273357 Eh/α   predicted    -0.2299838E-03 (-100.92%)
   displ. norm   :     0.0872463 α      lambda       -0.8614447E-03
   maximum displ.:     0.0394629 α      in ANC's #79, #80, #10, ...

........................................................................
.............................. CYCLE   56 ..............................
........................................................................
     iter. time                 ...        0 min,  0.019 sec
 * total energy  :   -46.2209638 Eh     change        0.5772198E-01 Eh
   gradient norm :     0.0338331 Eh/α   predicted    -0.4340782E-03 (-100.75%)
   displ. norm   :     0.1450673 α      lambda       -0.1333084E-02
   maximum displ.:     0.0662655 α      in ANC's #79, #80, #10, ...

........................................................................
.............................. CYCLE   57 ..............................
........................................................................
     iter. time                 ...        0 min,  0.019 sec
 * total energy  :   -46.1057399 Eh     change        0.1152240E+00 Eh
   gradient norm :     0.0380081 Eh/α   predicted    -0.6811321E-03 (-100.59%)
   displ. norm   :     0.1767407 α      lambda       -0.1520785E-02
   maximum displ.:     0.0802055 α      in ANC's #79, #80, #69, ...

........................................................................
.............................. CYCLE   58 ..............................
........................................................................
     iter. time                 ...        0 min,  0.019 sec
 * total energy  :   -45.9281495 Eh     change        0.1775903E+00 Eh
   gradient norm :     0.0362142 Eh/α   predicted    -0.7841820E-03 (-100.44%)
   displ. norm   :     0.1455259 α      lambda       -0.1170081E-02
   maximum displ.:     0.0642101 α      in ANC's #79, #80, #3, ...

........................................................................
.............................. CYCLE   59 ..............................
........................................................................
     iter. time                 ...        0 min,  0.019 sec
 * total energy  :   -45.7438782 Eh     change        0.1842714E+00 Eh
   gradient norm :     0.0336092 Eh/α   predicted    -0.5974623E-03 (-100.32%)
   displ. norm   :     0.1123081 α      lambda       -0.9135561E-03
   maximum displ.:     0.0479326 α      in ANC's #80, #79, #3, ...

........................................................................
.............................. CYCLE   60 ..............................
........................................................................
     iter. time                 ...        0 min,  0.019 sec
 * total energy  :   -45.5717173 Eh     change        0.1721609E+00 Eh
   gradient norm :     0.0334481 Eh/α   predicted    -0.4627098E-03 (-100.27%)
   displ. norm   :     0.1277767 α      lambda       -0.1034810E-02
   maximum displ.:     0.0543360 α      in ANC's #80, #3, #79, ...

........................................................................
.............................. CYCLE   61 ..............................
........................................................................
     iter. time                 ...        0 min,  0.019 sec
 * total energy  :   -45.3359527 Eh     change        0.2357646E+00 Eh
   gradient norm :     0.0345155 Eh/α   predicted    -0.5259234E-03 (-100.22%)
   displ. norm   :     0.1649313 α      lambda       -0.1144442E-02
   maximum displ.:     0.0692126 α      in ANC's #80, #3, #79, ...

........................................................................
.............................. CYCLE   62 ..............................
........................................................................
     iter. time                 ...        0 min,  0.020 sec
 * total energy  :   -44.9568481 Eh     change        0.3791046E+00 Eh
   gradient norm :     0.0346887 Eh/α   predicted    -0.5878136E-03 (-100.16%)
   displ. norm   :     0.2164116 α      lambda       -0.1153320E-02
   maximum displ.:     0.0897479 α      in ANC's #80, #79, #66, ...

........................................................................
.............................. CYCLE   63 ..............................
........................................................................
     iter. time                 ...        0 min,  0.019 sec
 * total energy  :   -44.3113516 Eh     change        0.6454965E+00 Eh
   gradient norm :     0.0349547 Eh/α   predicted    -0.6036886E-03 (-100.09%)
   displ. norm   :     0.3329335 α      lambda       -0.1356571E-02
   maximum displ.:     0.1372519 α      in ANC's #80, #79, #10, ...

........................................................................
.............................. CYCLE   64 ..............................
........................................................................
     iter. time                 ...        0 min,  0.019 sec
 * total energy  :   -42.9291459 Eh     change        0.1382206E+01 Eh
   gradient norm :     0.0455982 Eh/α   predicted    -0.7535202E-03 (-100.05%)
   displ. norm   :     0.1863032 α      lambda       -0.1088912E-02
   maximum displ.:     0.0798761 α      in ANC's #10, #80, #79, ...

........................................................................
.............................. CYCLE   65 ..............................
........................................................................
     iter. time                 ...        0 min,  0.019 sec
 * total energy  :   -41.9145691 Eh     change        0.1014577E+01 Eh
   gradient norm :     0.0508560 Eh/α   predicted    -0.5642968E-03 (-100.06%)
   displ. norm   :     0.3913618 α      lambda       -0.3680384E-02
   maximum displ.:     0.1853716 α      in ANC's #10, #80, #79, ...

........................................................................
.............................. CYCLE   66 ..............................
........................................................................
     iter. time                 ...        0 min,  0.019 sec
 * total energy  :   -39.3986656 Eh     change        0.2515903E+01 Eh
   gradient norm :     0.0657702 Eh/α   predicted    -0.2122384E-02 (-100.08%)
   displ. norm   :     0.5706411 α      lambda       -0.4436685E-02
   maximum displ.:     0.2487717 α      in ANC's #10, #80, #79, ...
 * RMSD in coord.:     0.1846882 α      energy gain   0.7000731E+01 Eh

generating ANC from exact Hessian ...
Using GFN-FF Lindh-Hessian
 Shifting diagonal of input Hessian by    1.0004634821006953E-002
 Lowest  eigenvalues of input Hessian
    0.010000    0.000000    0.000000    0.000000    0.000000    0.000000
    0.000000    0.010017    0.010020    0.010025    0.010033    0.010042
    0.010044    0.010054    0.010066    0.010071    0.010087    0.010146
 Highest eigenvalues
   10.462376   11.141400   13.548338   48.976298   61.956813  162.646209


........................................................................
.............................. CYCLE   67 ..............................
........................................................................
     iter. time                 ...        0 min,  0.020 sec
 * total energy  :   -35.9308027 Eh     change        0.3467863E+01 Eh
   gradient norm :     0.0915678 Eh/α   predicted     0.0000000E+00 (-100.00%)
   displ. norm   :     0.0325185 α      lambda       -0.2287430E-02
   maximum displ.:     0.0190071 α      in ANC's #42, #16, #12, ...

........................................................................
.............................. CYCLE   68 ..............................
........................................................................
     iter. time                 ...        0 min,  0.019 sec
 * total energy  :   -35.9330181 Eh     change       -0.2215401E-02 Eh
   gradient norm :     0.0671365 Eh/α   predicted    -0.1444839E-02 ( -34.78%)
   displ. norm   :     0.0786935 α      lambda       -0.5020010E-02
   maximum displ.:     0.0444961 α      in ANC's #16, #42, #12, ...

........................................................................
.............................. CYCLE   69 ..............................
........................................................................
     iter. time                 ...        0 min,  0.019 sec
 * total energy  :   -35.9381030 Eh     change       -0.5084834E-02 Eh
   gradient norm :     0.0440684 Eh/α   predicted    -0.2525601E-02 ( -50.33%)
   displ. norm   :     0.0233752 α      lambda       -0.6798648E-03
   maximum displ.:     0.0127355 α      in ANC's #16, #12, #79, ...

........................................................................
.............................. CYCLE   70 ..............................
........................................................................
     iter. time                 ...        0 min,  0.019 sec
 * total energy  :   -35.9435042 Eh     change       -0.5401204E-02 Eh
   gradient norm :     0.0430775 Eh/α   predicted    -0.3439461E-03 ( -93.63%)
   displ. norm   :     0.0747524 α      lambda       -0.2304107E-02
   maximum displ.:     0.0329188 α      in ANC's #16, #79, #12, ...

........................................................................
.............................. CYCLE   71 ..............................
........................................................................
     iter. time                 ...        0 min,  0.019 sec
 * total energy  :   -35.9691384 Eh     change       -0.2563425E-01 Eh
   gradient norm :     0.0399972 Eh/α   predicted    -0.1158654E-02 ( -95.48%)
   displ. norm   :     0.0462038 α      lambda       -0.1072861E-02
   maximum displ.:     0.0200771 α      in ANC's #79, #75, #74, ...

........................................................................
.............................. CYCLE   72 ..............................
........................................................................
     iter. time                 ...        0 min,  0.019 sec
 * total energy  :   -35.9942265 Eh     change       -0.2508805E-01 Eh
   gradient norm :     0.0381028 Eh/α   predicted    -0.5377220E-03 ( -97.86%)
   displ. norm   :     0.0555457 α      lambda       -0.1250893E-02
   maximum displ.:     0.0250924 α      in ANC's #75, #74, #79, ...

........................................................................
.............................. CYCLE   73 ..............................
........................................................................
     iter. time                 ...        0 min,  0.019 sec
 * total energy  :   -36.0361560 Eh     change       -0.4192949E-01 Eh
   gradient norm :     0.0374354 Eh/α   predicted    -0.6274135E-03 ( -98.50%)
   displ. norm   :     0.0501384 α      lambda       -0.1037026E-02
   maximum displ.:     0.0242406 α      in ANC's #75, #74, #77, ...

........................................................................
.............................. CYCLE   74 ..............................
........................................................................
     iter. time                 ...        0 min,  0.019 sec
 * total energy  :   -36.0865231 Eh     change       -0.5036718E-01 Eh
   gradient norm :     0.0338840 Eh/α   predicted    -0.5198324E-03 ( -98.97%)
   displ. norm   :     0.0443751 α      lambda       -0.8839123E-03
   maximum displ.:     0.0213813 α      in ANC's #75, #74, #37, ...

........................................................................
.............................. CYCLE   75 ..............................
........................................................................
     iter. time                 ...        0 min,  0.019 sec
 * total energy  :   -36.1448265 Eh     change       -0.5830331E-01 Eh
   gradient norm :     0.0237875 Eh/α   predicted    -0.4429545E-03 ( -99.24%)
   displ. norm   :     0.0205922 α      lambda       -0.3562064E-03
   maximum displ.:     0.0088863 α      in ANC's #42, #75, #74, ...

........................................................................
.............................. CYCLE   76 ..............................
........................................................................
     iter. time                 ...        0 min,  0.019 sec
 * total energy  :   -36.1844563 Eh     change       -0.3962987E-01 Eh
   gradient norm :     0.0168456 Eh/α   predicted    -0.1782011E-03 ( -99.55%)
   displ. norm   :     0.0130750 α      lambda       -0.1718026E-03
   maximum displ.:     0.0059112 α      in ANC's #42, #55, #75, ...

........................................................................
.............................. CYCLE   77 ..............................
........................................................................
     iter. time                 ...        0 min,  0.019 sec
 * total energy  :   -36.2218527 Eh     change       -0.3739640E-01 Eh
   gradient norm :     0.0159135 Eh/α   predicted    -0.8592983E-04 ( -99.77%)
   displ. norm   :     0.0214588 α      lambda       -0.2287488E-03
   maximum displ.:     0.0104335 α      in ANC's #75, #55, #74, ...

........................................................................
.............................. CYCLE   78 ..............................
........................................................................
     iter. time                 ...        0 min,  0.020 sec
 * total energy  :   -36.2966214 Eh     change       -0.7476862E-01 Eh
   gradient norm :     0.0179710 Eh/α   predicted    -0.1144562E-03 ( -99.85%)
   displ. norm   :     0.0401142 α      lambda       -0.3595878E-03
   maximum displ.:     0.0215246 α      in ANC's #75, #74, #55, ...

........................................................................
.............................. CYCLE   79 ..............................
........................................................................
     iter. time                 ...        0 min,  0.019 sec
 * total energy  :   -36.4467122 Eh     change       -0.1500908E+00 Eh
   gradient norm :     0.0207615 Eh/α   predicted    -0.1800985E-03 ( -99.88%)
   displ. norm   :     0.0494862 α      lambda       -0.3835837E-03
   maximum displ.:     0.0272593 α      in ANC's #75, #74, #55, ...

........................................................................
.............................. CYCLE   80 ..............................
........................................................................
     iter. time                 ...        0 min,  0.019 sec
 * total energy  :   -36.6408710 Eh     change       -0.1941588E+00 Eh
   gradient norm :     0.0198532 Eh/α   predicted    -0.1922825E-03 ( -99.90%)
   displ. norm   :     0.0371499 α      lambda       -0.2780515E-03
   maximum displ.:     0.0196625 α      in ANC's #75, #74, #55, ...

........................................................................
.............................. CYCLE   81 ..............................
........................................................................
     iter. time                 ...        0 min,  0.019 sec
 * total energy  :   -36.7965641 Eh     change       -0.1556931E+00 Eh
   gradient norm :     0.0168028 Eh/α   predicted    -0.1393812E-03 ( -99.91%)
   displ. norm   :     0.0219371 α      lambda       -0.1857952E-03
   maximum displ.:     0.0090296 α      in ANC's #75, #12, #67, ...

........................................................................
.............................. CYCLE   82 ..............................
........................................................................
     iter. time                 ...        0 min,  0.019 sec
 * total energy  :   -36.8974622 Eh     change       -0.1008981E+00 Eh
   gradient norm :     0.0165260 Eh/α   predicted    -0.9299258E-04 ( -99.91%)
   displ. norm   :     0.0238912 α      lambda       -0.2029203E-03
   maximum displ.:     0.0096730 α      in ANC's #12, #22, #63, ...

........................................................................
.............................. CYCLE   83 ..............................
........................................................................
     iter. time                 ...        0 min,  0.019 sec
 * total energy  :   -37.0131599 Eh     change       -0.1156976E+00 Eh
   gradient norm :     0.0188411 Eh/α   predicted    -0.1015553E-03 ( -99.91%)
   displ. norm   :     0.0436508 α      lambda       -0.3384059E-03
   maximum displ.:     0.0182024 α      in ANC's #12, #63, #22, ...

........................................................................
.............................. CYCLE   84 ..............................
........................................................................
     iter. time                 ...        0 min,  0.019 sec
 * total energy  :   -37.2308857 Eh     change       -0.2177258E+00 Eh
   gradient norm :     0.0223080 Eh/α   predicted    -0.1696407E-03 ( -99.92%)
   displ. norm   :     0.0715545 α      lambda       -0.4711282E-03
   maximum displ.:     0.0292479 α      in ANC's #12, #63, #55, ...

........................................................................
.............................. CYCLE   85 ..............................
........................................................................
     iter. time                 ...        0 min,  0.019 sec
 * total energy  :   -37.5898510 Eh     change       -0.3589653E+00 Eh
   gradient norm :     0.0229441 Eh/α   predicted    -0.2368462E-03 ( -99.93%)
   displ. norm   :     0.0785316 α      lambda       -0.4395828E-03
   maximum displ.:     0.0346735 α      in ANC's #55, #12, #63, ...

........................................................................
.............................. CYCLE   86 ..............................
........................................................................
     iter. time                 ...        0 min,  0.019 sec
 * total energy  :   -37.9754964 Eh     change       -0.3856454E+00 Eh
   gradient norm :     0.0176442 Eh/α   predicted    -0.2212023E-03 ( -99.94%)
   displ. norm   :     0.0471723 α      lambda       -0.2283734E-03
   maximum displ.:     0.0238363 α      in ANC's #55, #12, #67, ...

........................................................................
.............................. CYCLE   87 ..............................
........................................................................
     iter. time                 ...        0 min,  0.019 sec
 * total energy  :   -38.1984556 Eh     change       -0.2229592E+00 Eh
   gradient norm :     0.0107545 Eh/α   predicted    -0.1145004E-03 ( -99.95%)
   displ. norm   :     0.0156573 α      lambda       -0.7688173E-04
   maximum displ.:     0.0089243 α      in ANC's #55, #16, #75, ...

........................................................................
.............................. CYCLE   88 ..............................
........................................................................
     iter. time                 ...        0 min,  0.019 sec
 * total energy  :   -38.2645992 Eh     change       -0.6614362E-01 Eh
   gradient norm :     0.0072819 Eh/α   predicted    -0.3848940E-04 ( -99.94%)
   displ. norm   :     0.0082437 α      lambda       -0.3389310E-04
   maximum displ.:     0.0035374 α      in ANC's #55, #16, #75, ...

........................................................................
.............................. CYCLE   89 ..............................
........................................................................
     iter. time                 ...        0 min,  0.019 sec
 * total energy  :   -38.2932796 Eh     change       -0.2868036E-01 Eh
   gradient norm :     0.0061651 Eh/α   predicted    -0.1698202E-04 ( -99.94%)
   displ. norm   :     0.0083070 α      lambda       -0.2842239E-04
   maximum displ.:     0.0031768 α      in ANC's #16, #12, #66, ...

........................................................................
.............................. CYCLE   90 ..............................
........................................................................
     iter. time                 ...        0 min,  0.019 sec
 * total energy  :   -38.3238259 Eh     change       -0.3054632E-01 Eh
   gradient norm :     0.0062544 Eh/α   predicted    -0.1424885E-04 ( -99.95%)
   displ. norm   :     0.0126934 α      lambda       -0.3711600E-04
   maximum displ.:     0.0052531 α      in ANC's #12, #16, #66, ...

........................................................................
.............................. CYCLE   91 ..............................
........................................................................
     iter. time                 ...        0 min,  0.019 sec
 * total energy  :   -38.3740628 Eh     change       -0.5023686E-01 Eh
   gradient norm :     0.0073431 Eh/α   predicted    -0.1857899E-04 ( -99.96%)
   displ. norm   :     0.0222699 α      lambda       -0.5489376E-04
   maximum displ.:     0.0100784 α      in ANC's #12, #16, #81, ...

........................................................................
.............................. CYCLE   92 ..............................
........................................................................
     iter. time                 ...        0 min,  0.019 sec
 * total energy  :   -38.4668216 Eh     change       -0.9275883E-01 Eh
   gradient norm :     0.0088672 Eh/α   predicted    -0.2753089E-04 ( -99.97%)
   displ. norm   :     0.0354770 α      lambda       -0.7163703E-04
   maximum displ.:     0.0165122 α      in ANC's #12, #16, #81, ...
 * RMSD in coord.:     0.0412846 α      energy gain   0.9318440E+00 Eh

generating ANC from exact Hessian ...
Using GFN-FF Lindh-Hessian
 Shifting diagonal of input Hessian by    1.0004847593096073E-002
 Lowest  eigenvalues of input Hessian
    0.010000    0.000000    0.000000    0.000000    0.000000    0.000000
    0.000000    0.010017    0.010021    0.010025    0.010034    0.010042
    0.010044    0.010055    0.010067    0.010072    0.010087    0.010145
 Highest eigenvalues
   10.131236   11.467571   17.499215   49.080389   52.678797   93.681642


........................................................................
.............................. CYCLE   93 ..............................
........................................................................
     iter. time                 ...        0 min,  0.020 sec
 * total energy  :   -38.6259040 Eh     change       -0.1590823E+00 Eh
   gradient norm :     0.0287186 Eh/α   predicted     0.0000000E+00 (-100.00%)
   displ. norm   :     0.0088928 α      lambda       -0.1714226E-03
   maximum displ.:     0.0040157 α      in ANC's #14, #40, #26, ...

........................................................................
.............................. CYCLE   94 ..............................
........................................................................
     iter. time                 ...        0 min,  0.019 sec
 * total energy  :   -38.6241995 Eh     change        0.1704481E-02 Eh
   gradient norm :     0.0256747 Eh/α   predicted    -0.1222659E-03 (-107.17%)
   displ. norm   :     0.0599925 α      lambda       -0.1467348E-02
   maximum displ.:     0.0218900 α      in ANC's #14, #40, #26, ...

........................................................................
.............................. CYCLE   95 ..............................
........................................................................
     iter. time                 ...        0 min,  0.020 sec
 * total energy  :   -38.6157252 Eh     change        0.8474255E-02 Eh
   gradient norm :     0.0231003 Eh/α   predicted    -0.7363402E-03 (-108.69%)
   displ. norm   :     0.0177237 α      lambda       -0.2216948E-03
   maximum displ.:     0.0070582 α      in ANC's #75, #76, #69, ...

........................................................................
.............................. CYCLE   96 ..............................
........................................................................
     iter. time                 ...        0 min,  0.019 sec
 * total energy  :   -38.6191447 Eh     change       -0.3419488E-02 Eh
   gradient norm :     0.0223846 Eh/α   predicted    -0.1119597E-03 ( -96.73%)
   displ. norm   :     0.0546197 α      lambda       -0.7543674E-03
   maximum displ.:     0.0237732 α      in ANC's #75, #76, #69, ...

........................................................................
.............................. CYCLE   97 ..............................
........................................................................
     iter. time                 ...        0 min,  0.019 sec
 * total energy  :   -38.6450419 Eh     change       -0.2589716E-01 Eh
   gradient norm :     0.0181156 Eh/α   predicted    -0.3784691E-03 ( -98.54%)
   displ. norm   :     0.0239774 α      lambda       -0.2378529E-03
   maximum displ.:     0.0115289 α      in ANC's #75, #76, #69, ...

........................................................................
.............................. CYCLE   98 ..............................
........................................................................
     iter. time                 ...        0 min,  0.019 sec
 * total energy  :   -38.6726539 Eh     change       -0.2761202E-01 Eh
   gradient norm :     0.0170044 Eh/α   predicted    -0.1193562E-03 ( -99.57%)
   displ. norm   :     0.0304275 α      lambda       -0.2922264E-03
   maximum displ.:     0.0153782 α      in ANC's #75, #76, #25, ...

........................................................................
.............................. CYCLE   99 ..............................
........................................................................
     iter. time                 ...        0 min,  0.019 sec
 * total energy  :   -38.7270151 Eh     change       -0.5436118E-01 Eh
   gradient norm :     0.0167142 Eh/α   predicted    -0.1462911E-03 ( -99.73%)
   displ. norm   :     0.0286324 α      lambda       -0.2385029E-03
   maximum displ.:     0.0149877 α      in ANC's #75, #76, #25, ...

........................................................................
.............................. CYCLE  100 ..............................
........................................................................
     iter. time                 ...        0 min,  0.019 sec
 * total energy  :   -38.7951486 Eh     change       -0.6813354E-01 Eh
   gradient norm :     0.0149996 Eh/α   predicted    -0.1194186E-03 ( -99.82%)
   displ. norm   :     0.0240488 α      lambda       -0.1826294E-03
   maximum displ.:     0.0128531 α      in ANC's #75, #76, #17, ...

........................................................................
.............................. CYCLE  101 ..............................
........................................................................
     iter. time                 ...        0 min,  0.019 sec
 * total energy  :   -38.8687531 Eh     change       -0.7360454E-01 Eh
   gradient norm :     0.0124161 Eh/α   predicted    -0.9154776E-04 ( -99.88%)
   displ. norm   :     0.0149049 α      lambda       -0.1037548E-03
   maximum displ.:     0.0080130 α      in ANC's #75, #76, #17, ...

........................................................................
.............................. CYCLE  102 ..............................
........................................................................
     iter. time                 ...        0 min,  0.019 sec
 * total energy  :   -38.9290090 Eh     change       -0.6025583E-01 Eh
   gradient norm :     0.0120722 Eh/α   predicted    -0.5198723E-04 ( -99.91%)
   displ. norm   :     0.0177998 α      lambda       -0.1169245E-03
   maximum displ.:     0.0099134 α      in ANC's #75, #17, #66, ...

........................................................................
.............................. CYCLE  103 ..............................
........................................................................
     iter. time                 ...        0 min,  0.019 sec
 * total energy  :   -39.0122976 Eh     change       -0.8328861E-01 Eh
   gradient norm :     0.0137960 Eh/α   predicted    -0.5852538E-04 ( -99.93%)
   displ. norm   :     0.0298565 α      lambda       -0.1833052E-03
   maximum displ.:     0.0170061 α      in ANC's #75, #66, #17, ...

........................................................................
.............................. CYCLE  104 ..............................
........................................................................
     iter. time                 ...        0 min,  0.019 sec
 * total energy  :   -39.1592412 Eh     change       -0.1469436E+00 Eh
   gradient norm :     0.0170740 Eh/α   predicted    -0.9180802E-04 ( -99.94%)
   displ. norm   :     0.0475681 α      lambda       -0.2636024E-03
   maximum displ.:     0.0281896 α      in ANC's #75, #66, #17, ...

........................................................................
.............................. CYCLE  105 ..............................
........................................................................
     iter. time                 ...        0 min,  0.019 sec
 * total energy  :   -39.3872015 Eh     change       -0.2279603E+00 Eh
   gradient norm :     0.0204223 Eh/α   predicted    -0.1321553E-03 ( -99.94%)
   displ. norm   :     0.0621437 α      lambda       -0.3237142E-03
   maximum displ.:     0.0378639 α      in ANC's #75, #66, #17, ...

........................................................................
.............................. CYCLE  106 ..............................
........................................................................
     iter. time                 ...        0 min,  0.019 sec
 * total energy  :   -39.6655462 Eh     change       -0.2783446E+00 Eh
   gradient norm :     0.0230085 Eh/α   predicted    -0.1625045E-03 ( -99.94%)
   displ. norm   :     0.0734412 α      lambda       -0.3814057E-03
   maximum displ.:     0.0454877 α      in ANC's #75, #66, #17, ...

........................................................................
.............................. CYCLE  107 ..............................
........................................................................
     iter. time                 ...        0 min,  0.019 sec
 * total energy  :   -39.9647786 Eh     change       -0.2992325E+00 Eh
   gradient norm :     0.0259705 Eh/α   predicted    -0.1917756E-03 ( -99.94%)
   displ. norm   :     0.0928176 α      lambda       -0.5148607E-03
   maximum displ.:     0.0575044 α      in ANC's #75, #66, #17, ...

........................................................................
.............................. CYCLE  108 ..............................
........................................................................
     iter. time                 ...        0 min,  0.019 sec
 * total energy  :   -40.3023149 Eh     change       -0.3375363E+00 Eh
   gradient norm :     0.0299855 Eh/α   predicted    -0.2596675E-03 ( -99.92%)
   displ. norm   :     0.1280720 α      lambda       -0.7576303E-03
   maximum displ.:     0.0784984 α      in ANC's #75, #66, #17, ...

........................................................................
.............................. CYCLE  109 ..............................
........................................................................
     iter. time                 ...        0 min,  0.019 sec
 * total energy  :   -40.7087966 Eh     change       -0.4064816E+00 Eh
   gradient norm :     0.0327126 Eh/α   predicted    -0.3850546E-03 ( -99.91%)
   displ. norm   :     0.1355221 α      lambda       -0.8749604E-03
   maximum displ.:     0.0810377 α      in ANC's #75, #66, #17, ...

........................................................................
.............................. CYCLE  110 ..............................
........................................................................
     iter. time                 ...        0 min,  0.019 sec
 * total energy  :   -41.0947560 Eh     change       -0.3859594E+00 Eh
   gradient norm :     0.0275139 Eh/α   predicted    -0.4455509E-03 ( -99.88%)
   displ. norm   :     0.0675242 α      lambda       -0.5323716E-03
   maximum displ.:     0.0364638 α      in ANC's #75, #66, #17, ...

........................................................................
.............................. CYCLE  111 ..............................
........................................................................
     iter. time                 ...        0 min,  0.019 sec
 * total energy  :   -41.2653437 Eh     change       -0.1705877E+00 Eh
   gradient norm :     0.0164089 Eh/α   predicted    -0.2674953E-03 ( -99.84%)
   displ. norm   :     0.0189998 α      lambda       -0.1748472E-03
   maximum displ.:     0.0112908 α      in ANC's #75, #76, #14, ...

........................................................................
.............................. CYCLE  112 ..............................
........................................................................
     iter. time                 ...        0 min,  0.019 sec
 * total energy  :   -41.2437482 Eh     change        0.2159548E-01 Eh
   gradient norm :     0.0115325 Eh/α   predicted    -0.8748341E-04 (-100.41%)
   displ. norm   :     0.0402811 α      lambda       -0.9983393E-04
   maximum displ.:     0.0272150 α      in ANC's #75, #66, #17, ...

........................................................................
.............................. CYCLE  113 ..............................
........................................................................
     iter. time                 ...        0 min,  0.019 sec
 * total energy  :   -41.1528302 Eh     change        0.9091803E-01 Eh
   gradient norm :     0.0112533 Eh/α   predicted    -0.5056888E-04 (-100.06%)
   displ. norm   :     0.0435935 α      lambda       -0.8975415E-04
   maximum displ.:     0.0300808 α      in ANC's #75, #66, #17, ...

........................................................................
.............................. CYCLE  114 ..............................
........................................................................
     iter. time                 ...        0 min,  0.020 sec
 * total energy  :   -41.0535453 Eh     change        0.9928482E-01 Eh
   gradient norm :     0.0110687 Eh/α   predicted    -0.4499388E-04 (-100.05%)
   displ. norm   :     0.0443221 α      lambda       -0.1140516E-03
   maximum displ.:     0.0318288 α      in ANC's #75, #79, #66, ...

........................................................................
.............................. CYCLE  115 ..............................
........................................................................
     iter. time                 ...        0 min,  0.019 sec
 * total energy  :   -40.9678749 Eh     change        0.8567044E-01 Eh
   gradient norm :     0.0095312 Eh/α   predicted    -0.5715889E-04 (-100.07%)
   displ. norm   :     0.0390455 α      lambda       -0.1291494E-03
   maximum displ.:     0.0288377 α      in ANC's #75, #79, #76, ...

........................................................................
.............................. CYCLE  116 ..............................
........................................................................
     iter. time                 ...        0 min,  0.019 sec
 * total energy  :   -40.9241445 Eh     change        0.4373041E-01 Eh
   gradient norm :     0.0082802 Eh/α   predicted    -0.6475637E-04 (-100.15%)
   displ. norm   :     0.0369056 α      lambda       -0.1035175E-03
   maximum displ.:     0.0264671 α      in ANC's #75, #79, #76, ...

........................................................................
.............................. CYCLE  117 ..............................
........................................................................
     iter. time                 ...        0 min,  0.019 sec
 * total energy  :   -40.9169092 Eh     change        0.7235310E-02 Eh
   gradient norm :     0.0094959 Eh/α   predicted    -0.5191567E-04 (-100.72%)
   displ. norm   :     0.0371147 α      lambda       -0.7547408E-04
   maximum displ.:     0.0269184 α      in ANC's #75, #79, #76, ...

........................................................................
.............................. CYCLE  118 ..............................
........................................................................
     iter. time                 ...        0 min,  0.019 sec
 * total energy  :   -40.9172196 Eh     change       -0.3104545E-03 Eh
   gradient norm :     0.0110861 Eh/α   predicted    -0.3784681E-04 ( -87.81%)
   displ. norm   :     0.0463327 α      lambda       -0.9635344E-04
   maximum displ.:     0.0336770 α      in ANC's #75, #79, #76, ...

........................................................................
.............................. CYCLE  119 ..............................
........................................................................
     iter. time                 ...        0 min,  0.020 sec
 * total energy  :   -40.9295374 Eh     change       -0.1231770E-01 Eh
   gradient norm :     0.0123060 Eh/α   predicted    -0.4833102E-04 ( -99.61%)
   displ. norm   :     0.0592984 α      lambda       -0.1642478E-03
   maximum displ.:     0.0395665 α      in ANC's #75, #79, #56, ...

........................................................................
.............................. CYCLE  120 ..............................
........................................................................
     iter. time                 ...        0 min,  0.019 sec
 * total energy  :   -41.0009985 Eh     change       -0.7146111E-01 Eh
   gradient norm :     0.0133165 Eh/α   predicted    -0.8245344E-04 ( -99.88%)
   displ. norm   :     0.0762282 α      lambda       -0.2589512E-03
   maximum displ.:     0.0405014 α      in ANC's #75, #79, #56, ...
 * RMSD in coord.:     0.0352028 α      energy gain  -0.2534177E+01 Eh

generating ANC from exact Hessian ...
Using GFN-FF Lindh-Hessian
 Shifting diagonal of input Hessian by    1.0004770567999552E-002
 Lowest  eigenvalues of input Hessian
    0.010000    0.000000    0.000000    0.000000    0.000000    0.000000
    0.000000    0.010017    0.010020    0.010025    0.010034    0.010042
    0.010044    0.010055    0.010066    0.010072    0.010087    0.010146
 Highest eigenvalues
   11.493130   11.796193   18.854077   43.020176   70.607121  209.141135


........................................................................
.............................. CYCLE  121 ..............................
........................................................................
     iter. time                 ...        0 min,  0.020 sec
 * total energy  :   -41.1788048 Eh     change       -0.1778063E+00 Eh
   gradient norm :     0.0172635 Eh/α   predicted     0.0000000E+00 (-100.00%)
   displ. norm   :     0.0054690 α      lambda       -0.5939696E-04
   maximum displ.:     0.0029611 α      in ANC's #4, #43, #16, ...

........................................................................
.............................. CYCLE  122 ..............................
........................................................................
     iter. time                 ...        0 min,  0.019 sec
 * total energy  :   -41.1912532 Eh     change       -0.1244846E-01 Eh
   gradient norm :     0.0154534 Eh/α   predicted    -0.4487118E-04 ( -99.64%)
   displ. norm   :     0.0369904 α      lambda       -0.5398484E-03
   maximum displ.:     0.0176355 α      in ANC's #4, #16, #43, ...

........................................................................
.............................. CYCLE  123 ..............................
........................................................................
     iter. time                 ...        0 min,  0.019 sec
 * total energy  :   -41.2887948 Eh     change       -0.9754155E-01 Eh
   gradient norm :     0.0149700 Eh/α   predicted    -0.2703220E-03 ( -99.72%)
   displ. norm   :     0.0124675 α      lambda       -0.9552548E-04
   maximum displ.:     0.0064069 α      in ANC's #16, #65, #73, ...

........................................................................
.............................. CYCLE  124 ..............................
........................................................................
     iter. time                 ...        0 min,  0.019 sec
 * total energy  :   -41.3321915 Eh     change       -0.4339671E-01 Eh
   gradient norm :     0.0151065 Eh/α   predicted    -0.4810385E-04 ( -99.89%)
   displ. norm   :     0.0472772 α      lambda       -0.3960479E-03
   maximum displ.:     0.0239765 α      in ANC's #16, #65, #73, ...

........................................................................
.............................. CYCLE  125 ..............................
........................................................................
     iter. time                 ...        0 min,  0.019 sec
 * total energy  :   -41.5059086 Eh     change       -0.1737171E+00 Eh
   gradient norm :     0.0132911 Eh/α   predicted    -0.1985612E-03 ( -99.89%)
   displ. norm   :     0.0229426 α      lambda       -0.1312721E-03
   maximum displ.:     0.0104775 α      in ANC's #73, #16, #65, ...

........................................................................
.............................. CYCLE  126 ..............................
........................................................................
     iter. time                 ...        0 min,  0.019 sec
 * total energy  :   -41.5951146 Eh     change       -0.8920603E-01 Eh
   gradient norm :     0.0131532 Eh/α   predicted    -0.6572503E-04 ( -99.93%)
   displ. norm   :     0.0241543 α      lambda       -0.1307102E-03
   maximum displ.:     0.0122638 α      in ANC's #73, #78, #16, ...

........................................................................
.............................. CYCLE  127 ..............................
........................................................................
     iter. time                 ...        0 min,  0.019 sec
 * total energy  :   -41.6922639 Eh     change       -0.9714928E-01 Eh
   gradient norm :     0.0152769 Eh/α   predicted    -0.6549067E-04 ( -99.93%)
   displ. norm   :     0.0360653 α      lambda       -0.1964692E-03
   maximum displ.:     0.0195793 α      in ANC's #73, #78, #22, ...

........................................................................
.............................. CYCLE  128 ..............................
........................................................................
     iter. time                 ...        0 min,  0.019 sec
 * total energy  :   -41.8337744 Eh     change       -0.1415105E+00 Eh
   gradient norm :     0.0192204 Eh/α   predicted    -0.9930395E-04 ( -99.93%)
   displ. norm   :     0.0653640 α      lambda       -0.3819172E-03
   maximum displ.:     0.0366145 α      in ANC's #73, #78, #22, ...

........................................................................
.............................. CYCLE  129 ..............................
........................................................................
     iter. time                 ...        0 min,  0.019 sec
 * total energy  :   -42.0663286 Eh     change       -0.2325542E+00 Eh
   gradient norm :     0.0238195 Eh/α   predicted    -0.1918004E-03 ( -99.92%)
   displ. norm   :     0.0825347 α      lambda       -0.5291530E-03
   maximum displ.:     0.0467256 α      in ANC's #73, #78, #22, ...

........................................................................
.............................. CYCLE  130 ..............................
........................................................................
     iter. time                 ...        0 min,  0.020 sec
 * total energy  :   -42.3111173 Eh     change       -0.2447887E+00 Eh
   gradient norm :     0.0241144 Eh/α   predicted    -0.2663957E-03 ( -99.89%)
   displ. norm   :     0.0638687 α      lambda       -0.5137444E-03
   maximum displ.:     0.0348791 α      in ANC's #73, #78, #22, ...

........................................................................
.............................. CYCLE  131 ..............................
........................................................................
     iter. time                 ...        0 min,  0.019 sec
 * total energy  :   -42.4535189 Eh     change       -0.1424015E+00 Eh
   gradient norm :     0.0187279 Eh/α   predicted    -0.2579660E-03 ( -99.82%)
   displ. norm   :     0.0243078 α      lambda       -0.3076393E-03
   maximum displ.:     0.0141319 α      in ANC's #16, #65, #78, ...

........................................................................
.............................. CYCLE  132 ..............................
........................................................................
     iter. time                 ...        0 min,  0.020 sec
 * total energy  :   -42.4536623 Eh     change       -0.1434323E-03 Eh
   gradient norm :     0.0146915 Eh/α   predicted    -0.1558803E-03 (   8.68%)
   displ. norm   :     0.0246246 α      lambda       -0.1710994E-03
   maximum displ.:     0.0108214 α      in ANC's #4, #16, #73, ...

........................................................................
.............................. CYCLE  133 ..............................
........................................................................
     iter. time                 ...        0 min,  0.020 sec
 * total energy  :   -42.3968673 Eh     change        0.5679501E-01 Eh
   gradient norm :     0.0132527 Eh/α   predicted    -0.8561832E-04 (-100.15%)
   displ. norm   :     0.0171384 α      lambda       -0.1220837E-03
   maximum displ.:     0.0095884 α      in ANC's #4, #43, #73, ...

........................................................................
.............................. CYCLE  134 ..............................
........................................................................
     iter. time                 ...        0 min,  0.020 sec
 * total energy  :   -42.3619774 Eh     change        0.3488985E-01 Eh
   gradient norm :     0.0105560 Eh/α   predicted    -0.6109304E-04 (-100.18%)
   displ. norm   :     0.0157299 α      lambda       -0.1079042E-03
   maximum displ.:     0.0072481 α      in ANC's #4, #43, #34, ...

........................................................................
.............................. CYCLE  135 ..............................
........................................................................
     iter. time                 ...        0 min,  0.019 sec
 * total energy  :   -42.3766856 Eh     change       -0.1470822E-01 Eh
   gradient norm :     0.0063772 Eh/α   predicted    -0.5400008E-04 ( -99.63%)
   displ. norm   :     0.0260173 α      lambda       -0.5545037E-04
   maximum displ.:     0.0144776 α      in ANC's #73, #78, #22, ...

........................................................................
.............................. CYCLE  136 ..............................
........................................................................
     iter. time                 ...        0 min,  0.019 sec
 * total energy  :   -42.4338721 Eh     change       -0.5718641E-01 Eh
   gradient norm :     0.0049236 Eh/α   predicted    -0.2801764E-04 ( -99.95%)
   displ. norm   :     0.0244651 α      lambda       -0.2589747E-04
   maximum displ.:     0.0138365 α      in ANC's #73, #78, #22, ...

........................................................................
.............................. CYCLE  137 ..............................
........................................................................
     iter. time                 ...        0 min,  0.019 sec
 * total energy  :   -42.4867481 Eh     change       -0.5287608E-01 Eh
   gradient norm :     0.0050686 Eh/α   predicted    -0.1299975E-04 ( -99.98%)
   displ. norm   :     0.0167006 α      lambda       -0.1555449E-04
   maximum displ.:     0.0091771 α      in ANC's #78, #73, #22, ...

........................................................................
.............................. CYCLE  138 ..............................
........................................................................
     iter. time                 ...        0 min,  0.019 sec
 * total energy  :   -42.5207660 Eh     change       -0.3401784E-01 Eh
   gradient norm :     0.0049133 Eh/α   predicted    -0.7809571E-05 ( -99.98%)
   displ. norm   :     0.0194887 α      lambda       -0.2495509E-04
   maximum displ.:     0.0111060 α      in ANC's #78, #73, #22, ...

........................................................................
.............................. CYCLE  139 ..............................
........................................................................
     iter. time                 ...        0 min,  0.019 sec
 * total energy  :   -42.5564604 Eh     change       -0.3569440E-01 Eh
   gradient norm :     0.0045982 Eh/α   predicted    -0.1253728E-04 ( -99.96%)
   displ. norm   :     0.0185392 α      lambda       -0.3341927E-04
   maximum displ.:     0.0104847 α      in ANC's #78, #22, #73, ...

........................................................................
.............................. CYCLE  140 ..............................
........................................................................
     iter. time                 ...        0 min,  0.019 sec
 * total energy  :   -42.5829812 Eh     change       -0.2652082E-01 Eh
   gradient norm :     0.0048754 Eh/α   predicted    -0.1676136E-04 ( -99.94%)
   displ. norm   :     0.0159976 α      lambda       -0.3541354E-04
   maximum displ.:     0.0084152 α      in ANC's #22, #78, #66, ...

........................................................................
.............................. CYCLE  141 ..............................
........................................................................
     iter. time                 ...        0 min,  0.019 sec
 * total energy  :   -42.5939266 Eh     change       -0.1094537E-01 Eh
   gradient norm :     0.0057871 Eh/α   predicted    -0.1782460E-04 ( -99.84%)
   displ. norm   :     0.0155610 α      lambda       -0.3363944E-04
   maximum displ.:     0.0077981 α      in ANC's #76, #22, #66, ...

........................................................................
.............................. CYCLE  142 ..............................
........................................................................
     iter. time                 ...        0 min,  0.019 sec
 * total energy  :   -42.5922113 Eh     change        0.1715265E-02 Eh
   gradient norm :     0.0065475 Eh/α   predicted    -0.1691985E-04 (-100.99%)
   displ. norm   :     0.0191535 α      lambda       -0.3683332E-04
   maximum displ.:     0.0097261 α      in ANC's #76, #22, #66, ...

........................................................................
.............................. CYCLE  143 ..............................
........................................................................
     iter. time                 ...        0 min,  0.019 sec
 * total energy  :   -42.5913381 Eh     change        0.8731669E-03 Eh
   gradient norm :     0.0073709 Eh/α   predicted    -0.1844673E-04 (-102.11%)
   displ. norm   :     0.0314766 α      lambda       -0.5922389E-04
   maximum displ.:     0.0157599 α      in ANC's #76, #22, #66, ...

........................................................................
.............................. CYCLE  144 ..............................
........................................................................
     iter. time                 ...        0 min,  0.019 sec
 * total energy  :   -42.5916664 Eh     change       -0.3283114E-03 Eh
   gradient norm :     0.0089521 Eh/α   predicted    -0.2967886E-04 ( -90.96%)
   displ. norm   :     0.0604606 α      lambda       -0.1131502E-03
   maximum displ.:     0.0310784 α      in ANC's #76, #73, #79, ...

........................................................................
.............................. CYCLE  145 ..............................
........................................................................
     iter. time                 ...        0 min,  0.019 sec
 * total energy  :   -42.5795966 Eh     change        0.1206980E-01 Eh
   gradient norm :     0.0119945 Eh/α   predicted    -0.5693246E-04 (-100.47%)
   displ. norm   :     0.0855304 α      lambda       -0.1512760E-03
   maximum displ.:     0.0427080 α      in ANC's #76, #73, #79, ...

........................................................................
.............................. CYCLE  146 ..............................
........................................................................
     iter. time                 ...        0 min,  0.019 sec
 * total energy  :   -42.5785808 Eh     change        0.1015799E-02 Eh
   gradient norm :     0.0152032 Eh/α   predicted    -0.7621484E-04 (-107.50%)
   displ. norm   :     0.1333489 α      lambda       -0.2422216E-03
   maximum displ.:     0.0645973 α      in ANC's #76, #73, #22, ...

........................................................................
.............................. CYCLE  147 ..............................
........................................................................
     iter. time                 ...        0 min,  0.019 sec
 * total energy  :   -42.4690948 Eh     change        0.1094860E+00 Eh
   gradient norm :     0.0185482 Eh/α   predicted    -0.1232966E-03 (-100.11%)
   displ. norm   :     0.1204890 α      lambda       -0.2562763E-03
   maximum displ.:     0.0543901 α      in ANC's #76, #22, #73, ...

........................................................................
.............................. CYCLE  148 ..............................
........................................................................
     iter. time                 ...        0 min,  0.019 sec
 * total energy  :   -42.4550058 Eh     change        0.1408906E-01 Eh
   gradient norm :     0.0202783 Eh/α   predicted    -0.1300721E-03 (-100.92%)
   displ. norm   :     0.1334265 α      lambda       -0.3941263E-03
   maximum displ.:     0.0616717 α      in ANC's #22, #76, #66, ...

........................................................................
.............................. CYCLE  149 ..............................
........................................................................
     iter. time                 ...        0 min,  0.019 sec
 * total energy  :   -42.4505761 Eh     change        0.4429687E-02 Eh
   gradient norm :     0.0235194 Eh/α   predicted    -0.2006290E-03 (-104.53%)
   displ. norm   :     0.0921613 α      lambda       -0.4035163E-03
   maximum displ.:     0.0507855 α      in ANC's #22, #78, #66, ...

........................................................................
.............................. CYCLE  150 ..............................
........................................................................
     iter. time                 ...        0 min,  0.019 sec
 * total energy  :   -42.4410318 Eh     change        0.9544308E-02 Eh
   gradient norm :     0.0275549 Eh/α   predicted    -0.2035200E-03 (-102.13%)
   displ. norm   :     0.0703484 α      lambda       -0.5573714E-03
   maximum displ.:     0.0322644 α      in ANC's #78, #22, #73, ...
 * RMSD in coord.:     0.0534664 α      energy gain  -0.1440033E+01 Eh

generating ANC from exact Hessian ...
Using GFN-FF Lindh-Hessian
 Shifting diagonal of input Hessian by    9.9941088923414592E-003
 Lowest  eigenvalues of input Hessian
    0.000000    0.000000    0.000000    0.000000    0.000000    0.010000
    0.000000    0.010006    0.010010    0.010015    0.010025    0.010032
    0.010033    0.010044    0.010055    0.010061    0.010075    0.010140
 Highest eigenvalues
   11.859311   22.270979   31.299974   39.883870   90.836042  266.371258


........................................................................
.............................. CYCLE  151 ..............................
........................................................................
     iter. time                 ...        0 min,  0.019 sec
 * total energy  :   -42.4400307 Eh     change        0.1001101E-02 Eh
   gradient norm :     0.0430483 Eh/α   predicted     0.0000000E+00 (-100.00%)
   displ. norm   :     0.0153067 α      lambda       -0.4980676E-03
   maximum displ.:     0.0096975 α      in ANC's #19, #24, #34, ...

........................................................................
.............................. CYCLE  152 ..............................
........................................................................
     iter. time                 ...        0 min,  0.019 sec
 * total energy  :   -42.4469485 Eh     change       -0.6917846E-02 Eh
   gradient norm :     0.0379419 Eh/α   predicted    -0.3189368E-03 ( -95.39%)
   displ. norm   :     0.1072801 α      lambda       -0.3910465E-02
   maximum displ.:     0.0701431 α      in ANC's #19, #24, #34, ...

........................................................................
.............................. CYCLE  153 ..............................
........................................................................
     iter. time                 ...        0 min,  0.019 sec
 * total energy  :   -42.5006008 Eh     change       -0.5365228E-01 Eh
   gradient norm :     0.0382301 Eh/α   predicted    -0.1979216E-02 ( -96.31%)
   displ. norm   :     0.0360298 α      lambda       -0.6592664E-03
   maximum displ.:     0.0229721 α      in ANC's #19, #24, #50, ...

........................................................................
.............................. CYCLE  154 ..............................
........................................................................
     iter. time                 ...        0 min,  0.019 sec
 * total energy  :   -42.5233937 Eh     change       -0.2279289E-01 Eh
   gradient norm :     0.0389583 Eh/α   predicted    -0.3350248E-03 ( -98.53%)
   displ. norm   :     0.1174551 α      lambda       -0.2408904E-02
   maximum displ.:     0.0684694 α      in ANC's #19, #41, #24, ...

........................................................................
.............................. CYCLE  155 ..............................
........................................................................
     iter. time                 ...        0 min,  0.019 sec
 * total energy  :   -42.6054571 Eh     change       -0.8206342E-01 Eh
   gradient norm :     0.0356050 Eh/α   predicted    -0.1222785E-02 ( -98.51%)
   displ. norm   :     0.0665404 α      lambda       -0.1056682E-02
   maximum displ.:     0.0381967 α      in ANC's #41, #19, #50, ...

........................................................................
.............................. CYCLE  156 ..............................
........................................................................
     iter. time                 ...        0 min,  0.019 sec
 * total energy  :   -42.6569956 Eh     change       -0.5153849E-01 Eh
   gradient norm :     0.0340313 Eh/α   predicted    -0.5316411E-03 ( -98.97%)
   displ. norm   :     0.0718621 α      lambda       -0.1160160E-02
   maximum displ.:     0.0524243 α      in ANC's #41, #19, #73, ...

........................................................................
.............................. CYCLE  157 ..............................
........................................................................
     iter. time                 ...        0 min,  0.019 sec
 * total energy  :   -42.7159268 Eh     change       -0.5893118E-01 Eh
   gradient norm :     0.0331769 Eh/α   predicted    -0.5831561E-03 ( -99.01%)
   displ. norm   :     0.0598103 α      lambda       -0.9195378E-03
   maximum displ.:     0.0486616 α      in ANC's #41, #73, #81, ...

........................................................................
.............................. CYCLE  158 ..............................
........................................................................
     iter. time                 ...        0 min,  0.019 sec
 * total energy  :   -42.7662105 Eh     change       -0.5028371E-01 Eh
   gradient norm :     0.0286087 Eh/α   predicted    -0.4617800E-03 ( -99.08%)
   displ. norm   :     0.0411868 α      lambda       -0.6083806E-03
   maximum displ.:     0.0324526 α      in ANC's #41, #40, #34, ...

........................................................................
.............................. CYCLE  159 ..............................
........................................................................
     iter. time                 ...        0 min,  0.019 sec
 * total energy  :   -42.8014851 Eh     change       -0.3527457E-01 Eh
   gradient norm :     0.0211498 Eh/α   predicted    -0.3047217E-03 ( -99.14%)
   displ. norm   :     0.0191488 α      lambda       -0.2577999E-03
   maximum displ.:     0.0106292 α      in ANC's #41, #34, #40, ...

........................................................................
.............................. CYCLE  160 ..............................
........................................................................
     iter. time                 ...        0 min,  0.019 sec
 * total energy  :   -42.8191039 Eh     change       -0.1761885E-01 Eh
   gradient norm :     0.0186626 Eh/α   predicted    -0.1292866E-03 ( -99.27%)
   displ. norm   :     0.0177788 α      lambda       -0.2057268E-03
   maximum displ.:     0.0069750 α      in ANC's #34, #41, #40, ...

........................................................................
.............................. CYCLE  161 ..............................
........................................................................
     iter. time                 ...        0 min,  0.019 sec
 * total energy  :   -42.8382663 Eh     change       -0.1916242E-01 Eh
   gradient norm :     0.0203359 Eh/α   predicted    -0.1030051E-03 ( -99.46%)
   displ. norm   :     0.0383771 α      lambda       -0.3830443E-03
   maximum displ.:     0.0149056 α      in ANC's #41, #59, #24, ...

........................................................................
.............................. CYCLE  162 ..............................
........................................................................
     iter. time                 ...        0 min,  0.019 sec
 * total energy  :   -42.8830771 Eh     change       -0.4481073E-01 Eh
   gradient norm :     0.0260651 Eh/α   predicted    -0.1918865E-03 ( -99.57%)
   displ. norm   :     0.0796685 α      lambda       -0.7055447E-03
   maximum displ.:     0.0333481 α      in ANC's #41, #59, #24, ...

........................................................................
.............................. CYCLE  163 ..............................
........................................................................
     iter. time                 ...        0 min,  0.019 sec
 * total energy  :   -42.9744374 Eh     change       -0.9136036E-01 Eh
   gradient norm :     0.0339813 Eh/α   predicted    -0.3554910E-03 ( -99.61%)
   displ. norm   :     0.1267937 α      lambda       -0.1045601E-02
   maximum displ.:     0.0554430 α      in ANC's #59, #41, #24, ...

........................................................................
.............................. CYCLE  164 ..............................
........................................................................
     iter. time                 ...        0 min,  0.019 sec
 * total energy  :   -43.1079277 Eh     change       -0.1334903E+00 Eh
   gradient norm :     0.0376122 Eh/α   predicted    -0.5313862E-03 ( -99.60%)
   displ. norm   :     0.1326114 α      lambda       -0.1070419E-02
   maximum displ.:     0.0623974 α      in ANC's #59, #41, #81, ...

........................................................................
.............................. CYCLE  165 ..............................
........................................................................
     iter. time                 ...        0 min,  0.019 sec
 * total energy  :   -43.2293176 Eh     change       -0.1213899E+00 Eh
   gradient norm :     0.0330649 Eh/α   predicted    -0.5446565E-03 ( -99.55%)
   displ. norm   :     0.0781859 α      lambda       -0.7317400E-03
   maximum displ.:     0.0415203 α      in ANC's #59, #41, #81, ...

........................................................................
.............................. CYCLE  166 ..............................
........................................................................
     iter. time                 ...        0 min,  0.019 sec
 * total energy  :   -43.2888767 Eh     change       -0.5955907E-01 Eh
   gradient norm :     0.0273705 Eh/α   predicted    -0.3681338E-03 ( -99.38%)
   displ. norm   :     0.0328969 α      lambda       -0.5390205E-03
   maximum displ.:     0.0187790 α      in ANC's #59, #81, #24, ...

........................................................................
.............................. CYCLE  167 ..............................
........................................................................
     iter. time                 ...        0 min,  0.019 sec
 * total energy  :   -43.2961727 Eh     change       -0.7295960E-02 Eh
   gradient norm :     0.0271501 Eh/α   predicted    -0.2698291E-03 ( -96.30%)
   displ. norm   :     0.0611060 α      lambda       -0.6977756E-03
   maximum displ.:     0.0385976 α      in ANC's #41, #24, #19, ...

........................................................................
.............................. CYCLE  168 ..............................
........................................................................
     iter. time                 ...        0 min,  0.019 sec
 * total energy  :   -43.2624370 Eh     change        0.3373569E-01 Eh
   gradient norm :     0.0329527 Eh/α   predicted    -0.3503041E-03 (-101.04%)
   displ. norm   :     0.1109943 α      lambda       -0.8966082E-03
   maximum displ.:     0.0754724 α      in ANC's #41, #24, #19, ...

........................................................................
.............................. CYCLE  169 ..............................
........................................................................
     iter. time                 ...        0 min,  0.019 sec
 * total energy  :   -43.1880590 Eh     change        0.7437794E-01 Eh
   gradient norm :     0.0394444 Eh/α   predicted    -0.4541392E-03 (-100.61%)
   displ. norm   :     0.1092010 α      lambda       -0.9382857E-03
   maximum displ.:     0.0755167 α      in ANC's #41, #24, #19, ...

........................................................................
.............................. CYCLE  170 ..............................
........................................................................
     iter. time                 ...        0 min,  0.019 sec
 * total energy  :   -43.1161802 Eh     change        0.7187882E-01 Eh
   gradient norm :     0.0372958 Eh/α   predicted    -0.4749028E-03 (-100.66%)
   displ. norm   :     0.0549123 α      lambda       -0.9157964E-03
   maximum displ.:     0.0291836 α      in ANC's #41, #50, #24, ...

........................................................................
.............................. CYCLE  171 ..............................
........................................................................
     iter. time                 ...        0 min,  0.019 sec
 * total energy  :   -43.1098153 Eh     change        0.6364921E-02 Eh
   gradient norm :     0.0283443 Eh/α   predicted    -0.4592943E-03 (-107.22%)
   displ. norm   :     0.0844086 α      lambda       -0.7928767E-03
   maximum displ.:     0.0415455 α      in ANC's #81, #59, #50, ...

........................................................................
.............................. CYCLE  172 ..............................
........................................................................
     iter. time                 ...        0 min,  0.019 sec
 * total energy  :   -43.1628693 Eh     change       -0.5305402E-01 Eh
   gradient norm :     0.0255935 Eh/α   predicted    -0.3993270E-03 ( -99.25%)
   displ. norm   :     0.1277051 α      lambda       -0.7907884E-03
   maximum displ.:     0.0664670 α      in ANC's #81, #59, #50, ...

........................................................................
.............................. CYCLE  173 ..............................
........................................................................
     iter. time                 ...        0 min,  0.019 sec
 * total energy  :   -43.2110601 Eh     change       -0.4819077E-01 Eh
   gradient norm :     0.0302448 Eh/α   predicted    -0.4018828E-03 ( -99.17%)
   displ. norm   :     0.2221689 α      lambda       -0.1236967E-02
   maximum displ.:     0.1194654 α      in ANC's #81, #59, #50, ...

........................................................................
.............................. CYCLE  174 ..............................
........................................................................
     iter. time                 ...        0 min,  0.020 sec
 * total energy  :   -43.2329511 Eh     change       -0.2189100E-01 Eh
   gradient norm :     0.0420940 Eh/α   predicted    -0.6490827E-03 ( -97.03%)
   displ. norm   :     0.2627056 α      lambda       -0.1432553E-02
   maximum displ.:     0.1521254 α      in ANC's #81, #59, #80, ...

........................................................................
.............................. CYCLE  175 ..............................
........................................................................
     iter. time                 ...        0 min,  0.019 sec
 * total energy  :   -43.2290749 Eh     change        0.3876184E-02 Eh
   gradient norm :     0.0556761 Eh/α   predicted    -0.7657448E-03 (-119.76%)
   displ. norm   :     0.6605209 α      lambda       -0.4446988E-02
   maximum displ.:     0.4011267 α      in ANC's #81, #59, #80, ...

........................................................................
.............................. CYCLE  176 ..............................
........................................................................
     iter. time                 ...        0 min,  0.019 sec
 * total energy  :   -43.3521918 Eh     change       -0.1231170E+00 Eh
   gradient norm :     0.0959758 Eh/α   predicted    -0.3193783E-02 ( -97.41%)
   displ. norm   :     0.7744440 α      lambda       -0.8508941E-02
   maximum displ.:     0.5030581 α      in ANC's #81, #59, #80, ...

........................................................................
.............................. CYCLE  177 ..............................
........................................................................
     iter. time                 ...        0 min,  0.019 sec
 * total energy  :   -42.9475320 Eh     change        0.4046598E+00 Eh
   gradient norm :     0.1518117 Eh/α   predicted    -0.6806334E-02 (-101.68%)
   displ. norm   :     0.3558460 α      lambda       -0.1464221E-01
   maximum displ.:     0.1907469 α      in ANC's #81, #50, #76, ...

........................................................................
.............................. CYCLE  178 ..............................
........................................................................
     iter. time                 ...        0 min,  0.019 sec
 * total energy  :   -42.9973019 Eh     change       -0.4976981E-01 Eh
   gradient norm :     0.2572614 Eh/α   predicted    -0.8248048E-02 ( -83.43%)
   displ. norm   :     0.4320059 α      lambda       -0.3592088E-01
   maximum displ.:     0.2180606 α      in ANC's #59, #81, #66, ...

........................................................................
.............................. CYCLE  179 ..............................
........................................................................
     iter. time                 ...        0 min,  0.019 sec
 * total energy  :   -42.1521910 Eh     change        0.8451109E+00 Eh
   gradient norm :     0.1749485 Eh/α   predicted    -0.2131368E-01 (-102.52%)
   displ. norm   :     0.4837715 α      lambda       -0.1853024E-01
   maximum displ.:     0.3222359 α      in ANC's #81, #59, #73, ...

........................................................................
.............................. CYCLE  180 ..............................
........................................................................
     iter. time                 ...        0 min,  0.019 sec
 * total energy  :   -42.7944433 Eh     change       -0.6422523E+00 Eh
   gradient norm :     0.1179438 Eh/α   predicted    -0.1143386E-01 ( -98.22%)
   displ. norm   :     0.6836384 α      lambda       -0.2475450E-01
   maximum displ.:     0.4903562 α      in ANC's #81, #59, #80, ...

........................................................................
.............................. CYCLE  181 ..............................
........................................................................
     iter. time                 ...        0 min,  0.019 sec
 * total energy  :   -40.9519402 Eh     change        0.1842503E+01 Eh
   gradient norm :     0.0884049 Eh/α   predicted    -0.1816087E-01 (-100.99%)
   displ. norm   :     0.3086409 α      lambda       -0.1416316E-01
   maximum displ.:     0.1464546 α      in ANC's #59, #50, #66, ...

........................................................................
.............................. CYCLE  182 ..............................
........................................................................
     iter. time                 ...        0 min,  0.019 sec
 * total energy  :   -42.2810378 Eh     change       -0.1329098E+01 Eh
   gradient norm :     0.1258507 Eh/α   predicted    -0.7756787E-02 ( -99.42%)
   displ. norm   :     0.1860042 α      lambda       -0.9401106E-02
   maximum displ.:     0.1154617 α      in ANC's #81, #59, #80, ...

........................................................................
.............................. CYCLE  183 ..............................
........................................................................
     iter. time                 ...        0 min,  0.019 sec
 * total energy  :   -41.7664198 Eh     change        0.5146180E+00 Eh
   gradient norm :     0.0910764 Eh/α   predicted    -0.4862894E-02 (-100.94%)
   displ. norm   :     0.1070572 α      lambda       -0.6853182E-02
   maximum displ.:     0.0497244 α      in ANC's #50, #81, #75, ...
 * RMSD in coord.:     0.2182483 α      energy gain   0.6746120E+00 Eh

generating ANC from exact Hessian ...
Using GFN-FF Lindh-Hessian
 Shifting diagonal of input Hessian by    9.9936395838710178E-003
 Lowest  eigenvalues of input Hessian
    0.000000    0.000000    0.000000    0.000000    0.000000    0.010000
    0.000000    0.010006    0.010009    0.010015    0.010027    0.010030
    0.010035    0.010044    0.010055    0.010063    0.010082    0.010141
 Highest eigenvalues
   12.993057   19.652002   24.980768  168.915019  320.389892  578.289485


........................................................................
.............................. CYCLE  184 ..............................
........................................................................
     iter. time                 ...        0 min,  0.019 sec
 * total energy  :   -41.7154273 Eh     change        0.5099243E-01 Eh
   gradient norm :     0.1438256 Eh/α   predicted     0.0000000E+00 (-100.00%)
   displ. norm   :     0.0492406 α      lambda       -0.5534411E-02
   maximum displ.:     0.0322791 α      in ANC's #15, #43, #62, ...

........................................................................
.............................. CYCLE  185 ..............................
........................................................................
     iter. time                 ...        0 min,  0.019 sec
 * total energy  :   -41.7389506 Eh     change       -0.2352328E-01 Eh
   gradient norm :     0.1207830 Eh/α   predicted    -0.3442918E-02 ( -85.36%)
   displ. norm   :     0.2104920 α      lambda       -0.2440604E-01
   maximum displ.:     0.1382594 α      in ANC's #15, #62, #43, ...

........................................................................
.............................. CYCLE  186 ..............................
........................................................................
     iter. time                 ...        0 min,  0.019 sec
 * total energy  :   -41.8288318 Eh     change       -0.8988120E-01 Eh
   gradient norm :     0.0886118 Eh/α   predicted    -0.1274612E-01 ( -85.82%)
   displ. norm   :     0.0580968 α      lambda       -0.2906270E-02
   maximum displ.:     0.0335212 α      in ANC's #15, #74, #62, ...

........................................................................
.............................. CYCLE  187 ..............................
........................................................................
     iter. time                 ...        0 min,  0.019 sec
 * total energy  :   -41.8562365 Eh     change       -0.2740471E-01 Eh
   gradient norm :     0.0932494 Eh/α   predicted    -0.1458212E-02 ( -94.68%)
   displ. norm   :     0.1814129 α      lambda       -0.1018588E-01
   maximum displ.:     0.0979246 α      in ANC's #74, #15, #62, ...

........................................................................
.............................. CYCLE  188 ..............................
........................................................................
     iter. time                 ...        0 min,  0.019 sec
 * total energy  :   -41.9448662 Eh     change       -0.8862972E-01 Eh
   gradient norm :     0.1066689 Eh/α   predicted    -0.5260582E-02 ( -94.06%)
   displ. norm   :     0.1812522 α      lambda       -0.9398919E-02
   maximum displ.:     0.1154284 α      in ANC's #74, #72, #62, ...

........................................................................
.............................. CYCLE  189 ..............................
........................................................................
     iter. time                 ...        0 min,  0.019 sec
 * total energy  :   -42.0345964 Eh     change       -0.8973017E-01 Eh
   gradient norm :     0.1151057 Eh/α   predicted    -0.4854483E-02 ( -94.59%)
   displ. norm   :     0.1784926 α      lambda       -0.1074909E-01
   maximum displ.:     0.1219754 α      in ANC's #74, #72, #81, ...

........................................................................
.............................. CYCLE  190 ..............................
........................................................................
     iter. time                 ...        0 min,  0.020 sec
 * total energy  :   -42.1253176 Eh     change       -0.9072122E-01 Eh
   gradient norm :     0.1100756 Eh/α   predicted    -0.5545815E-02 ( -93.89%)
   displ. norm   :     0.1559039 α      lambda       -0.1086711E-01
   maximum displ.:     0.0907788 α      in ANC's #74, #15, #72, ...

........................................................................
.............................. CYCLE  191 ..............................
........................................................................
     iter. time                 ...        0 min,  0.019 sec
 * total energy  :   -42.2009495 Eh     change       -0.7563185E-01 Eh
   gradient norm :     0.0856713 Eh/α   predicted    -0.5565645E-02 ( -92.64%)
   displ. norm   :     0.0854664 α      lambda       -0.4637896E-02
   maximum displ.:     0.0499270 α      in ANC's #15, #74, #81, ...

........................................................................
.............................. CYCLE  192 ..............................
........................................................................
     iter. time                 ...        0 min,  0.019 sec
 * total energy  :   -42.2468833 Eh     change       -0.4593377E-01 Eh
   gradient norm :     0.0641132 Eh/α   predicted    -0.2335919E-02 ( -94.91%)
   displ. norm   :     0.0570441 α      lambda       -0.2347879E-02
   maximum displ.:     0.0263428 α      in ANC's #81, #33, #72, ...

........................................................................
.............................. CYCLE  193 ..............................
........................................................................
     iter. time                 ...        0 min,  0.019 sec
 * total energy  :   -42.2944209 Eh     change       -0.4753763E-01 Eh
   gradient norm :     0.0543633 Eh/α   predicted    -0.1177797E-02 ( -97.52%)
   displ. norm   :     0.0462851 α      lambda       -0.1843270E-02
   maximum displ.:     0.0254158 α      in ANC's #81, #33, #40, ...

........................................................................
.............................. CYCLE  194 ..............................
........................................................................
     iter. time                 ...        0 min,  0.019 sec
 * total energy  :   -42.3454102 Eh     change       -0.5098934E-01 Eh
   gradient norm :     0.0550222 Eh/α   predicted    -0.9236288E-03 ( -98.19%)
   displ. norm   :     0.0683898 α      lambda       -0.2208552E-02
   maximum displ.:     0.0447691 α      in ANC's #81, #79, #40, ...

........................................................................
.............................. CYCLE  195 ..............................
........................................................................
     iter. time                 ...        0 min,  0.019 sec
 * total energy  :   -42.4353069 Eh     change       -0.8989665E-01 Eh
   gradient norm :     0.0644673 Eh/α   predicted    -0.1109465E-02 ( -98.77%)
   displ. norm   :     0.1170284 α      lambda       -0.3699407E-02
   maximum displ.:     0.0811887 α      in ANC's #81, #79, #80, ...

........................................................................
.............................. CYCLE  196 ..............................
........................................................................
     iter. time                 ...        0 min,  0.019 sec
 * total energy  :   -42.5911200 Eh     change       -0.1558131E+00 Eh
   gradient norm :     0.0782670 Eh/α   predicted    -0.1875066E-02 ( -98.80%)
   displ. norm   :     0.2059278 α      lambda       -0.5959969E-02
   maximum displ.:     0.1474773 α      in ANC's #81, #79, #80, ...

........................................................................
.............................. CYCLE  197 ..............................
........................................................................
     iter. time                 ...        0 min,  0.019 sec
 * total energy  :   -42.8084573 Eh     change       -0.2173374E+00 Eh
   gradient norm :     0.0947309 Eh/α   predicted    -0.3106417E-02 ( -98.57%)
   displ. norm   :     0.2313648 α      lambda       -0.7099581E-02
   maximum displ.:     0.1647551 α      in ANC's #81, #79, #80, ...

........................................................................
.............................. CYCLE  198 ..............................
........................................................................
     iter. time                 ...        0 min,  0.019 sec
 * total energy  :   -42.9530821 Eh     change       -0.1446248E+00 Eh
   gradient norm :     0.1003287 Eh/α   predicted    -0.3740148E-02 ( -97.41%)
   displ. norm   :     0.2678232 α      lambda       -0.8327354E-02
   maximum displ.:     0.1877597 α      in ANC's #81, #79, #72, ...

........................................................................
.............................. CYCLE  199 ..............................
........................................................................
     iter. time                 ...        0 min,  0.019 sec
 * total energy  :   -43.0041781 Eh     change       -0.5109596E-01 Eh
   gradient norm :     0.1067129 Eh/α   predicted    -0.4462378E-02 ( -91.27%)
   displ. norm   :     0.2006367 α      lambda       -0.7780669E-02
   maximum displ.:     0.1253109 α      in ANC's #81, #79, #43, ...

........................................................................
.............................. CYCLE  200 ..............................
........................................................................
     iter. time                 ...        0 min,  0.019 sec
 * total energy  :   -43.0029824 Eh     change        0.1195698E-02 Eh
   gradient norm :     0.1102610 Eh/α   predicted    -0.4047183E-02 (-438.48%)
   displ. norm   :     0.2320568 α      lambda       -0.8364274E-02
   maximum displ.:     0.1475934 α      in ANC's #81, #79, #43, ...

........................................................................
.............................. CYCLE  201 ..............................
........................................................................
     iter. time                 ...        0 min,  0.019 sec
 * total energy  :   -42.9632662 Eh     change        0.3971614E-01 Eh
   gradient norm :     0.1151033 Eh/α   predicted    -0.4407502E-02 (-111.10%)
   displ. norm   :     0.2341125 α      lambda       -0.1107385E-01
   maximum displ.:     0.1222904 α      in ANC's #81, #43, #79, ...

........................................................................
.............................. CYCLE  202 ..............................
........................................................................
     iter. time                 ...        0 min,  0.019 sec
 * total energy  :   -42.9204394 Eh     change        0.4282683E-01 Eh
   gradient norm :     0.1206858 Eh/α   predicted    -0.5840476E-02 (-113.64%)
   displ. norm   :     0.2195068 α      lambda       -0.9379569E-02
   maximum displ.:     0.1265926 α      in ANC's #81, #79, #76, ...

........................................................................
.............................. CYCLE  203 ..............................
........................................................................
     iter. time                 ...        0 min,  0.019 sec
 * total energy  :   -42.8576743 Eh     change        0.6276506E-01 Eh
   gradient norm :     0.1279908 Eh/α   predicted    -0.4916045E-02 (-107.83%)
   displ. norm   :     0.3729934 α      lambda       -0.1969618E-01
   maximum displ.:     0.1851587 α      in ANC's #81, #76, #79, ...

........................................................................
.............................. CYCLE  204 ..............................
........................................................................
     iter. time                 ...        0 min,  0.019 sec
 * total energy  :   -42.7342084 Eh     change        0.1234659E+00 Eh
   gradient norm :     0.1424650 Eh/α   predicted    -0.1121833E-01 (-109.09%)
   displ. norm   :     0.3573274 α      lambda       -0.1807340E-01
   maximum displ.:     0.1749137 α      in ANC's #81, #76, #79, ...

........................................................................
.............................. CYCLE  205 ..............................
........................................................................
     iter. time                 ...        0 min,  0.019 sec
 * total energy  :   -42.5784480 Eh     change        0.1557604E+00 Eh
   gradient norm :     0.1363653 Eh/α   predicted    -0.1019063E-01 (-106.54%)
   displ. norm   :     0.3884275 α      lambda       -0.1909471E-01
   maximum displ.:     0.1859390 α      in ANC's #81, #76, #79, ...

........................................................................
.............................. CYCLE  206 ..............................
........................................................................
     iter. time                 ...        0 min,  0.019 sec
 * total energy  :   -42.3814189 Eh     change        0.1970291E+00 Eh
   gradient norm :     0.1027033 Eh/α   predicted    -0.1098790E-01 (-105.58%)
   displ. norm   :     0.3064982 α      lambda       -0.1023062E-01
   maximum displ.:     0.1783978 α      in ANC's #81, #79, #76, ...

........................................................................
.............................. CYCLE  207 ..............................
........................................................................
     iter. time                 ...        0 min,  0.019 sec
 * total energy  :   -42.2021168 Eh     change        0.1793021E+00 Eh
   gradient norm :     0.0833566 Eh/α   predicted    -0.5595976E-02 (-103.12%)
   displ. norm   :     0.3138689 α      lambda       -0.7277293E-02
   maximum displ.:     0.1872964 α      in ANC's #81, #79, #76, ...

........................................................................
.............................. CYCLE  208 ..............................
........................................................................
     iter. time                 ...        0 min,  0.019 sec
 * total energy  :   -42.0105461 Eh     change        0.1915707E+00 Eh
   gradient norm :     0.0976889 Eh/α   predicted    -0.3997161E-02 (-102.09%)
   displ. norm   :     0.2621163 α      lambda       -0.7677466E-02
   maximum displ.:     0.1611359 α      in ANC's #81, #79, #76, ...

........................................................................
.............................. CYCLE  209 ..............................
........................................................................
     iter. time                 ...        0 min,  0.019 sec
 * total energy  :   -41.8491709 Eh     change        0.1613752E+00 Eh
   gradient norm :     0.1220822 Eh/α   predicted    -0.4102518E-02 (-102.54%)
   displ. norm   :     0.4511836 α      lambda       -0.2323348E-01
   maximum displ.:     0.2316636 α      in ANC's #5, #81, #76, ...

........................................................................
.............................. CYCLE  210 ..............................
........................................................................
     iter. time                 ...        0 min,  0.019 sec
 * total energy  :   -41.5987038 Eh     change        0.2504671E+00 Eh
   gradient norm :     0.1698616 Eh/α   predicted    -0.1398163E-01 (-105.58%)
   displ. norm   :     0.3865578 α      lambda       -0.2517652E-01
   maximum displ.:     0.3170875 α      in ANC's #5, #11, #81, ...

........................................................................
.............................. CYCLE  211 ..............................
........................................................................
     iter. time                 ...        0 min,  0.019 sec
 * total energy  :   -41.4561237 Eh     change        0.1425801E+00 Eh
   gradient norm :     0.1778963 Eh/α   predicted    -0.1446931E-01 (-110.15%)
   displ. norm   :     0.3252227 α      lambda       -0.2553752E-01
   maximum displ.:     0.2574790 α      in ANC's #5, #80, #32, ...

........................................................................
.............................. CYCLE  212 ..............................
........................................................................
     iter. time                 ...        0 min,  0.019 sec
 * total energy  :   -41.1477379 Eh     change        0.3083857E+00 Eh
   gradient norm :     0.1244802 Eh/α   predicted    -0.1411983E-01 (-104.58%)
   displ. norm   :     0.2657221 α      lambda       -0.1592545E-01
   maximum displ.:     0.1311457 α      in ANC's #5, #43, #81, ...

........................................................................
.............................. CYCLE  213 ..............................
........................................................................
     iter. time                 ...        0 min,  0.019 sec
 * total energy  :   -41.2513297 Eh     change       -0.1035918E+00 Eh
   gradient norm :     0.0866926 Eh/α   predicted    -0.8525012E-02 ( -91.77%)
   displ. norm   :     0.1425769 α      lambda       -0.4733374E-02
   maximum displ.:     0.0732785 α      in ANC's #81, #74, #79, ...

........................................................................
.............................. CYCLE  214 ..............................
........................................................................
     iter. time                 ...        0 min,  0.019 sec
 * total energy  :   -41.3549416 Eh     change       -0.1036119E+00 Eh
   gradient norm :     0.0751225 Eh/α   predicted    -0.2415296E-02 ( -97.67%)
   displ. norm   :     0.1519315 α      lambda       -0.4788852E-02
   maximum displ.:     0.0917972 α      in ANC's #5, #23, #76, ...

........................................................................
.............................. CYCLE  215 ..............................
........................................................................
     iter. time                 ...        0 min,  0.019 sec
 * total energy  :   -41.4210539 Eh     change       -0.6611228E-01 Eh
   gradient norm :     0.0534317 Eh/α   predicted    -0.2449713E-02 ( -96.29%)
   displ. norm   :     0.0951632 α      lambda       -0.2046126E-02
   maximum displ.:     0.0493771 α      in ANC's #81, #5, #43, ...

........................................................................
.............................. CYCLE  216 ..............................
........................................................................
     iter. time                 ...        0 min,  0.019 sec
 * total energy  :   -41.3394111 Eh     change        0.8164282E-01 Eh
   gradient norm :     0.0386561 Eh/α   predicted    -0.1032457E-02 (-101.26%)
   displ. norm   :     0.2013741 α      lambda       -0.2669219E-02
   maximum displ.:     0.1273089 α      in ANC's #81, #74, #79, ...

........................................................................
.............................. CYCLE  217 ..............................
........................................................................
     iter. time                 ...        0 min,  0.019 sec
 * total energy  :   -41.1803217 Eh     change        0.1590894E+00 Eh
   gradient norm :     0.0458842 Eh/α   predicted    -0.1388829E-02 (-100.87%)
   displ. norm   :     0.2699418 α      lambda       -0.3004260E-02
   maximum displ.:     0.1601773 α      in ANC's #81, #5, #74, ...

........................................................................
.............................. CYCLE  218 ..............................
........................................................................
     iter. time                 ...        0 min,  0.019 sec
 * total energy  :   -40.9670704 Eh     change        0.2132513E+00 Eh
   gradient norm :     0.0652127 Eh/α   predicted    -0.1611657E-02 (-100.76%)
   displ. norm   :     0.4009683 α      lambda       -0.5394569E-02
   maximum displ.:     0.2116086 α      in ANC's #5, #81, #74, ...

........................................................................
.............................. CYCLE  219 ..............................
........................................................................
     iter. time                 ...        0 min,  0.019 sec
 * total energy  :   -40.5260720 Eh     change        0.4409984E+00 Eh
   gradient norm :     0.0787506 Eh/α   predicted    -0.3130994E-02 (-100.71%)
   displ. norm   :     0.2894348 α      lambda       -0.5445449E-02
   maximum displ.:     0.1710940 α      in ANC's #5, #81, #80, ...
 * RMSD in coord.:     0.3104241 α      energy gain   0.1240348E+01 Eh

generating ANC from exact Hessian ...
Using GFN-FF Lindh-Hessian
 Shifting diagonal of input Hessian by    1.0005394145452115E-002
 Lowest  eigenvalues of input Hessian
    0.010000    0.000000    0.000000    0.000000    0.000000    0.010012
    0.000000    0.010018    0.000000    0.010024    0.010029    0.010039
    0.010042    0.010054    0.010063    0.010070    0.010078    0.010125
 Highest eigenvalues
    4.963445    5.784900    7.835375    9.385348   13.692288  263.518203


........................................................................
.............................. CYCLE  220 ..............................
........................................................................
     iter. time                 ...        0 min,  0.020 sec
 * total energy  :   -40.1460234 Eh     change        0.3800486E+00 Eh
   gradient norm :     0.2827388 Eh/α   predicted     0.0000000E+00 (-100.00%)
   displ. norm   :     0.1162393 α      lambda       -0.3140949E-01
   maximum displ.:     0.0706905 α      in ANC's #5, #20, #10, ...

........................................................................
.............................. CYCLE  221 ..............................
........................................................................
     iter. time                 ...        0 min,  0.019 sec
 * total energy  :   -40.1798186 Eh     change       -0.3379518E-01 Eh
   gradient norm :     0.1796761 Eh/α   predicted    -0.1650121E-01 ( -51.17%)
   displ. norm   :     0.1862974 α      lambda       -0.3295062E-01
   maximum displ.:     0.1101479 α      in ANC's #5, #27, #20, ...

........................................................................
.............................. CYCLE  222 ..............................
........................................................................
     iter. time                 ...        0 min,  0.019 sec
 * total energy  :   -40.2086672 Eh     change       -0.2884864E-01 Eh
   gradient norm :     0.0908756 Eh/α   predicted    -0.1705546E-01 ( -40.88%)
   displ. norm   :     0.0508217 α      lambda       -0.3534681E-02
   maximum displ.:     0.0355536 α      in ANC's #66, #27, #5, ...

........................................................................
.............................. CYCLE  223 ..............................
........................................................................
     iter. time                 ...        0 min,  0.019 sec
 * total energy  :   -40.2112325 Eh     change       -0.2565290E-02 Eh
   gradient norm :     0.0905115 Eh/α   predicted    -0.1772024E-02 ( -30.92%)
   displ. norm   :     0.1735913 α      lambda       -0.1224960E-01
   maximum displ.:     0.1456701 α      in ANC's #66, #27, #5, ...

........................................................................
.............................. CYCLE  224 ..............................
........................................................................
     iter. time                 ...        0 min,  0.019 sec
 * total energy  :   -40.2093816 Eh     change        0.1850922E-02 Eh
   gradient norm :     0.1003188 Eh/α   predicted    -0.6309797E-02 (-440.90%)
   displ. norm   :     0.1781606 α      lambda       -0.9971616E-02
   maximum displ.:     0.1625324 α      in ANC's #66, #27, #64, ...

........................................................................
.............................. CYCLE  225 ..............................
........................................................................
     iter. time                 ...        0 min,  0.019 sec
 * total energy  :   -40.1947749 Eh     change        0.1460669E-01 Eh
   gradient norm :     0.1080469 Eh/α   predicted    -0.5144121E-02 (-135.22%)
   displ. norm   :     0.2315539 α      lambda       -0.1233186E-01
   maximum displ.:     0.2149705 α      in ANC's #66, #64, #6, ...

........................................................................
.............................. CYCLE  226 ..............................
........................................................................
     iter. time                 ...        0 min,  0.019 sec
 * total energy  :   -40.1601382 Eh     change        0.3463672E-01 Eh
   gradient norm :     0.1120274 Eh/α   predicted    -0.6496542E-02 (-118.76%)
   displ. norm   :     0.2316913 α      lambda       -0.1204301E-01
   maximum displ.:     0.2077979 α      in ANC's #66, #6, #64, ...

........................................................................
.............................. CYCLE  227 ..............................
........................................................................
     iter. time                 ...        0 min,  0.019 sec
 * total energy  :   -40.1089694 Eh     change        0.5116878E-01 Eh
   gradient norm :     0.1051737 Eh/α   predicted    -0.6344743E-02 (-112.40%)
   displ. norm   :     0.2052869 α      lambda       -0.1105594E-01
   maximum displ.:     0.1627704 α      in ANC's #66, #27, #64, ...

........................................................................
.............................. CYCLE  228 ..............................
........................................................................
     iter. time                 ...        0 min,  0.019 sec
 * total energy  :   -40.0494713 Eh     change        0.5949812E-01 Eh
   gradient norm :     0.0842504 Eh/α   predicted    -0.5761946E-02 (-109.68%)
   displ. norm   :     0.1390435 α      lambda       -0.6430612E-02
   maximum displ.:     0.0899038 α      in ANC's #66, #27, #64, ...

........................................................................
.............................. CYCLE  229 ..............................
........................................................................
     iter. time                 ...        0 min,  0.019 sec
 * total energy  :   -40.0002225 Eh     change        0.4924883E-01 Eh
   gradient norm :     0.0670171 Eh/α   predicted    -0.3278186E-02 (-106.66%)
   displ. norm   :     0.0864623 α      lambda       -0.3040184E-02
   maximum displ.:     0.0538102 α      in ANC's #27, #66, #37, ...

........................................................................
.............................. CYCLE  230 ..............................
........................................................................
     iter. time                 ...        0 min,  0.019 sec
 * total energy  :   -39.9628493 Eh     change        0.3737315E-01 Eh
   gradient norm :     0.0566946 Eh/α   predicted    -0.1531572E-02 (-104.10%)
   displ. norm   :     0.0591495 α      lambda       -0.2033648E-02
   maximum displ.:     0.0292582 α      in ANC's #27, #72, #66, ...

........................................................................
.............................. CYCLE  231 ..............................
........................................................................
     iter. time                 ...        0 min,  0.019 sec
 * total energy  :   -39.9326165 Eh     change        0.3023286E-01 Eh
   gradient norm :     0.0463797 Eh/α   predicted    -0.1020802E-02 (-103.38%)
   displ. norm   :     0.0500987 α      lambda       -0.1550028E-02
   maximum displ.:     0.0310037 α      in ANC's #72, #37, #73, ...

........................................................................
.............................. CYCLE  232 ..............................
........................................................................
     iter. time                 ...        0 min,  0.019 sec
 * total energy  :   -39.9021667 Eh     change        0.3044978E-01 Eh
   gradient norm :     0.0344561 Eh/α   predicted    -0.7771090E-03 (-102.55%)
   displ. norm   :     0.0384018 α      lambda       -0.9556448E-03
   maximum displ.:     0.0249276 α      in ANC's #72, #73, #37, ...

........................................................................
.............................. CYCLE  233 ..............................
........................................................................
     iter. time                 ...        0 min,  0.019 sec
 * total energy  :   -39.8749327 Eh     change        0.2723401E-01 Eh
   gradient norm :     0.0225134 Eh/α   predicted    -0.4785958E-03 (-101.76%)
   displ. norm   :     0.0266972 α      lambda       -0.4498385E-03
   maximum displ.:     0.0141378 α      in ANC's #72, #5, #6, ...

........................................................................
.............................. CYCLE  234 ..............................
........................................................................
     iter. time                 ...        0 min,  0.019 sec
 * total energy  :   -39.8529135 Eh     change        0.2201920E-01 Eh
   gradient norm :     0.0147640 Eh/α   predicted    -0.2250867E-03 (-101.02%)
   displ. norm   :     0.0157333 α      lambda       -0.1703736E-03
   maximum displ.:     0.0084007 α      in ANC's #5, #6, #64, ...

........................................................................
.............................. CYCLE  235 ..............................
........................................................................
     iter. time                 ...        0 min,  0.019 sec
 * total energy  :   -39.8377912 Eh     change        0.1512224E-01 Eh
   gradient norm :     0.0119771 Eh/α   predicted    -0.8526233E-04 (-100.56%)
   displ. norm   :     0.0144677 α      lambda       -0.1192992E-03
   maximum displ.:     0.0064984 α      in ANC's #64, #48, #6, ...

........................................................................
.............................. CYCLE  236 ..............................
........................................................................
     iter. time                 ...        0 min,  0.019 sec
 * total energy  :   -39.8214142 Eh     change        0.1637703E-01 Eh
   gradient norm :     0.0109360 Eh/α   predicted    -0.5973472E-04 (-100.36%)
   displ. norm   :     0.0179080 α      lambda       -0.1254344E-03
   maximum displ.:     0.0092657 α      in ANC's #64, #37, #48, ...

........................................................................
.............................. CYCLE  237 ..............................
........................................................................
     iter. time                 ...        0 min,  0.019 sec
 * total energy  :   -39.7982218 Eh     change        0.2319243E-01 Eh
   gradient norm :     0.0105678 Eh/α   predicted    -0.6276861E-04 (-100.27%)
   displ. norm   :     0.0211930 α      lambda       -0.1276015E-03
   maximum displ.:     0.0120016 α      in ANC's #64, #37, #6, ...

........................................................................
.............................. CYCLE  238 ..............................
........................................................................
     iter. time                 ...        0 min,  0.019 sec
 * total energy  :   -39.7674971 Eh     change        0.3072466E-01 Eh
   gradient norm :     0.0100009 Eh/α   predicted    -0.6384571E-04 (-100.21%)
   displ. norm   :     0.0182768 α      lambda       -0.9333821E-04
   maximum displ.:     0.0110835 α      in ANC's #64, #37, #5, ...

........................................................................
.............................. CYCLE  239 ..............................
........................................................................
     iter. time                 ...        0 min,  0.019 sec
 * total energy  :   -39.7380763 Eh     change        0.2942078E-01 Eh
   gradient norm :     0.0089054 Eh/α   predicted    -0.4672144E-04 (-100.16%)
   displ. norm   :     0.0128729 α      lambda       -0.6079843E-04
   maximum displ.:     0.0081833 α      in ANC's #64, #5, #6, ...

........................................................................
.............................. CYCLE  240 ..............................
........................................................................
     iter. time                 ...        0 min,  0.019 sec
 * total energy  :   -39.7149036 Eh     change        0.2317276E-01 Eh
   gradient norm :     0.0083418 Eh/α   predicted    -0.3042338E-04 (-100.13%)
   displ. norm   :     0.0133045 α      lambda       -0.5927292E-04
   maximum displ.:     0.0091019 α      in ANC's #64, #5, #6, ...

........................................................................
.............................. CYCLE  241 ..............................
........................................................................
     iter. time                 ...        0 min,  0.019 sec
 * total energy  :   -39.6875779 Eh     change        0.2732568E-01 Eh
   gradient norm :     0.0089154 Eh/α   predicted    -0.2966951E-04 (-100.11%)
   displ. norm   :     0.0213762 α      lambda       -0.8869413E-04
   maximum displ.:     0.0156058 α      in ANC's #64, #6, #66, ...

........................................................................
.............................. CYCLE  242 ..............................
........................................................................
     iter. time                 ...        0 min,  0.019 sec
 * total energy  :   -39.6386496 Eh     change        0.4892827E-01 Eh
   gradient norm :     0.0106185 Eh/α   predicted    -0.4439214E-04 (-100.09%)
   displ. norm   :     0.0338074 α      lambda       -0.1272873E-03
   maximum displ.:     0.0253883 α      in ANC's #64, #6, #66, ...

........................................................................
.............................. CYCLE  243 ..............................
........................................................................
     iter. time                 ...        0 min,  0.019 sec
 * total energy  :   -39.5550338 Eh     change        0.8361585E-01 Eh
   gradient norm :     0.0117191 Eh/α   predicted    -0.6375298E-04 (-100.08%)
   displ. norm   :     0.0341053 α      lambda       -0.1181231E-03
   maximum displ.:     0.0256442 α      in ANC's #64, #6, #66, ...

........................................................................
.............................. CYCLE  244 ..............................
........................................................................
     iter. time                 ...        0 min,  0.019 sec
 * total energy  :   -39.4651197 Eh     change        0.8991407E-01 Eh
   gradient norm :     0.0092945 Eh/α   predicted    -0.5914513E-04 (-100.07%)
   displ. norm   :     0.0160665 α      lambda       -0.5809583E-04
   maximum displ.:     0.0113838 α      in ANC's #64, #6, #66, ...

........................................................................
.............................. CYCLE  245 ..............................
........................................................................
     iter. time                 ...        0 min,  0.019 sec
 * total energy  :   -39.4215512 Eh     change        0.4356851E-01 Eh
   gradient norm :     0.0050797 Eh/α   predicted    -0.2907157E-04 (-100.07%)
   displ. norm   :     0.0037561 α      lambda       -0.1573878E-04
   maximum displ.:     0.0020696 α      in ANC's #48, #42, #37, ...

........................................................................
.............................. CYCLE  246 ..............................
........................................................................
     iter. time                 ...        0 min,  0.019 sec
 * total energy  :   -39.4156120 Eh     change        0.5939138E-02 Eh
   gradient norm :     0.0035321 Eh/α   predicted    -0.7902452E-05 (-100.13%)
   displ. norm   :     0.0024837 α      lambda       -0.6781060E-05
   maximum displ.:     0.0011148 α      in ANC's #48, #72, #23, ...

........................................................................
.............................. CYCLE  247 ..............................
........................................................................
     iter. time                 ...        0 min,  0.019 sec
 * total energy  :   -39.4107598 Eh     change        0.4852261E-02 Eh
   gradient norm :     0.0036503 Eh/α   predicted    -0.3412561E-05 (-100.07%)
   displ. norm   :     0.0055580 α      lambda       -0.1384624E-04
   maximum displ.:     0.0025024 α      in ANC's #73, #23, #16, ...

........................................................................
.............................. CYCLE  248 ..............................
........................................................................
     iter. time                 ...        0 min,  0.019 sec
 * total energy  :   -39.3982605 Eh     change        0.1249923E-01 Eh
   gradient norm :     0.0048859 Eh/α   predicted    -0.6953678E-05 (-100.06%)
   displ. norm   :     0.0132703 α      lambda       -0.2766915E-04
   maximum displ.:     0.0061418 α      in ANC's #23, #16, #73, ...

........................................................................
.............................. CYCLE  249 ..............................
........................................................................
     iter. time                 ...        0 min,  0.019 sec
 * total energy  :   -39.3573926 Eh     change        0.4086798E-01 Eh
   gradient norm :     0.0074162 Eh/α   predicted    -0.1388216E-04 (-100.03%)
   displ. norm   :     0.0397131 α      lambda       -0.7506239E-04
   maximum displ.:     0.0187602 α      in ANC's #23, #16, #73, ...

........................................................................
.............................. CYCLE  250 ..............................
........................................................................
     iter. time                 ...        0 min,  0.019 sec
 * total energy  :   -39.2180196 Eh     change        0.1393730E+00 Eh
   gradient norm :     0.0123718 Eh/α   predicted    -0.3761257E-04 (-100.03%)
   displ. norm   :     0.1001437 α      lambda       -0.1750058E-03
   maximum displ.:     0.0474352 α      in ANC's #23, #64, #16, ...

........................................................................
.............................. CYCLE  251 ..............................
........................................................................
     iter. time                 ...        0 min,  0.019 sec
 * total energy  :   -38.8008366 Eh     change        0.4171830E+00 Eh
   gradient norm :     0.0199098 Eh/α   predicted    -0.8857032E-04 (-100.02%)
   displ. norm   :     0.2404012 α      lambda       -0.4111769E-03
   maximum displ.:     0.1138495 α      in ANC's #23, #64, #16, ...

........................................................................
.............................. CYCLE  252 ..............................
........................................................................
     iter. time                 ...        0 min,  0.019 sec
 * total energy  :   -37.4347899 Eh     change        0.1366047E+01 Eh
   gradient norm :     0.0301473 Eh/α   predicted    -0.2177100E-03 (-100.02%)
   displ. norm   :     0.4565202 α      lambda       -0.8211960E-03
   maximum displ.:     0.2169802 α      in ANC's #64, #23, #16, ...

........................................................................
.............................. CYCLE  253 ..............................
........................................................................
     iter. time                 ...        0 min,  0.019 sec
 * total energy  :   -34.2081632 Eh     change        0.3226627E+01 Eh
   gradient norm :     0.0385189 Eh/α   predicted    -0.4962382E-03 (-100.02%)
   displ. norm   :     0.6333797 α      lambda       -0.1373675E-02
   maximum displ.:     0.3037438 α      in ANC's #64, #23, #16, ...

........................................................................
.............................. CYCLE  254 ..............................
........................................................................
     iter. time                 ...        0 min,  0.019 sec
 * total energy  :   -34.4182585 Eh     change       -0.2100953E+00 Eh
   gradient norm :     0.0356717 Eh/α   predicted    -0.9625431E-03 ( -99.54%)
   displ. norm   :     0.6646111 α      lambda       -0.1807093E-02
   maximum displ.:     0.3313318 α      in ANC's #64, #23, #16, ...

........................................................................
.............................. CYCLE  255 ..............................
........................................................................
     iter. time                 ...        0 min,  0.019 sec
 * total energy  :   -36.2376838 Eh     change       -0.1819425E+01 Eh
   gradient norm :     0.0157192 Eh/α   predicted    -0.1302870E-02 ( -99.93%)
   displ. norm   :     0.6634862 α      lambda       -0.9934609E-03
   maximum displ.:     0.3400991 α      in ANC's #64, #23, #16, ...

........................................................................
.............................. CYCLE  256 ..............................
........................................................................
     iter. time                 ...        0 min,  0.019 sec
 * total energy  :   -36.0372068 Eh     change        0.2004771E+00 Eh
   gradient norm :     0.0068880 Eh/α   predicted    -0.7155890E-03 (-100.36%)
   displ. norm   :     0.4915419 α      lambda       -0.3026167E-03
   maximum displ.:     0.2433596 α      in ANC's #64, #23, #16, ...

........................................................................
.............................. CYCLE  257 ..............................
........................................................................
     iter. time                 ...        0 min,  0.023 sec
 * total energy  :   -35.7184763 Eh     change        0.3187305E+00 Eh
   gradient norm :     0.0064243 Eh/α   predicted    -0.1879007E-03 (-100.06%)
   displ. norm   :     0.3193343 α      lambda       -0.9805314E-04
   maximum displ.:     0.1518376 α      in ANC's #64, #23, #16, ...

........................................................................
.............................. CYCLE  258 ..............................
........................................................................
     iter. time                 ...        0 min,  0.020 sec
 * total energy  :   -35.4695981 Eh     change        0.2488782E+00 Eh
   gradient norm :     0.0065243 Eh/α   predicted    -0.5403118E-04 (-100.02%)
   displ. norm   :     0.2117820 α      lambda       -0.3968682E-04
   maximum displ.:     0.1011106 α      in ANC's #23, #64, #16, ...
 * RMSD in coord.:     0.2758452 α      energy gain   0.5056474E+01 Eh

generating ANC from exact Hessian ...
Using GFN-FF Lindh-Hessian
 Shifting diagonal of input Hessian by    1.0006608571364286E-002
 Lowest  eigenvalues of input Hessian
    0.010000    0.000000    0.000000    0.000000    0.000000    0.000000
    0.010017    0.000000    0.010021    0.010022    0.010029    0.010033
    0.010041    0.010052    0.010055    0.010066    0.010069    0.010082
 Highest eigenvalues
    4.939111    5.848338    7.452645   11.536783   14.885641   43.509441


........................................................................
.............................. CYCLE  259 ..............................
........................................................................
     iter. time                 ...        0 min,  0.020 sec
 * total energy  :   -35.2371755 Eh     change        0.2324226E+00 Eh
   gradient norm :     0.0782922 Eh/α   predicted     0.0000000E+00 (-100.00%)
   displ. norm   :     0.0350773 α      lambda       -0.2700286E-02
   maximum displ.:     0.0301423 α      in ANC's #8, #26, #10, ...

........................................................................
.............................. CYCLE  260 ..............................
........................................................................
     iter. time                 ...        0 min,  0.019 sec
 * total energy  :   -35.2438858 Eh     change       -0.6710272E-02 Eh
   gradient norm :     0.0654756 Eh/α   predicted    -0.1369889E-02 ( -79.59%)
   displ. norm   :     0.1682399 α      lambda       -0.1092036E-01
   maximum displ.:     0.1404201 α      in ANC's #8, #26, #10, ...

........................................................................
.............................. CYCLE  261 ..............................
........................................................................
     iter. time                 ...        0 min,  0.019 sec
 * total energy  :   -35.2680738 Eh     change       -0.2418806E-01 Eh
   gradient norm :     0.0420031 Eh/α   predicted    -0.5623193E-02 ( -76.75%)
   displ. norm   :     0.0356905 α      lambda       -0.8616201E-03
   maximum displ.:     0.0221269 α      in ANC's #8, #26, #70, ...

........................................................................
.............................. CYCLE  262 ..............................
........................................................................
     iter. time                 ...        0 min,  0.019 sec
 * total energy  :   -35.2716004 Eh     change       -0.3526563E-02 Eh
   gradient norm :     0.0379867 Eh/α   predicted    -0.4315911E-03 ( -87.76%)
   displ. norm   :     0.0661522 α      lambda       -0.1675783E-02
   maximum displ.:     0.0433343 α      in ANC's #26, #70, #8, ...

........................................................................
.............................. CYCLE  263 ..............................
........................................................................
     iter. time                 ...        0 min,  0.019 sec
 * total energy  :   -35.2762822 Eh     change       -0.4681825E-02 Eh
   gradient norm :     0.0254528 Eh/α   predicted    -0.8429907E-03 ( -81.99%)
   displ. norm   :     0.0230089 α      lambda       -0.4281613E-03
   maximum displ.:     0.0136402 α      in ANC's #65, #70, #26, ...

........................................................................
.............................. CYCLE  264 ..............................
........................................................................
     iter. time                 ...        0 min,  0.019 sec
 * total energy  :   -35.2767034 Eh     change       -0.4212411E-03 Eh
   gradient norm :     0.0219297 Eh/α   predicted    -0.2142121E-03 ( -49.15%)
   displ. norm   :     0.0264674 α      lambda       -0.4472145E-03
   maximum displ.:     0.0175260 α      in ANC's #70, #65, #8, ...

........................................................................
.............................. CYCLE  265 ..............................
........................................................................
     iter. time                 ...        0 min,  0.019 sec
 * total energy  :   -35.2764265 Eh     change        0.2769422E-03 Eh
   gradient norm :     0.0208330 Eh/α   predicted    -0.2237752E-03 (-180.80%)
   displ. norm   :     0.0315734 α      lambda       -0.4384577E-03
   maximum displ.:     0.0214381 α      in ANC's #70, #65, #26, ...

........................................................................
.............................. CYCLE  266 ..............................
........................................................................
     iter. time                 ...        0 min,  0.019 sec
 * total energy  :   -35.2762038 Eh     change        0.2226639E-03 Eh
   gradient norm :     0.0188129 Eh/α   predicted    -0.2196041E-03 (-198.63%)
   displ. norm   :     0.0347745 α      lambda       -0.3932525E-03
   maximum displ.:     0.0229211 α      in ANC's #70, #65, #26, ...

........................................................................
.............................. CYCLE  267 ..............................
........................................................................
     iter. time                 ...        0 min,  0.019 sec
 * total energy  :   -35.2763727 Eh     change       -0.1688847E-03 Eh
   gradient norm :     0.0129789 Eh/α   predicted    -0.1969600E-03 (  16.62%)
   displ. norm   :     0.0191815 α      lambda       -0.1583651E-03
   maximum displ.:     0.0104179 α      in ANC's #70, #65, #8, ...

........................................................................
.............................. CYCLE  268 ..............................
........................................................................
     iter. time                 ...        0 min,  0.019 sec
 * total energy  :   -35.2765496 Eh     change       -0.1768325E-03 Eh
   gradient norm :     0.0069468 Eh/α   predicted    -0.7926126E-04 ( -55.18%)
   displ. norm   :     0.0074365 α      lambda       -0.4177044E-04
   maximum displ.:     0.0057494 α      in ANC's #8, #26, #24, ...

........................................................................
.............................. CYCLE  269 ..............................
........................................................................
     iter. time                 ...        0 min,  0.019 sec
 * total energy  :   -35.2761483 Eh     change        0.4012830E-03 Eh
   gradient norm :     0.0037936 Eh/α   predicted    -0.2090424E-04 (-105.21%)
   displ. norm   :     0.0031905 α      lambda       -0.1020377E-04
   maximum displ.:     0.0017584 α      in ANC's #8, #16, #24, ...

........................................................................
.............................. CYCLE  270 ..............................
........................................................................
     iter. time                 ...        0 min,  0.019 sec
 * total energy  :   -35.2752352 Eh     change        0.9130405E-03 Eh
   gradient norm :     0.0028170 Eh/α   predicted    -0.5117493E-05 (-100.56%)
   displ. norm   :     0.0032447 α      lambda       -0.7590929E-05
   maximum displ.:     0.0021240 α      in ANC's #24, #16, #44, ...

........................................................................
.............................. CYCLE  271 ..............................
........................................................................
     iter. time                 ...        0 min,  0.019 sec
 * total energy  :   -35.2735200 Eh     change        0.1715222E-02 Eh
   gradient norm :     0.0028752 Eh/α   predicted    -0.3821386E-05 (-100.22%)
   displ. norm   :     0.0055753 α      lambda       -0.1065745E-04
   maximum displ.:     0.0043009 α      in ANC's #24, #44, #16, ...

........................................................................
.............................. CYCLE  272 ..............................
........................................................................
     iter. time                 ...        0 min,  0.019 sec
 * total energy  :   -35.2699458 Eh     change        0.3574230E-02 Eh
   gradient norm :     0.0039949 Eh/α   predicted    -0.5342389E-05 (-100.15%)
   displ. norm   :     0.0135140 α      lambda       -0.2337277E-04
   maximum displ.:     0.0110246 α      in ANC's #24, #44, #49, ...

........................................................................
.............................. CYCLE  273 ..............................
........................................................................
     iter. time                 ...        0 min,  0.019 sec
 * total energy  :   -35.2610740 Eh     change        0.8871773E-02 Eh
   gradient norm :     0.0064235 Eh/α   predicted    -0.1169621E-04 (-100.13%)
   displ. norm   :     0.0349659 α      lambda       -0.5725997E-04
   maximum displ.:     0.0290285 α      in ANC's #24, #44, #49, ...

........................................................................
.............................. CYCLE  274 ..............................
........................................................................
     iter. time                 ...        0 min,  0.019 sec
 * total energy  :   -35.2390314 Eh     change        0.2204265E-01 Eh
   gradient norm :     0.0105831 Eh/α   predicted    -0.2868503E-04 (-100.13%)
   displ. norm   :     0.0877054 α      lambda       -0.1381839E-03
   maximum displ.:     0.0732888 α      in ANC's #24, #44, #49, ...

........................................................................
.............................. CYCLE  275 ..............................
........................................................................
     iter. time                 ...        0 min,  0.019 sec
 * total energy  :   -35.1923202 Eh     change        0.4671114E-01 Eh
   gradient norm :     0.0168496 Eh/α   predicted    -0.6964892E-04 (-100.15%)
   displ. norm   :     0.1986680 α      lambda       -0.3073843E-03
   maximum displ.:     0.1664554 α      in ANC's #24, #44, #49, ...

........................................................................
.............................. CYCLE  276 ..............................
........................................................................
     iter. time                 ...        0 min,  0.019 sec
 * total energy  :   -35.1333314 Eh     change        0.5898882E-01 Eh
   gradient norm :     0.0246703 Eh/α   predicted    -0.1597895E-03 (-100.27%)
   displ. norm   :     0.3696959 α      lambda       -0.5870988E-03
   maximum displ.:     0.3101712 α      in ANC's #24, #44, #49, ...

........................................................................
.............................. CYCLE  277 ..............................
........................................................................
     iter. time                 ...        0 min,  0.019 sec
 * total energy  :   -35.1325723 Eh     change        0.7590602E-03 Eh
   gradient norm :     0.0310220 Eh/α   predicted    -0.3337589E-03 (-143.97%)
   displ. norm   :     0.5232335 α      lambda       -0.9254022E-03
   maximum displ.:     0.4393660 α      in ANC's #24, #44, #49, ...

........................................................................
.............................. CYCLE  278 ..............................
........................................................................
     iter. time                 ...        0 min,  0.019 sec
 * total energy  :   -34.5502956 Eh     change        0.5822767E+00 Eh
   gradient norm :     0.0317287 Eh/α   predicted    -0.5894643E-03 (-100.10%)
   displ. norm   :     0.5807567 α      lambda       -0.1180907E-02
   maximum displ.:     0.4879284 α      in ANC's #24, #44, #49, ...

........................................................................
.............................. CYCLE  279 ..............................
........................................................................
     iter. time                 ...        0 min,  0.019 sec
 * total energy  :   -28.9951874 Eh     change        0.5555108E+01 Eh
   gradient norm :     0.0292967 Eh/α   predicted    -0.7897843E-03 (-100.01%)
   displ. norm   :     0.6057397 α      lambda       -0.1062899E-02
   maximum displ.:     0.5091758 α      in ANC's #24, #44, #49, ...

........................................................................
.............................. CYCLE  280 ..............................
........................................................................
     iter. time                 ...        0 min,  0.019 sec
 * total energy  :     1.2197398 Eh     change        0.3021493E+02 Eh
   gradient norm :     0.0878579 Eh/α   predicted    -0.7264647E-03 (-100.00%)
   displ. norm   :     0.6254113 α      lambda       -0.1667307E-02
   maximum displ.:     0.5258866 α      in ANC's #24, #44, #49, ...

........................................................................
.............................. CYCLE  281 ..............................
........................................................................
     iter. time                 ...        0 min,  0.019 sec
 * total energy  :    78.8344244 Eh     change        0.7761468E+02 Eh
   gradient norm :     0.2950820 Eh/α   predicted    -0.1160140E-02 (-100.00%)
   displ. norm   :     0.4506915 α      lambda       -0.7346305E-01
   maximum displ.:     0.3005243 α      in ANC's #65, #8, #70, ...

........................................................................
.............................. CYCLE  282 ..............................
........................................................................
     iter. time                 ...        0 min,  0.019 sec
 * total energy  :    71.3375446 Eh     change       -0.7496880E+01 Eh
   gradient norm :     0.0556999 Eh/α   predicted    -0.4419350E-01 ( -99.41%)
   displ. norm   :     0.3174671 α      lambda       -0.3121827E-02
   maximum displ.:     0.2591881 α      in ANC's #24, #44, #49, ...

........................................................................
.............................. CYCLE  283 ..............................
........................................................................
     iter. time                 ...        0 min,  0.019 sec
 * total energy  :    11.6215320 Eh     change       -0.5971601E+02 Eh
   gradient norm :     0.1926568 Eh/α   predicted    -0.1718433E-02 (-100.00%)
   displ. norm   :     0.2410729 α      lambda       -0.2840083E-01
   maximum displ.:     0.1619765 α      in ANC's #65, #8, #70, ...

........................................................................
.............................. CYCLE  284 ..............................
........................................................................
     iter. time                 ...        0 min,  0.019 sec
 * total energy  :     7.2821736 Eh     change       -0.4339358E+01 Eh
   gradient norm :     0.1376785 Eh/α   predicted    -0.1502569E-01 ( -99.65%)
   displ. norm   :     0.2104439 α      lambda       -0.1446041E-01
   maximum displ.:     0.1563297 α      in ANC's #65, #8, #70, ...

........................................................................
.............................. CYCLE  285 ..............................
........................................................................
     iter. time                 ...        0 min,  0.019 sec
 * total energy  :     1.1194751 Eh     change       -0.6162699E+01 Eh
   gradient norm :     0.0915117 Eh/α   predicted    -0.7551586E-02 ( -99.88%)
   displ. norm   :     0.2532350 α      lambda       -0.5420067E-02
   maximum displ.:     0.1847816 α      in ANC's #24, #65, #44, ...

........................................................................
.............................. CYCLE  286 ..............................
........................................................................
     iter. time                 ...        0 min,  0.019 sec
 * total energy  :   -15.9673289 Eh     change       -0.1708680E+02 Eh
   gradient norm :     0.0343273 Eh/α   predicted    -0.2883930E-02 ( -99.98%)
   displ. norm   :     0.6890244 α      lambda       -0.1814358E-02
   maximum displ.:     0.5790255 α      in ANC's #24, #44, #49, ...

........................................................................
.............................. CYCLE  287 ..............................
........................................................................
     iter. time                 ...        0 min,  0.019 sec
 * total energy  :   -34.1890168 Eh     change       -0.1822169E+02 Eh
   gradient norm :     0.0497122 Eh/α   predicted    -0.1338302E-02 ( -99.99%)
   displ. norm   :     0.4587185 α      lambda       -0.6743245E-02
   maximum displ.:     0.3270550 α      in ANC's #24, #44, #8, ...

........................................................................
.............................. CYCLE  288 ..............................
........................................................................
     iter. time                 ...        0 min,  0.019 sec
 * total energy  :   -36.5432663 Eh     change       -0.2354249E+01 Eh
   gradient norm :     0.0902737 Eh/α   predicted    -0.4081222E-02 ( -99.83%)
   displ. norm   :     0.3021001 α      lambda       -0.7568294E-02
   maximum displ.:     0.2234181 α      in ANC's #24, #44, #8, ...

........................................................................
.............................. CYCLE  289 ..............................
........................................................................
     iter. time                 ...        0 min,  0.019 sec
 * total energy  :   -37.0961296 Eh     change       -0.5528633E+00 Eh
   gradient norm :     0.0521284 Eh/α   predicted    -0.4129883E-02 ( -99.25%)
   displ. norm   :     0.9647417 α      lambda       -0.1994817E-02
   maximum displ.:     0.8108903 α      in ANC's #24, #44, #49, ...

........................................................................
.............................. CYCLE  290 ..............................
........................................................................
     iter. time                 ...        0 min,  0.019 sec
 * total energy  :   -37.1141386 Eh     change       -0.1800895E-01 Eh
   gradient norm :     0.0585726 Eh/α   predicted    -0.1926212E-02 ( -89.30%)
   displ. norm   :     0.6978761 α      lambda       -0.3110338E-02
   maximum displ.:     0.5794546 α      in ANC's #24, #44, #49, ...

........................................................................
.............................. CYCLE  291 ..............................
........................................................................
     iter. time                 ...        0 min,  0.019 sec
 * total energy  :   -36.4239629 Eh     change        0.6901756E+00 Eh
   gradient norm :     0.0548133 Eh/α   predicted    -0.2312646E-02 (-100.34%)
   displ. norm   :     0.7584342 α      lambda       -0.2298861E-02
   maximum displ.:     0.6370485 α      in ANC's #24, #44, #49, ...

........................................................................
.............................. CYCLE  292 ..............................
........................................................................
     iter. time                 ...        0 min,  0.019 sec
 * total energy  :   -35.3298099 Eh     change        0.1094153E+01 Eh
   gradient norm :     0.0507790 Eh/α   predicted    -0.1810649E-02 (-100.17%)
   displ. norm   :     0.6452865 α      lambda       -0.2811767E-02
   maximum displ.:     0.5394486 α      in ANC's #24, #44, #49, ...

........................................................................
.............................. CYCLE  293 ..............................
........................................................................
     iter. time                 ...        0 min,  0.019 sec
 * total energy  :   -34.3038700 Eh     change        0.1025940E+01 Eh
   gradient norm :     0.0310124 Eh/α   predicted    -0.1991543E-02 (-100.19%)
   displ. norm   :     0.8635809 α      lambda       -0.2380648E-02
   maximum displ.:     0.7248557 α      in ANC's #24, #44, #49, ...

........................................................................
.............................. CYCLE  294 ..............................
........................................................................
     iter. time                 ...        0 min,  0.020 sec
 * total energy  :   -33.2955184 Eh     change        0.1008352E+01 Eh
   gradient norm :     0.0153041 Eh/α   predicted    -0.2078141E-02 (-100.21%)
   displ. norm   :     0.9224742 α      lambda       -0.2214824E-02
   maximum displ.:     0.7743175 α      in ANC's #24, #44, #49, ...

........................................................................
.............................. CYCLE  295 ..............................
........................................................................
     iter. time                 ...        0 min,  0.019 sec
 * total energy  :   -32.8543475 Eh     change        0.4411708E+00 Eh
   gradient norm :     0.0039745 Eh/α   predicted    -0.2049896E-02 (-100.46%)
   displ. norm   :     0.9787232 α      lambda       -0.2020000E-02
   maximum displ.:     0.8222857 α      in ANC's #24, #44, #49, ...

........................................................................
.............................. CYCLE  296 ..............................
........................................................................
     iter. time                 ...        0 min,  0.019 sec
 * total energy  :   -31.9667167 Eh     change        0.8876308E+00 Eh
   gradient norm :     0.0102422 Eh/α   predicted    -0.1977544E-02 (-100.22%)
   displ. norm   :     0.9634122 α      lambda       -0.1912322E-02
   maximum displ.:     0.8091218 α      in ANC's #24, #44, #49, ...

........................................................................
.............................. CYCLE  297 ..............................
........................................................................
     iter. time                 ...        0 min,  0.019 sec
 * total energy  :   -28.7812212 Eh     change        0.3185496E+01 Eh
   gradient norm :     0.0181947 Eh/α   predicted    -0.1843771E-02 (-100.06%)
   displ. norm   :     0.9598832 α      lambda       -0.1832470E-02
   maximum displ.:     0.8064091 α      in ANC's #24, #44, #49, ...

........................................................................
.............................. CYCLE  298 ..............................
........................................................................
     iter. time                 ...        0 min,  0.019 sec
 * total energy  :   -19.4476625 Eh     change        0.9333559E+01 Eh
   gradient norm :     0.0220535 Eh/α   predicted    -0.1760578E-02 (-100.02%)
   displ. norm   :     0.9499691 α      lambda       -0.1821274E-02
   maximum displ.:     0.7978595 α      in ANC's #24, #44, #49, ...
 * RMSD in coord.:     0.8853834 α      energy gain   0.1602194E+02 Eh

generating ANC from exact Hessian ...
Using GFN-FF Lindh-Hessian
 Shifting diagonal of input Hessian by    1.1792122190689671E-002
 Lowest  eigenvalues of input Hessian
    0.010000    0.010078    0.011704    0.011721    0.011740    0.011746
    0.011753    0.011753    0.011756    0.011759    0.011762    0.011765
    0.011774    0.011778    0.011780    0.011782    0.011784    0.011789
 Highest eigenvalues
    4.178402    4.292177    5.757785    6.494114   11.278703   12.895109


........................................................................
.............................. CYCLE  299 ..............................
........................................................................
     iter. time                 ...        0 min,  0.019 sec
 * total energy  :     3.0843506 Eh     change        0.2253201E+02 Eh
   gradient norm :     0.1943734 Eh/α   predicted     0.0000000E+00 (-100.00%)
   displ. norm   :     0.0833824 α      lambda       -0.1496786E-01
   maximum displ.:     0.0792105 α      in ANC's #18, #14, #69, ...

........................................................................
.............................. CYCLE  300 ..............................
........................................................................
     iter. time                 ...        0 min,  0.019 sec
 * total energy  :     2.9450837 Eh     change       -0.1392668E+00 Eh
   gradient norm :     0.1847200 Eh/α   predicted    -0.8064774E-02 ( -94.21%)
   displ. norm   :     0.7391323 α      lambda       -0.1347588E+00
   maximum displ.:     0.7142519 α      in ANC's #18, #14, #69, ...

........................................................................
.............................. CYCLE  301 ..............................
........................................................................
     iter. time                 ...        0 min,  0.019 sec
 * total energy  :     1.8560198 Eh     change       -0.1089064E+01 Eh
   gradient norm :     0.1717990 Eh/α   predicted    -0.1041901E+00 ( -90.43%)
   displ. norm   :     0.4155616 α      lambda       -0.3861906E-01
   maximum displ.:     0.4023300 α      in ANC's #18, #69, #23, ...

........................................................................
.............................. CYCLE  302 ..............................
........................................................................
     iter. time                 ...        0 min,  0.019 sec
 * total energy  :     1.4506856 Eh     change       -0.4053342E+00 Eh
   gradient norm :     0.1890420 Eh/α   predicted    -0.2264494E-01 ( -94.41%)
   displ. norm   :     0.0756992 α      lambda       -0.1401113E-01
   maximum displ.:     0.0525628 α      in ANC's #23, #14, #28, ...

........................................................................
.............................. CYCLE  303 ..............................
........................................................................
     iter. time                 ...        0 min,  0.019 sec
 * total energy  :     1.4223748 Eh     change       -0.2831080E-01 Eh
   gradient norm :     0.1175987 Eh/α   predicted    -0.7048479E-02 ( -75.10%)
   displ. norm   :     0.1181210 α      lambda       -0.1354575E-01
   maximum displ.:     0.0848132 α      in ANC's #14, #23, #28, ...

........................................................................
.............................. CYCLE  304 ..............................
........................................................................
     iter. time                 ...        0 min,  0.019 sec
 * total energy  :     1.3843274 Eh     change       -0.3804742E-01 Eh
   gradient norm :     0.0403164 Eh/α   predicted    -0.6867587E-02 ( -81.95%)
   displ. norm   :     0.0159990 α      lambda       -0.5093822E-03
   maximum displ.:     0.0118765 α      in ANC's #14, #69, #81, ...

........................................................................
.............................. CYCLE  305 ..............................
........................................................................
     iter. time                 ...        0 min,  0.019 sec
 * total energy  :     1.3768009 Eh     change       -0.7526500E-02 Eh
   gradient norm :     0.0376577 Eh/α   predicted    -0.2566215E-03 ( -96.59%)
   displ. norm   :     0.0641631 α      lambda       -0.2049231E-02
   maximum displ.:     0.0345497 α      in ANC's #14, #81, #69, ...

........................................................................
.............................. CYCLE  306 ..............................
........................................................................
     iter. time                 ...        0 min,  0.019 sec
 * total energy  :     1.3407160 Eh     change       -0.3608492E-01 Eh
   gradient norm :     0.0382284 Eh/α   predicted    -0.1028888E-02 ( -97.15%)
   displ. norm   :     0.0460876 α      lambda       -0.1021929E-02
   maximum displ.:     0.0256785 α      in ANC's #81, #69, #79, ...

........................................................................
.............................. CYCLE  307 ..............................
........................................................................
     iter. time                 ...        0 min,  0.019 sec
 * total energy  :     1.3128927 Eh     change       -0.2782332E-01 Eh
   gradient norm :     0.0425763 Eh/α   predicted    -0.5120848E-03 ( -98.16%)
   displ. norm   :     0.1085095 α      lambda       -0.2421237E-02
   maximum displ.:     0.0643129 α      in ANC's #69, #81, #79, ...

........................................................................
.............................. CYCLE  308 ..............................
........................................................................
     iter. time                 ...        0 min,  0.019 sec
 * total energy  :     1.2370395 Eh     change       -0.7585320E-01 Eh
   gradient norm :     0.0505479 Eh/α   predicted    -0.1225044E-02 ( -98.38%)
   displ. norm   :     0.1430043 α      lambda       -0.2852673E-02
   maximum displ.:     0.0876796 α      in ANC's #69, #81, #79, ...

........................................................................
.............................. CYCLE  309 ..............................
........................................................................
     iter. time                 ...        0 min,  0.019 sec
 * total energy  :     1.1207821 Eh     change       -0.1162574E+00 Eh
   gradient norm :     0.0523392 Eh/α   predicted    -0.1455572E-02 ( -98.75%)
   displ. norm   :     0.1610453 α      lambda       -0.2970963E-02
   maximum displ.:     0.1019785 α      in ANC's #69, #81, #79, ...

........................................................................
.............................. CYCLE  310 ..............................
........................................................................
     iter. time                 ...        0 min,  0.019 sec
 * total energy  :     0.9812817 Eh     change       -0.1395004E+00 Eh
   gradient norm :     0.0456390 Eh/α   predicted    -0.1524154E-02 ( -98.91%)
   displ. norm   :     0.1273611 α      lambda       -0.1972715E-02
   maximum displ.:     0.0847110 α      in ANC's #69, #81, #80, ...

........................................................................
.............................. CYCLE  311 ..............................
........................................................................
     iter. time                 ...        0 min,  0.019 sec
 * total energy  :     0.8804555 Eh     change       -0.1008262E+00 Eh
   gradient norm :     0.0420688 Eh/α   predicted    -0.1002400E-02 ( -99.01%)
   displ. norm   :     0.1139637 α      lambda       -0.1539697E-02
   maximum displ.:     0.0807302 α      in ANC's #69, #81, #80, ...

........................................................................
.............................. CYCLE  312 ..............................
........................................................................
     iter. time                 ...        0 min,  0.019 sec
 * total energy  :     0.8057645 Eh     change       -0.7469101E-01 Eh
   gradient norm :     0.0446279 Eh/α   predicted    -0.7798665E-03 ( -98.96%)
   displ. norm   :     0.1663728 α      lambda       -0.2171974E-02
   maximum displ.:     0.1236966 α      in ANC's #69, #81, #28, ...

........................................................................
.............................. CYCLE  313 ..............................
........................................................................
     iter. time                 ...        0 min,  0.019 sec
 * total energy  :     0.7132804 Eh     change       -0.9248414E-01 Eh
   gradient norm :     0.0500687 Eh/α   predicted    -0.1116089E-02 ( -98.79%)
   displ. norm   :     0.2394696 α      lambda       -0.2870232E-02
   maximum displ.:     0.1859631 α      in ANC's #69, #81, #28, ...

........................................................................
.............................. CYCLE  314 ..............................
........................................................................
     iter. time                 ...        0 min,  0.019 sec
 * total energy  :     0.5909954 Eh     change       -0.1222850E+00 Eh
   gradient norm :     0.0530737 Eh/α   predicted    -0.1517522E-02 ( -98.76%)
   displ. norm   :     0.4280272 α      lambda       -0.4173703E-02
   maximum displ.:     0.3391232 α      in ANC's #69, #81, #80, ...

........................................................................
.............................. CYCLE  315 ..............................
........................................................................
     iter. time                 ...        0 min,  0.019 sec
 * total energy  :     0.3999015 Eh     change       -0.1910939E+00 Eh
   gradient norm :     0.0602319 Eh/α   predicted    -0.2469360E-02 ( -98.71%)
   displ. norm   :     0.7717801 α      lambda       -0.7862727E-02
   maximum displ.:     0.6230775 α      in ANC's #69, #81, #80, ...

........................................................................
.............................. CYCLE  316 ..............................
........................................................................
     iter. time                 ...        0 min,  0.019 sec
 * total energy  :     0.3637348 Eh     change       -0.3616667E-01 Eh
   gradient norm :     0.0933549 Eh/α   predicted    -0.6273676E-02 ( -82.65%)
   displ. norm   :     0.7100484 α      lambda       -0.1041296E-01
   maximum displ.:     0.5696234 α      in ANC's #69, #81, #80, ...

........................................................................
.............................. CYCLE  317 ..............................
........................................................................
     iter. time                 ...        0 min,  0.019 sec
 * total energy  :     0.6765787 Eh     change        0.3128439E+00 Eh
   gradient norm :     0.1250401 Eh/α   predicted    -0.7832074E-02 (-102.50%)
   displ. norm   :     0.6864589 α      lambda       -0.1762117E-01
   maximum displ.:     0.5438088 α      in ANC's #69, #81, #80, ...

........................................................................
.............................. CYCLE  318 ..............................
........................................................................
     iter. time                 ...        0 min,  0.019 sec
 * total energy  :     1.2424819 Eh     change        0.5659032E+00 Eh
   gradient norm :     0.1456781 Eh/α   predicted    -0.1296350E-01 (-102.29%)
   displ. norm   :     0.7860461 α      lambda       -0.3399340E-01
   maximum displ.:     0.6095765 α      in ANC's #69, #81, #80, ...

........................................................................
.............................. CYCLE  319 ..............................
........................................................................
     iter. time                 ...        0 min,  0.019 sec
 * total energy  :     2.1950250 Eh     change        0.9525431E+00 Eh
   gradient norm :     0.1984977 Eh/α   predicted    -0.2750116E-01 (-102.89%)
   displ. norm   :     0.8099720 α      lambda       -0.7082939E-01
   maximum displ.:     0.6033823 α      in ANC's #69, #81, #80, ...

........................................................................
.............................. CYCLE  320 ..............................
........................................................................
     iter. time                 ...        0 min,  0.019 sec
 * total energy  :     3.4917265 Eh     change        0.1296702E+01 Eh
   gradient norm :     0.3517750 Eh/α   predicted    -0.5865458E-01 (-104.52%)
   displ. norm   :     0.7519816 α      lambda       -0.1420511E+00
   maximum displ.:     0.5197465 α      in ANC's #69, #81, #79, ...

........................................................................
.............................. CYCLE  321 ..............................
........................................................................
     iter. time                 ...        0 min,  0.019 sec
 * total energy  :     4.9249754 Eh     change        0.1433249E+01 Eh
   gradient norm :     0.2981055 Eh/α   predicted    -0.1111997E+00 (-107.76%)
   displ. norm   :     0.8179331 α      lambda       -0.2278170E+00
   maximum displ.:     0.4871907 α      in ANC's #14, #79, #81, ...

........................................................................
.............................. CYCLE  322 ..............................
........................................................................
     iter. time                 ...        0 min,  0.019 sec
 * total energy  :     6.1387133 Eh     change        0.1213738E+01 Eh
   gradient norm :     1.0825009 Eh/α   predicted    -0.1901284E+00 (-115.66%)
   displ. norm   :     0.8452236 α      lambda       -0.7189090E+00
   maximum displ.:     0.5196964 α      in ANC's #79, #81, #14, ...

........................................................................
.............................. CYCLE  323 ..............................
........................................................................
     iter. time                 ...        0 min,  0.019 sec
 * total energy  :     6.8799569 Eh     change        0.7412436E+00 Eh
   gradient norm :     1.2392128 Eh/α   predicted    -0.6162996E+00 (-183.14%)
   displ. norm   :     0.8352531 α      lambda       -0.8131452E+00
   maximum displ.:     0.5406188 α      in ANC's #79, #81, #14, ...

........................................................................
.............................. CYCLE  324 ..............................
........................................................................
     iter. time                 ...        0 min,  0.019 sec
 * total energy  :     7.1208920 Eh     change        0.2409351E+00 Eh
   gradient norm :     0.3679044 Eh/α   predicted    -0.6902737E+00 (-386.50%)
   displ. norm   :     0.9063213 α      lambda       -0.2073912E+00
   maximum displ.:     0.6825527 α      in ANC's #69, #81, #18, ...

........................................................................
.............................. CYCLE  325 ..............................
........................................................................
     iter. time                 ...        0 min,  0.019 sec
 * total energy  :     7.4139388 Eh     change        0.2930467E+00 Eh
   gradient norm :     1.6129563 Eh/α   predicted    -0.1888840E+00 (-164.46%)
   displ. norm   :     0.6842780 α      lambda       -0.2784278E+00
   maximum displ.:     0.4394006 α      in ANC's #69, #81, #80, ...

........................................................................
.............................. CYCLE  326 ..............................
........................................................................
     iter. time                 ...        0 min,  0.019 sec
 * total energy  :     7.5283396 Eh     change        0.1144008E+00 Eh
   gradient norm :     1.3780699 Eh/α   predicted    -0.2044113E+00 (-278.68%)
   displ. norm   :     0.6475426 α      lambda       -0.7254230E+00
   maximum displ.:     0.4628355 α      in ANC's #14, #81, #79, ...

........................................................................
.............................. CYCLE  327 ..............................
........................................................................
     iter. time                 ...        0 min,  0.019 sec
 * total energy  :     6.8192297 Eh     change       -0.7091099E+00 Eh
   gradient norm :     0.6828155 Eh/α   predicted    -0.5148051E+00 ( -27.40%)
   displ. norm   :     0.6645811 α      lambda       -0.3525178E+00
   maximum displ.:     0.3453143 α      in ANC's #14, #81, #69, ...

........................................................................
.............................. CYCLE  328 ..............................
........................................................................
     iter. time                 ...        0 min,  0.019 sec
 * total energy  :     6.1101009 Eh     change       -0.7091289E+00 Eh
   gradient norm :     0.3440573 Eh/α   predicted    -0.2541086E+00 ( -64.17%)
   displ. norm   :     0.7764158 α      lambda       -0.2255602E+00
   maximum displ.:     0.4251366 α      in ANC's #69, #14, #81, ...

........................................................................
.............................. CYCLE  329 ..............................
........................................................................
     iter. time                 ...        0 min,  0.019 sec
 * total energy  :     5.1542339 Eh     change       -0.9558670E+00 Eh
   gradient norm :     0.8143890 Eh/α   predicted    -0.1807676E+00 ( -81.09%)
   displ. norm   :     0.7170277 α      lambda       -0.2493900E+00
   maximum displ.:     0.4354571 α      in ANC's #14, #34, #69, ...

........................................................................
.............................. CYCLE  330 ..............................
........................................................................
     iter. time                 ...        0 min,  0.019 sec
 * total energy  :     4.7569691 Eh     change       -0.3972648E+00 Eh
   gradient norm :     0.2393637 Eh/α   predicted    -0.1888063E+00 ( -52.47%)
   displ. norm   :     0.6598570 α      lambda       -0.7586371E-01
   maximum displ.:     0.5699537 α      in ANC's #69, #14, #81, ...

........................................................................
.............................. CYCLE  331 ..............................
........................................................................
     iter. time                 ...        0 min,  0.019 sec
 * total energy  :     4.4288034 Eh     change       -0.3281657E+00 Eh
   gradient norm :     0.2643400 Eh/α   predicted    -0.5444943E-01 ( -83.41%)
   displ. norm   :     0.8086873 α      lambda       -0.1377052E+00
   maximum displ.:     0.5036758 α      in ANC's #14, #69, #34, ...

........................................................................
.............................. CYCLE  332 ..............................
........................................................................
     iter. time                 ...        0 min,  0.019 sec
 * total energy  :     4.3978670 Eh     change       -0.3093636E-01 Eh
   gradient norm :     0.4881233 Eh/α   predicted    -0.1138805E+00 ( 268.11%)
   displ. norm   :     0.5663597 α      lambda       -0.7768924E-01
   maximum displ.:     0.4075716 α      in ANC's #69, #18, #14, ...

........................................................................
.............................. CYCLE  333 ..............................
........................................................................
     iter. time                 ...        0 min,  0.019 sec
 * total energy  :     4.1653278 Eh     change       -0.2325392E+00 Eh
   gradient norm :     0.5586349 Eh/α   predicted    -0.5130526E-01 ( -77.94%)
   displ. norm   :     0.4697133 α      lambda       -0.1041535E+00
   maximum displ.:     0.4177083 α      in ANC's #18, #69, #14, ...

........................................................................
.............................. CYCLE  334 ..............................
........................................................................
     iter. time                 ...        0 min,  0.019 sec
 * total energy  :     4.0673485 Eh     change       -0.9797936E-01 Eh
   gradient norm :     0.6041395 Eh/α   predicted    -0.6356717E-01 ( -35.12%)
   displ. norm   :     0.4974260 α      lambda       -0.1474782E+00
   maximum displ.:     0.4729840 α      in ANC's #18, #81, #23, ...

........................................................................
.............................. CYCLE  335 ..............................
........................................................................
     iter. time                 ...        0 min,  0.019 sec
 * total energy  :     4.0001365 Eh     change       -0.6721194E-01 Eh
   gradient norm :     0.6533765 Eh/α   predicted    -0.9198477E-01 (  36.86%)
   displ. norm   :     0.5676488 α      lambda       -0.2129124E+00
   maximum displ.:     0.5319926 α      in ANC's #18, #81, #23, ...

........................................................................
.............................. CYCLE  336 ..............................
........................................................................
     iter. time                 ...        0 min,  0.019 sec
 * total energy  :     3.8894114 Eh     change       -0.1107251E+00 Eh
   gradient norm :     0.7259061 Eh/α   predicted    -0.1407592E+00 (  27.12%)
   displ. norm   :     0.6352952 α      lambda       -0.3021759E+00
   maximum displ.:     0.5848844 α      in ANC's #18, #81, #69, ...

........................................................................
.............................. CYCLE  337 ..............................
........................................................................
     iter. time                 ...        0 min,  0.019 sec
 * total energy  :     3.6868716 Eh     change       -0.2025398E+00 Eh
   gradient norm :     0.7387534 Eh/α   predicted    -0.2120672E+00 (   4.70%)
   displ. norm   :     0.6335378 α      lambda       -0.3151075E+00
   maximum displ.:     0.5754034 α      in ANC's #18, #81, #69, ...

........................................................................
.............................. CYCLE  338 ..............................
........................................................................
     iter. time                 ...        0 min,  0.019 sec
 * total energy  :     3.4398124 Eh     change       -0.2470592E+00 Eh
   gradient norm :     0.6924920 Eh/α   predicted    -0.2207913E+00 ( -10.63%)
   displ. norm   :     0.8725095 α      lambda       -0.4628479E+00
   maximum displ.:     0.7171711 α      in ANC's #18, #81, #14, ...
 * RMSD in coord.:     0.8135175 α      energy gain   0.2288747E+02 Eh

generating ANC from exact Hessian ...
Using GFN-FF Lindh-Hessian
 Shifting diagonal of input Hessian by    1.1762135935175779E-002
 Lowest  eigenvalues of input Hessian
    0.010000    0.010038    0.011682    0.011692    0.011692    0.011709
    0.011716    0.011719    0.011723    0.011727    0.011734    0.011735
    0.011738    0.011743    0.011743    0.011746    0.011749    0.011754
 Highest eigenvalues
    4.095998    4.174110    4.179372    4.208719    9.064273   17.024352


........................................................................
.............................. CYCLE  339 ..............................
........................................................................
     iter. time                 ...        0 min,  0.019 sec
 * total energy  :     2.9705441 Eh     change       -0.4692684E+00 Eh
   gradient norm :     0.2603347 Eh/α   predicted     0.0000000E+00 (-100.00%)
   displ. norm   :     0.1139245 α      lambda       -0.2739916E-01
   maximum displ.:     0.0980147 α      in ANC's #6, #46, #60, ...

........................................................................
.............................. CYCLE  340 ..............................
........................................................................
     iter. time                 ...        0 min,  0.019 sec
 * total energy  :     2.9501725 Eh     change       -0.2037158E-01 Eh
   gradient norm :     0.1089736 Eh/α   predicted    -0.1480399E-01 ( -27.33%)
   displ. norm   :     0.0637612 α      lambda       -0.6593315E-02
   maximum displ.:     0.0345396 α      in ANC's #6, #60, #46, ...

........................................................................
.............................. CYCLE  341 ..............................
........................................................................
     iter. time                 ...        0 min,  0.019 sec
 * total energy  :     2.9460474 Eh     change       -0.4125111E-02 Eh
   gradient norm :     0.0699653 Eh/α   predicted    -0.3311244E-02 ( -19.73%)
   displ. norm   :     0.0293059 α      lambda       -0.1734406E-02
   maximum displ.:     0.0174696 α      in ANC's #60, #80, #46, ...

........................................................................
.............................. CYCLE  342 ..............................
........................................................................
     iter. time                 ...        0 min,  0.019 sec
 * total energy  :     2.9445640 Eh     change       -0.1483351E-02 Eh
   gradient norm :     0.0527132 Eh/α   predicted    -0.8680397E-03 ( -41.48%)
   displ. norm   :     0.0372797 α      lambda       -0.1597779E-02
   maximum displ.:     0.0296439 α      in ANC's #80, #60, #52, ...

........................................................................
.............................. CYCLE  343 ..............................
........................................................................
     iter. time                 ...        0 min,  0.019 sec
 * total energy  :     2.9429445 Eh     change       -0.1619517E-02 Eh
   gradient norm :     0.0529450 Eh/α   predicted    -0.8000417E-03 ( -50.60%)
   displ. norm   :     0.0579637 α      lambda       -0.2057438E-02
   maximum displ.:     0.0537239 α      in ANC's #80, #60, #52, ...

........................................................................
.............................. CYCLE  344 ..............................
........................................................................
     iter. time                 ...        0 min,  0.022 sec
 * total energy  :     2.9406341 Eh     change       -0.2310349E-02 Eh
   gradient norm :     0.0615688 Eh/α   predicted    -0.1032257E-02 ( -55.32%)
   displ. norm   :     0.0936383 α      lambda       -0.2985715E-02
   maximum displ.:     0.0907175 α      in ANC's #80, #48, #66, ...

........................................................................
.............................. CYCLE  345 ..............................
........................................................................
     iter. time                 ...        0 min,  0.022 sec
 * total energy  :     2.9375360 Eh     change       -0.3098110E-02 Eh
   gradient norm :     0.0630947 Eh/α   predicted    -0.1506012E-02 ( -51.39%)
   displ. norm   :     0.0747319 α      lambda       -0.2163569E-02
   maximum displ.:     0.0711314 α      in ANC's #80, #66, #60, ...

........................................................................
.............................. CYCLE  346 ..............................
........................................................................
     iter. time                 ...        0 min,  0.019 sec
 * total energy  :     2.9355563 Eh     change       -0.1979730E-02 Eh
   gradient norm :     0.0416593 Eh/α   predicted    -0.1087865E-02 ( -45.05%)
   displ. norm   :     0.0297689 α      lambda       -0.9321101E-03
   maximum displ.:     0.0190102 α      in ANC's #80, #60, #52, ...

........................................................................
.............................. CYCLE  347 ..............................
........................................................................
     iter. time                 ...        0 min,  0.019 sec
 * total energy  :     2.9348622 Eh     change       -0.6940724E-03 Eh
   gradient norm :     0.0130642 Eh/α   predicted    -0.4665006E-03 ( -32.79%)
   displ. norm   :     0.0146253 α      lambda        0.6616659E-04
   maximum displ.:     0.0115501 α      in ANC's #80, #60, #52, ...

........................................................................
.............................. CYCLE  348 ..............................
........................................................................
     iter. time                 ...        0 min,  0.019 sec
 * total energy  :     2.9348195 Eh     change       -0.4268900E-04 Eh
   gradient norm :     0.0135574 Eh/α   predicted     0.3308660E-04 (-177.51%)
   displ. norm   :     0.0194636 α      lambda       -0.1583274E-03
   maximum displ.:     0.0185058 α      in ANC's #80, #27, #46, ...

........................................................................
.............................. CYCLE  349 ..............................
........................................................................
     iter. time                 ...        0 min,  0.019 sec
 * total energy  :     2.9348148 Eh     change       -0.4762686E-05 Eh
   gradient norm :     0.0041947 Eh/α   predicted    -0.7921480E-04 (1563.24%)
   displ. norm   :     0.0028379 α      lambda       -0.1056313E-04
   maximum displ.:     0.0014496 α      in ANC's #80, #27, #52, ...

........................................................................
.............................. CYCLE  350 ..............................
........................................................................
     iter. time                 ...        0 min,  0.019 sec
 * total energy  :     2.9348223 Eh     change        0.7572764E-05 Eh
   gradient norm :     0.0013289 Eh/α   predicted    -0.5298482E-05 (-169.97%)
   displ. norm   :     0.0022967 α      lambda       -0.1711427E-05
   maximum displ.:     0.0014053 α      in ANC's #80, #66, #27, ...

........................................................................
.............................. CYCLE  351 ..............................
........................................................................
     iter. time                 ...        0 min,  0.019 sec
 * total energy  :     2.9348379 Eh     change        0.1551664E-04 Eh
   gradient norm :     0.0007781 Eh/α   predicted    -0.8637236E-06 (-105.57%)
   displ. norm   :     0.0005031 α      lambda       -0.1868029E-06
   maximum displ.:     0.0002863 α      in ANC's #52, #27, #80, ...

........................................................................
.............................. CYCLE  352 ..............................
........................................................................
     iter. time                 ...        0 min,  0.019 sec
 * total energy  :     2.9348547 Eh     change        0.1686465E-04 Eh
   gradient norm :     0.0004470 Eh/α   predicted    -0.1192055E-06 (-100.71%)
   displ. norm   :     0.0006959 α      lambda       -0.1027715E-06
   maximum displ.:     0.0003183 α      in ANC's #4, #3, #19, ...

........................................................................
.............................. CYCLE  353 ..............................
........................................................................
     iter. time                 ...        0 min,  0.019 sec
 * total energy  :     2.9349020 Eh     change        0.4730435E-04 Eh
   gradient norm :     0.0004599 Eh/α   predicted    -0.9923843E-07 (-100.21%)
   displ. norm   :     0.0018592 α      lambda       -0.4046614E-06
   maximum displ.:     0.0009727 α      in ANC's #4, #3, #19, ...

........................................................................
.............................. CYCLE  354 ..............................
........................................................................
     iter. time                 ...        0 min,  0.019 sec
 * total energy  :     2.9350463 Eh     change        0.1442801E-03 Eh
   gradient norm :     0.0008515 Eh/α   predicted    -0.2106740E-06 (-100.15%)
   displ. norm   :     0.0052604 α      lambda       -0.9929788E-06
   maximum displ.:     0.0028081 α      in ANC's #4, #3, #19, ...

........................................................................
.............................. CYCLE  355 ..............................
........................................................................
     iter. time                 ...        0 min,  0.019 sec
 * total energy  :     2.9354825 Eh     change        0.4361654E-03 Eh
   gradient norm :     0.0016336 Eh/α   predicted    -0.5269422E-06 (-100.12%)
   displ. norm   :     0.0141190 α      lambda       -0.2460629E-05
   maximum displ.:     0.0075841 α      in ANC's #4, #3, #19, ...

........................................................................
.............................. CYCLE  356 ..............................
........................................................................
     iter. time                 ...        0 min,  0.019 sec
 * total energy  :     2.9367900 Eh     change        0.1307565E-02 Eh
   gradient norm :     0.0029102 Eh/α   predicted    -0.1306438E-05 (-100.10%)
   displ. norm   :     0.0258936 α      lambda       -0.6484664E-05
   maximum displ.:     0.0139368 α      in ANC's #4, #3, #19, ...

........................................................................
.............................. CYCLE  357 ..............................
........................................................................
     iter. time                 ...        0 min,  0.019 sec
 * total energy  :     2.9396750 Eh     change        0.2884923E-02 Eh
   gradient norm :     0.0043138 Eh/α   predicted    -0.3470039E-05 (-100.12%)
   displ. norm   :     0.1037197 α      lambda       -0.2615936E-04
   maximum displ.:     0.0558488 α      in ANC's #4, #3, #19, ...

........................................................................
.............................. CYCLE  358 ..............................
........................................................................
     iter. time                 ...        0 min,  0.019 sec
 * total energy  :     2.9575036 Eh     change        0.1782864E-01 Eh
   gradient norm :     0.0084333 Eh/α   predicted    -0.1344261E-04 (-100.08%)
   displ. norm   :     0.1268448 α      lambda       -0.2818073E-04
   maximum displ.:     0.0683188 α      in ANC's #4, #3, #19, ...

........................................................................
.............................. CYCLE  359 ..............................
........................................................................
     iter. time                 ...        0 min,  0.019 sec
 * total energy  :     2.9932296 Eh     change        0.3572595E-01 Eh
   gradient norm :     0.0115257 Eh/α   predicted    -0.1459525E-04 (-100.04%)
   displ. norm   :     0.3601287 α      lambda       -0.8923259E-04
   maximum displ.:     0.1939807 α      in ANC's #4, #3, #19, ...

........................................................................
.............................. CYCLE  360 ..............................
........................................................................
     iter. time                 ...        0 min,  0.019 sec
 * total energy  :     3.1845690 Eh     change        0.1913394E+00 Eh
   gradient norm :     0.0167341 Eh/α   predicted    -0.5462705E-04 (-100.03%)
   displ. norm   :     0.5544606 α      lambda       -0.1697954E-03
   maximum displ.:     0.2986582 α      in ANC's #4, #3, #19, ...

........................................................................
.............................. CYCLE  361 ..............................
........................................................................
     iter. time                 ...        0 min,  0.019 sec
 * total energy  :     3.8048498 Eh     change        0.6202807E+00 Eh
   gradient norm :     0.0199876 Eh/α   predicted    -0.1282315E-03 (-100.02%)
   displ. norm   :     0.6266363 α      lambda       -0.3021437E-03
   maximum displ.:     0.3375101 α      in ANC's #4, #3, #19, ...

........................................................................
.............................. CYCLE  362 ..............................
........................................................................
     iter. time                 ...        0 min,  0.019 sec
 * total energy  :     5.3216366 Eh     change        0.1516787E+01 Eh
   gradient norm :     0.0169806 Eh/α   predicted    -0.2491797E-03 (-100.02%)
   displ. norm   :     0.5612625 α      lambda       -0.4374253E-03
   maximum displ.:     0.3021826 α      in ANC's #4, #3, #19, ...

........................................................................
.............................. CYCLE  363 ..............................
........................................................................
     iter. time                 ...        0 min,  0.019 sec
 * total energy  :     8.3306544 Eh     change        0.3009018E+01 Eh
   gradient norm :     0.0029101 Eh/α   predicted    -0.3323676E-03 (-100.01%)
   displ. norm   :     0.8014392 α      lambda       -0.3171389E-03
   maximum displ.:     0.4316618 α      in ANC's #4, #3, #19, ...

........................................................................
.............................. CYCLE  364 ..............................
........................................................................
     iter. time                 ...        0 min,  0.019 sec
 * total energy  :    20.7486447 Eh     change        0.1241799E+02 Eh
   gradient norm :     0.0006745 Eh/α   predicted    -0.3239385E-03 (-100.00%)
   displ. norm   :     1.1776051 α      lambda       -0.3139243E-03
   maximum displ.:     0.6342854 α      in ANC's #4, #3, #19, ...

........................................................................
.............................. CYCLE  365 ..............................
........................................................................
     iter. time                 ...        0 min,  0.019 sec
 * total energy  :    98.7463890 Eh     change        0.7799774E+02 Eh
   gradient norm :     0.0012278 Eh/α   predicted    -0.3138720E-03 (-100.00%)
   displ. norm   :     1.1723561 α      lambda       -0.3150251E-03
   maximum displ.:     0.6314687 α      in ANC's #4, #3, #19, ...

........................................................................
.............................. CYCLE  366 ..............................
........................................................................
     iter. time                 ...        0 min,  0.019 sec
 * total energy  :    67.1356310 Eh     change       -0.3161076E+02 Eh
   gradient norm :     0.0011606 Eh/α   predicted    -0.3135483E-03 (-100.00%)
   displ. norm   :     1.1740265 α      lambda       -0.3176193E-03
   maximum displ.:     0.6323584 α      in ANC's #4, #3, #19, ...

........................................................................
.............................. CYCLE  367 ..............................
........................................................................
     iter. time                 ...        0 min,  0.019 sec
 * total energy  :    62.9343750 Eh     change       -0.4201256E+01 Eh
   gradient norm :     0.0015183 Eh/α   predicted    -0.3165653E-03 ( -99.99%)
   displ. norm   :     1.1701383 α      lambda       -0.3213547E-03
   maximum displ.:     0.6302741 α      in ANC's #4, #3, #19, ...

........................................................................
.............................. CYCLE  368 ..............................
........................................................................
     iter. time                 ...        0 min,  0.019 sec
 * total energy  :    41.0397816 Eh     change       -0.2189459E+02 Eh
   gradient norm :     0.0012973 Eh/α   predicted    -0.3191690E-03 (-100.00%)
   displ. norm   :     1.1747749 α      lambda       -0.3277665E-03
   maximum displ.:     0.6327617 α      in ANC's #4, #3, #19, ...

........................................................................
.............................. CYCLE  369 ..............................
........................................................................
     iter. time                 ...        0 min,  0.019 sec
 * total energy  :    95.2053858 Eh     change        0.5416560E+02 Eh
   gradient norm :     0.0014342 Eh/α   predicted    -0.3268036E-03 (-100.00%)
   displ. norm   :     1.1735460 α      lambda       -0.3365776E-03
   maximum displ.:     0.6320883 α      in ANC's #4, #3, #19, ...

........................................................................
.............................. CYCLE  370 ..............................
........................................................................
     iter. time                 ...        0 min,  0.019 sec
 * total energy  :    55.1339051 Eh     change       -0.4007148E+02 Eh
   gradient norm :     0.0014732 Eh/α   predicted    -0.3353860E-03 (-100.00%)
   displ. norm   :     1.1741041 α      lambda       -0.3477116E-03
   maximum displ.:     0.6323904 α      in ANC's #4, #3, #19, ...

........................................................................
.............................. CYCLE  371 ..............................
........................................................................
     iter. time                 ...        0 min,  0.019 sec
 * total energy  :    64.9413363 Eh     change        0.9807431E+01 Eh
   gradient norm :     0.0013320 Eh/α   predicted    -0.3463885E-03 (-100.00%)
   displ. norm   :     1.1749313 α      lambda       -0.3590497E-03
   maximum displ.:     0.6328270 α      in ANC's #4, #3, #19, ...

........................................................................
.............................. CYCLE  372 ..............................
........................................................................
     iter. time                 ...        0 min,  0.019 sec
 * total energy  :   116.8653184 Eh     change        0.5192398E+02 Eh
   gradient norm :     0.0021298 Eh/α   predicted    -0.3579095E-03 (-100.00%)
   displ. norm   :     0.7813636 α      lambda       -0.3709398E-03
   maximum displ.:     0.4208435 α      in ANC's #4, #3, #19, ...

........................................................................
.............................. CYCLE  373 ..............................
........................................................................
     iter. time                 ...        0 min,  0.019 sec
 * total energy  :   195.4143893 Eh     change        0.7854907E+02 Eh
   gradient norm :     0.0043208 Eh/α   predicted    -0.3687907E-03 (-100.00%)
   displ. norm   :     0.7761437 α      lambda       -0.3823704E-03
   maximum displ.:     0.4180266 α      in ANC's #4, #3, #19, ...

........................................................................
.............................. CYCLE  374 ..............................
........................................................................
     iter. time                 ...        0 min,  0.019 sec
 * total energy  :   229.0203409 Eh     change        0.3360595E+02 Eh
   gradient norm :     0.0076072 Eh/α   predicted    -0.3776476E-03 (-100.00%)
   displ. norm   :     0.7603904 α      lambda       -0.3998076E-03
   maximum displ.:     0.4095291 α      in ANC's #4, #3, #19, ...

........................................................................
.............................. CYCLE  375 ..............................
........................................................................
     iter. time                 ...        0 min,  0.019 sec
 * total energy  :   134.0359672 Eh     change       -0.9498437E+02 Eh
   gradient norm :     0.0116561 Eh/α   predicted    -0.3868933E-03 (-100.00%)
   displ. norm   :     0.7323209 α      lambda       -0.4259445E-03
   maximum displ.:     0.3943990 α      in ANC's #4, #3, #19, ...

........................................................................
.............................. CYCLE  376 ..............................
........................................................................
     iter. time                 ...        0 min,  0.019 sec
 * total energy  :   101.3766181 Eh     change       -0.3265935E+02 Eh
   gradient norm :     0.0157326 Eh/α   predicted    -0.3976107E-03 (-100.00%)
   displ. norm   :     0.6968130 α      lambda       -0.4598493E-03
   maximum displ.:     0.3752600 α      in ANC's #4, #3, #19, ...

........................................................................
.............................. CYCLE  377 ..............................
........................................................................
     iter. time                 ...        0 min,  0.019 sec
 * total energy  :    90.5756062 Eh     change       -0.1080101E+02 Eh
   gradient norm :     0.0210547 Eh/α   predicted    -0.4102711E-03 (-100.00%)
   displ. norm   :     0.6394469 α      lambda       -0.5133710E-03
   maximum displ.:     0.3443381 α      in ANC's #4, #3, #19, ...

........................................................................
.............................. CYCLE  378 ..............................
........................................................................
     iter. time                 ...        0 min,  0.019 sec
 * total energy  :    93.6674043 Eh     change        0.3091798E+01 Eh
   gradient norm :     0.0227609 Eh/α   predicted    -0.4259859E-03 (-100.01%)
   displ. norm   :     0.7880300 α      lambda       -0.1182303E-02
   maximum displ.:     0.4243424 α      in ANC's #4, #3, #19, ...
 * RMSD in coord.:     1.1415501 α      energy gain   0.9022759E+02 Eh

generating ANC from exact Hessian ...
Using GFN-FF Lindh-Hessian
 Shifting diagonal of input Hessian by    1.1762267425712852E-002
 Lowest  eigenvalues of input Hessian
    0.010000    0.010038    0.011582    0.011681    0.011689    0.011692
    0.011700    0.011704    0.011709    0.011713    0.011717    0.011719
    0.011720    0.011722    0.011724    0.011727    0.011732    0.011733
 Highest eigenvalues
   16.208824   43.584198   46.920300   77.311121  136.231232  204.206576


........................................................................
.............................. CYCLE  379 ..............................
........................................................................
     iter. time                 ...        0 min,  0.019 sec
 * total energy  :    89.5939992 Eh     change       -0.4073405E+01 Eh
   gradient norm :     0.1165936 Eh/α   predicted     0.0000000E+00 (-100.00%)
   displ. norm   :     0.0492931 α      lambda       -0.5646328E-02
   maximum displ.:     0.0386457 α      in ANC's #11, #6, #44, ...

........................................................................
.............................. CYCLE  380 ..............................
........................................................................
     iter. time                 ...        0 min,  0.019 sec
 * total energy  :    89.5857981 Eh     change       -0.8201163E-02 Eh
   gradient norm :     0.0763168 Eh/α   predicted    -0.2868912E-02 ( -65.02%)
   displ. norm   :     0.0673317 α      lambda       -0.4544928E-02
   maximum displ.:     0.0593083 α      in ANC's #6, #44, #11, ...

........................................................................
.............................. CYCLE  381 ..............................
........................................................................
     iter. time                 ...        0 min,  0.019 sec
 * total energy  :    89.5740495 Eh     change       -0.1174852E-01 Eh
   gradient norm :     0.0872393 Eh/α   predicted    -0.2282825E-02 ( -80.57%)
   displ. norm   :     0.3465083 α      lambda       -0.2133535E-01
   maximum displ.:     0.3263609 α      in ANC's #6, #44, #11, ...

........................................................................
.............................. CYCLE  382 ..............................
........................................................................
     iter. time                 ...        0 min,  0.019 sec
 * total energy  :    89.5604343 Eh     change       -0.1361524E-01 Eh
   gradient norm :     0.1594069 Eh/α   predicted    -0.1194937E-01 ( -12.24%)
   displ. norm   :     0.4774879 α      lambda       -0.2366287E-01
   maximum displ.:     0.4625418 α      in ANC's #6, #11, #44, ...

........................................................................
.............................. CYCLE  383 ..............................
........................................................................
     iter. time                 ...        0 min,  0.019 sec
 * total energy  :    89.8592755 Eh     change        0.2988412E+00 Eh
   gradient norm :     0.2309171 Eh/α   predicted    -0.1452966E-01 (-104.86%)
   displ. norm   :     0.7516952 α      lambda       -0.4314802E-01
   maximum displ.:     0.7348328 α      in ANC's #6, #11, #16, ...

........................................................................
.............................. CYCLE  384 ..............................
........................................................................
     iter. time                 ...        0 min,  0.019 sec
 * total energy  :    95.6309493 Eh     change        0.5771674E+01 Eh
   gradient norm :     0.2781878 Eh/α   predicted    -0.3376446E-01 (-100.59%)
   displ. norm   :     0.8188943 α      lambda       -0.6704742E-01
   maximum displ.:     0.8021461 α      in ANC's #6, #11, #16, ...

........................................................................
.............................. CYCLE  385 ..............................
........................................................................
     iter. time                 ...        0 min,  0.019 sec
 * total energy  :   144.2576750 Eh     change        0.4862673E+02 Eh
   gradient norm :     0.3828371 Eh/α   predicted    -0.5601151E-01 (-100.12%)
   displ. norm   :     0.7421987 α      lambda       -0.9672392E-01
   maximum displ.:     0.7338760 α      in ANC's #6, #11, #16, ...

........................................................................
.............................. CYCLE  386 ..............................
........................................................................
     iter. time                 ...        0 min,  0.019 sec
 * total energy  :    97.7484778 Eh     change       -0.4650920E+02 Eh
   gradient norm :     0.2542935 Eh/α   predicted    -0.7500238E-01 ( -99.84%)
   displ. norm   :     0.8853736 α      lambda       -0.6050759E-01
   maximum displ.:     0.8576379 α      in ANC's #6, #11, #16, ...

........................................................................
.............................. CYCLE  387 ..............................
........................................................................
     iter. time                 ...        0 min,  0.019 sec
 * total energy  :    90.2364255 Eh     change       -0.7512052E+01 Eh
   gradient norm :     0.2622362 Eh/α   predicted    -0.5396947E-01 ( -99.28%)
   displ. norm   :     0.7809800 α      lambda       -0.8582488E-01
   maximum displ.:     0.7297003 α      in ANC's #6, #11, #8, ...

........................................................................
.............................. CYCLE  388 ..............................
........................................................................
     iter. time                 ...        0 min,  0.018 sec
 * total energy  :    90.0377167 Eh     change       -0.1987088E+00 Eh
   gradient norm :     0.1791608 Eh/α   predicted    -0.6908622E-01 ( -65.23%)
   displ. norm   :     0.9060272 α      lambda       -0.6479315E-01
   maximum displ.:     0.8654134 α      in ANC's #6, #11, #16, ...

........................................................................
.............................. CYCLE  389 ..............................
........................................................................
     iter. time                 ...        0 min,  0.019 sec
 * total energy  :    90.2380481 Eh     change        0.2003314E+00 Eh
   gradient norm :     0.1615199 Eh/α   predicted    -0.5899054E-01 (-129.45%)
   displ. norm   :     0.8722128 α      lambda       -0.6994859E-01
   maximum displ.:     0.8046115 α      in ANC's #6, #11, #8, ...

........................................................................
.............................. CYCLE  390 ..............................
........................................................................
     iter. time                 ...        0 min,  0.019 sec
 * total energy  :    90.3652476 Eh     change        0.1271995E+00 Eh
   gradient norm :     0.1338323 Eh/α   predicted    -0.6158127E-01 (-148.41%)
   displ. norm   :     0.8770238 α      lambda       -0.6098220E-01
   maximum displ.:     0.8137870 α      in ANC's #6, #11, #16, ...

........................................................................
.............................. CYCLE  391 ..............................
........................................................................
     iter. time                 ...        0 min,  0.019 sec
 * total energy  :    90.4472133 Eh     change        0.8196568E-01 Eh
   gradient norm :     0.0830859 Eh/α   predicted    -0.5394412E-01 (-165.81%)
   displ. norm   :     0.8875578 α      lambda       -0.5201241E-01
   maximum displ.:     0.8161166 α      in ANC's #6, #11, #16, ...

........................................................................
.............................. CYCLE  392 ..............................
........................................................................
     iter. time                 ...        0 min,  0.019 sec
 * total energy  :    90.5623946 Eh     change        0.1151812E+00 Eh
   gradient norm :     0.0666959 Eh/α   predicted    -0.4649292E-01 (-140.37%)
   displ. norm   :     0.9239740 α      lambda       -0.4431646E-01
   maximum displ.:     0.8900952 α      in ANC's #6, #11, #16, ...

........................................................................
.............................. CYCLE  393 ..............................
........................................................................
     iter. time                 ...        0 min,  0.019 sec
 * total energy  :    90.7120540 Eh     change        0.1496594E+00 Eh
   gradient norm :     0.0966660 Eh/α   predicted    -0.4107546E-01 (-127.45%)
   displ. norm   :     0.9690092 α      lambda       -0.4650550E-01
   maximum displ.:     0.9323933 α      in ANC's #6, #11, #16, ...

........................................................................
.............................. CYCLE  394 ..............................
........................................................................
     iter. time                 ...        0 min,  0.019 sec
 * total energy  :    90.9010209 Eh     change        0.1889669E+00 Eh
   gradient norm :     0.1003493 Eh/α   predicted    -0.4508665E-01 (-123.86%)
   displ. norm   :     0.9411583 α      lambda       -0.4708372E-01
   maximum displ.:     0.9126537 α      in ANC's #6, #11, #16, ...

........................................................................
.............................. CYCLE  395 ..............................
........................................................................
     iter. time                 ...        0 min,  0.019 sec
 * total energy  :    91.1130261 Eh     change        0.2120052E+00 Eh
   gradient norm :     0.0740608 Eh/α   predicted    -0.4439578E-01 (-120.94%)
   displ. norm   :     0.9469916 α      lambda       -0.4471314E-01
   maximum displ.:     0.9226359 α      in ANC's #6, #11, #16, ...

........................................................................
.............................. CYCLE  396 ..............................
........................................................................
     iter. time                 ...        0 min,  0.019 sec
 * total energy  :    91.3533977 Eh     change        0.2403716E+00 Eh
   gradient norm :     0.0769296 Eh/α   predicted    -0.4240584E-01 (-117.64%)
   displ. norm   :     0.9471605 α      lambda       -0.4673317E-01
   maximum displ.:     0.9224799 α      in ANC's #6, #11, #16, ...

........................................................................
.............................. CYCLE  397 ..............................
........................................................................
     iter. time                 ...        0 min,  0.019 sec
 * total energy  :    91.6024344 Eh     change        0.2490367E+00 Eh
   gradient norm :     0.0937954 Eh/α   predicted    -0.4432911E-01 (-117.80%)
   displ. norm   :     0.9257797 α      lambda       -0.5031684E-01
   maximum displ.:     0.9024786 α      in ANC's #6, #11, #28, ...

........................................................................
.............................. CYCLE  398 ..............................
........................................................................
     iter. time                 ...        0 min,  0.019 sec
 * total energy  :    91.7998514 Eh     change        0.1974170E+00 Eh
   gradient norm :     0.1357002 Eh/α   predicted    -0.4672095E-01 (-123.67%)
   displ. norm   :     0.8927065 α      lambda       -0.6063206E-01
   maximum displ.:     0.8505083 α      in ANC's #6, #28, #8, ...

........................................................................
.............................. CYCLE  399 ..............................
........................................................................
     iter. time                 ...        0 min,  0.019 sec
 * total energy  :    91.8682912 Eh     change        0.6843973E-01 Eh
   gradient norm :     0.1795277 Eh/α   predicted    -0.5447577E-01 (-179.60%)
   displ. norm   :     0.7728892 α      lambda       -0.5747729E-01
   maximum displ.:     0.7056838 α      in ANC's #6, #11, #28, ...

........................................................................
.............................. CYCLE  400 ..............................
........................................................................
     iter. time                 ...        0 min,  0.019 sec
 * total energy  :    91.8701415 Eh     change        0.1850380E-02 Eh
   gradient norm :     0.1265356 Eh/α   predicted    -0.4590590E-01 (*******%)
   displ. norm   :     0.8966899 α      lambda       -0.4300217E-01
   maximum displ.:     0.8752470 α      in ANC's #6, #11, #8, ...

........................................................................
.............................. CYCLE  401 ..............................
........................................................................
     iter. time                 ...        0 min,  0.019 sec
 * total energy  :    91.7308298 Eh     change       -0.1393117E+00 Eh
   gradient norm :     0.1032065 Eh/α   predicted    -0.3878928E-01 ( -72.16%)
   displ. norm   :     0.8158621 α      lambda       -0.4009999E-01
   maximum displ.:     0.8012802 α      in ANC's #6, #8, #11, ...

........................................................................
.............................. CYCLE  402 ..............................
........................................................................
     iter. time                 ...        0 min,  0.019 sec
 * total energy  :    91.5546396 Eh     change       -0.1761902E+00 Eh
   gradient norm :     0.1028805 Eh/α   predicted    -0.3339614E-01 ( -81.05%)
   displ. norm   :     0.8851872 α      lambda       -0.3479752E-01
   maximum displ.:     0.8553813 α      in ANC's #6, #11, #16, ...

........................................................................
.............................. CYCLE  403 ..............................
........................................................................
     iter. time                 ...        0 min,  0.019 sec
 * total energy  :    91.3842605 Eh     change       -0.1703791E+00 Eh
   gradient norm :     0.0761931 Eh/α   predicted    -0.3103233E-01 ( -81.79%)
   displ. norm   :     0.9166793 α      lambda       -0.3192160E-01
   maximum displ.:     0.9027889 α      in ANC's #6, #11, #16, ...

........................................................................
.............................. CYCLE  404 ..............................
........................................................................
     iter. time                 ...        0 min,  0.019 sec
 * total energy  :    91.2568701 Eh     change       -0.1273904E+00 Eh
   gradient norm :     0.0623302 Eh/α   predicted    -0.2937274E-01 ( -76.94%)
   displ. norm   :     0.9090608 α      lambda       -0.3067250E-01
   maximum displ.:     0.9004759 α      in ANC's #6, #11, #16, ...

........................................................................
.............................. CYCLE  405 ..............................
........................................................................
     iter. time                 ...        0 min,  0.019 sec
 * total energy  :    91.1946173 Eh     change       -0.6225286E-01 Eh
   gradient norm :     0.0322972 Eh/α   predicted    -0.2801091E-01 ( -55.00%)
   displ. norm   :     0.9194569 α      lambda       -0.2443486E-01
   maximum displ.:     0.9054176 α      in ANC's #6, #11, #16, ...

........................................................................
.............................. CYCLE  406 ..............................
........................................................................
     iter. time                 ...        0 min,  0.019 sec
 * total energy  :    91.1935768 Eh     change       -0.1040471E-02 Eh
   gradient norm :     0.0306238 Eh/α   predicted    -0.2254613E-01 (2066.92%)
   displ. norm   :     0.9384091 α      lambda       -0.2242830E-01
   maximum displ.:     0.9200168 α      in ANC's #6, #11, #16, ...

........................................................................
.............................. CYCLE  407 ..............................
........................................................................
     iter. time                 ...        0 min,  0.019 sec
 * total energy  :    91.2320422 Eh     change        0.3846539E-01 Eh
   gradient norm :     0.0270573 Eh/α   predicted    -0.2108983E-01 (-154.83%)
   displ. norm   :     0.9422430 α      lambda       -0.2048650E-01
   maximum displ.:     0.9184820 α      in ANC's #6, #11, #16, ...

........................................................................
.............................. CYCLE  408 ..............................
........................................................................
     iter. time                 ...        0 min,  0.019 sec
 * total energy  :    91.2863984 Eh     change        0.5435623E-01 Eh
   gradient norm :     0.0241381 Eh/α   predicted    -0.1933762E-01 (-135.58%)
   displ. norm   :     0.9444946 α      lambda       -0.1890215E-01
   maximum displ.:     0.9140643 α      in ANC's #6, #11, #16, ...

........................................................................
.............................. CYCLE  409 ..............................
........................................................................
     iter. time                 ...        0 min,  0.018 sec
 * total energy  :    91.3402607 Eh     change        0.5386229E-01 Eh
   gradient norm :     0.0266185 Eh/α   predicted    -0.1788225E-01 (-133.20%)
   displ. norm   :     0.9447864 α      lambda       -0.1773498E-01
   maximum displ.:     0.9051766 α      in ANC's #6, #11, #16, ...

........................................................................
.............................. CYCLE  410 ..............................
........................................................................
     iter. time                 ...        0 min,  0.019 sec
 * total energy  :    91.3957326 Eh     change        0.5547183E-01 Eh
   gradient norm :     0.0341789 Eh/α   predicted    -0.1678296E-01 (-130.25%)
   displ. norm   :     0.9417289 α      lambda       -0.1704523E-01
   maximum displ.:     0.8890396 α      in ANC's #6, #11, #16, ...

........................................................................
.............................. CYCLE  411 ..............................
........................................................................
     iter. time                 ...        0 min,  0.019 sec
 * total energy  :    91.4739267 Eh     change        0.7819416E-01 Eh
   gradient norm :     0.0434347 Eh/α   predicted    -0.1608106E-01 (-120.57%)
   displ. norm   :     0.9287330 α      lambda       -0.1668796E-01
   maximum displ.:     0.8567305 α      in ANC's #6, #11, #16, ...

........................................................................
.............................. CYCLE  412 ..............................
........................................................................
     iter. time                 ...        0 min,  0.018 sec
 * total energy  :    91.6057509 Eh     change        0.1318241E+00 Eh
   gradient norm :     0.0499368 Eh/α   predicted    -0.1554114E-01 (-111.79%)
   displ. norm   :     0.8986155 α      lambda       -0.1636361E-01
   maximum displ.:     0.7960989 α      in ANC's #6, #11, #16, ...

........................................................................
.............................. CYCLE  413 ..............................
........................................................................
     iter. time                 ...        0 min,  0.018 sec
 * total energy  :    91.8134455 Eh     change        0.2076947E+00 Eh
   gradient norm :     0.0471261 Eh/α   predicted    -0.1478875E-01 (-107.12%)
   displ. norm   :     0.8500526 α      lambda       -0.1456593E-01
   maximum displ.:     0.7150732 α      in ANC's #6, #11, #8, ...

........................................................................
.............................. CYCLE  414 ..............................
........................................................................
     iter. time                 ...        0 min,  0.018 sec
 * total energy  :    92.0969696 Eh     change        0.2835241E+00 Eh
   gradient norm :     0.0302109 Eh/α   predicted    -0.1254562E-01 (-104.42%)
   displ. norm   :     0.7923870 α      lambda       -0.9444478E-02
   maximum displ.:     0.6867920 α      in ANC's #6, #11, #8, ...

........................................................................
.............................. CYCLE  415 ..............................
........................................................................
     iter. time                 ...        0 min,  0.018 sec
 * total energy  :    92.4639015 Eh     change        0.3669319E+00 Eh
   gradient norm :     0.0155756 Eh/α   predicted    -0.7687248E-02 (-102.10%)
   displ. norm   :     0.7388368 α      lambda       -0.5682593E-02
   maximum displ.:     0.6924632 α      in ANC's #6, #11, #16, ...

........................................................................
.............................. CYCLE  416 ..............................
........................................................................
     iter. time                 ...        0 min,  0.018 sec
 * total energy  :    92.9182673 Eh     change        0.4543658E+00 Eh
   gradient norm :     0.0208364 Eh/α   predicted    -0.4392345E-02 (-100.97%)
   displ. norm   :     0.8115695 α      lambda       -0.5660717E-02
   maximum displ.:     0.7922149 α      in ANC's #6, #11, #16, ...

........................................................................
.............................. CYCLE  417 ..............................
........................................................................
     iter. time                 ...        0 min,  0.019 sec
 * total energy  :    93.5292435 Eh     change        0.6109762E+00 Eh
   gradient norm :     0.0294600 Eh/α   predicted    -0.4694611E-02 (-100.77%)
   displ. norm   :     0.8737083 α      lambda       -0.6640154E-02
   maximum displ.:     0.8686745 α      in ANC's #6, #11, #16, ...

........................................................................
.............................. CYCLE  418 ..............................
........................................................................
     iter. time                 ...        0 min,  0.019 sec
 * total energy  :    94.2800853 Eh     change        0.7508418E+00 Eh
   gradient norm :     0.0314915 Eh/α   predicted    -0.5854664E-02 (-100.78%)
   displ. norm   :     0.8796649 α      lambda       -0.6727827E-02
   maximum displ.:     0.8775036 α      in ANC's #6, #16, #31, ...
 * RMSD in coord.:     2.0701296 α      energy gain   0.6126810E+00 Eh

generating ANC from exact Hessian ...
Using GFN-FF Lindh-Hessian
 Shifting diagonal of input Hessian by    1.1760113701805859E-002
 Lowest  eigenvalues of input Hessian
    0.010000    0.010024    0.011313    0.011326    0.011388    0.011599
    0.011648    0.011661    0.011674    0.011680    0.011684    0.011687
    0.011692    0.011694    0.011696    0.011702    0.011704    0.011709
 Highest eigenvalues
   16.222246   43.828275   47.172629   86.980583  136.019414  203.821712


........................................................................
.............................. CYCLE  419 ..............................
........................................................................
     iter. time                 ...        0 min,  0.019 sec
 * total energy  :    95.0835996 Eh     change        0.8035143E+00 Eh
   gradient norm :     0.3392494 Eh/α   predicted     0.0000000E+00 (-100.00%)
   displ. norm   :     0.1506643 α      lambda       -0.4980593E-01
   maximum displ.:     0.1453998 α      in ANC's #7, #50, #29, ...

........................................................................
.............................. CYCLE  420 ..............................
........................................................................
     iter. time                 ...        0 min,  0.019 sec
 * total energy  :    95.0453015 Eh     change       -0.3829812E-01 Eh
   gradient norm :     0.1819506 Eh/α   predicted    -0.2597959E-01 ( -32.16%)
   displ. norm   :     0.1802574 α      lambda       -0.3268816E-01
   maximum displ.:     0.1779510 α      in ANC's #7, #50, #55, ...

........................................................................
.............................. CYCLE  421 ..............................
........................................................................
     iter. time                 ...        0 min,  0.018 sec
 * total energy  :    95.0255242 Eh     change       -0.1977736E-01 Eh
   gradient norm :     0.0622326 Eh/α   predicted    -0.1687606E-01 ( -14.67%)
   displ. norm   :     0.0586601 α      lambda       -0.3065583E-02
   maximum displ.:     0.0552247 α      in ANC's #7, #55, #45, ...

........................................................................
.............................. CYCLE  422 ..............................
........................................................................
     iter. time                 ...        0 min,  0.018 sec
 * total energy  :    95.0236079 Eh     change       -0.1916218E-02 Eh
   gradient norm :     0.0353059 Eh/α   predicted    -0.1538007E-02 ( -19.74%)
   displ. norm   :     0.0189097 α      lambda       -0.5201872E-03
   maximum displ.:     0.0112531 α      in ANC's #55, #7, #45, ...

........................................................................
.............................. CYCLE  423 ..............................
........................................................................
     iter. time                 ...        0 min,  0.018 sec
 * total energy  :    95.0231518 Eh     change       -0.4561570E-03 Eh
   gradient norm :     0.0200017 Eh/α   predicted    -0.2691453E-03 ( -41.00%)
   displ. norm   :     0.0138117 α      lambda       -0.2684185E-03
   maximum displ.:     0.0093338 α      in ANC's #55, #50, #45, ...

........................................................................
.............................. CYCLE  424 ..............................
........................................................................
     iter. time                 ...        0 min,  0.018 sec
 * total energy  :    95.0228791 Eh     change       -0.2726812E-03 Eh
   gradient norm :     0.0045531 Eh/α   predicted    -0.1346169E-03 ( -50.63%)
   displ. norm   :     0.0039579 α      lambda       -0.1736638E-04
   maximum displ.:     0.0034035 α      in ANC's #7, #50, #55, ...

........................................................................
.............................. CYCLE  425 ..............................
........................................................................
     iter. time                 ...        0 min,  0.018 sec
 * total energy  :    95.0227945 Eh     change       -0.8460980E-04 Eh
   gradient norm :     0.0009359 Eh/α   predicted    -0.8735408E-05 ( -89.68%)
   displ. norm   :     0.0011949 α      lambda       -0.5494809E-06
   maximum displ.:     0.0010779 α      in ANC's #7, #45, #29, ...

........................................................................
.............................. CYCLE  426 ..............................
........................................................................
     iter. time                 ...        0 min,  0.019 sec
 * total energy  :    95.0227146 Eh     change       -0.7993513E-04 Eh
   gradient norm :     0.0003121 Eh/α   predicted    -0.3146192E-06 ( -99.61%)
   displ. norm   :     0.0007466 α      lambda        0.5611599E-06
   maximum displ.:     0.0004872 α      in ANC's #45, #55, #50, ...

........................................................................
.............................. CYCLE  427 ..............................
........................................................................
     iter. time                 ...        0 min,  0.019 sec
 * total energy  :    95.0223956 Eh     change       -0.3189194E-03 Eh
   gradient norm :     0.0008545 Eh/α   predicted     0.2662765E-06 (-100.08%)
   displ. norm   :     0.0008504 α      lambda       -0.3289521E-06
   maximum displ.:     0.0005333 α      in ANC's #7, #45, #50, ...

........................................................................
.............................. CYCLE  428 ..............................
........................................................................
     iter. time                 ...        0 min,  0.019 sec
 * total energy  :    95.0226822 Eh     change        0.2865124E-03 Eh
   gradient norm :     0.0001474 Eh/α   predicted    -0.2379406E-06 (-100.08%)
   displ. norm   :     0.0007063 α      lambda        0.4758072E-06
   maximum displ.:     0.0005018 α      in ANC's #50, #7, #45, ...

........................................................................
.............................. CYCLE  429 ..............................
........................................................................
     iter. time                 ...        0 min,  0.019 sec
 * total energy  :    95.0227108 Eh     change        0.2869229E-04 Eh
   gradient norm :     0.0008948 Eh/α   predicted     0.2063514E-06 ( -99.28%)
   displ. norm   :     0.0007464 α      lambda       -0.3908266E-06
   maximum displ.:     0.0006358 α      in ANC's #50, #7, #45, ...

........................................................................
.............................. CYCLE  430 ..............................
........................................................................
     iter. time                 ...        0 min,  0.019 sec
 * total energy  :    95.0226405 Eh     change       -0.7035680E-04 Eh
   gradient norm :     0.0001170 Eh/α   predicted    -0.2162467E-06 ( -99.69%)
   displ. norm   :     0.0007464 α      lambda        0.0000000E+00
   maximum displ.:     0.0006358 α      in ANC's #50, #7, #45, ...

........................................................................
.............................. CYCLE  431 ..............................
........................................................................
     iter. time                 ...        0 min,  0.018 sec
 * total energy  :    95.0225708 Eh     change       -0.6968858E-04 Eh
   gradient norm :     0.0009275 Eh/α   predicted     0.2310569E-06 (-100.33%)
   displ. norm   :     0.0007681 α      lambda       -0.4353716E-06
   maximum displ.:     0.0007001 α      in ANC's #50, #7, #55, ...

........................................................................
.............................. CYCLE  432 ..............................
........................................................................
     iter. time                 ...        0 min,  0.018 sec
 * total energy  :    95.0225206 Eh     change       -0.5017513E-04 Eh
   gradient norm :     0.0000763 Eh/α   predicted    -0.2347722E-06 ( -99.53%)
   displ. norm   :     0.0007681 α      lambda        0.0000000E+00
   maximum displ.:     0.0007001 α      in ANC's #50, #7, #55, ...

........................................................................
.............................. CYCLE  433 ..............................
........................................................................
     iter. time                 ...        0 min,  0.018 sec
 * total energy  :    95.0224712 Eh     change       -0.4945972E-04 Eh
   gradient norm :     0.0009492 Eh/α   predicted     0.2436254E-06 (-100.49%)
   displ. norm   :     0.0007799 α      lambda       -0.4597701E-06
   maximum displ.:     0.0007183 α      in ANC's #50, #55, #7, ...

........................................................................
.............................. CYCLE  434 ..............................
........................................................................
     iter. time                 ...        0 min,  0.018 sec
 * total energy  :    95.0224492 Eh     change       -0.2193876E-04 Eh
   gradient norm :     0.0000462 Eh/α   predicted    -0.2451660E-06 ( -98.88%)
   displ. norm   :     0.0007799 α      lambda        0.0000000E+00
   maximum displ.:     0.0007183 α      in ANC's #50, #55, #7, ...

........................................................................
.............................. CYCLE  435 ..............................
........................................................................
     iter. time                 ...        0 min,  0.018 sec
 * total energy  :    95.0224280 Eh     change       -0.2119970E-04 Eh
   gradient norm :     0.0009531 Eh/α   predicted     0.2477518E-06 (-101.17%)
   displ. norm   :     0.0007846 α      lambda       -0.4678325E-06
   maximum displ.:     0.0007269 α      in ANC's #50, #7, #55, ...

........................................................................
.............................. CYCLE  436 ..............................
........................................................................
     iter. time                 ...        0 min,  0.019 sec
 * total energy  :    95.0223447 Eh     change       -0.8335908E-04 Eh
   gradient norm :     0.0000312 Eh/α   predicted    -0.2481266E-06 ( -99.70%)
   displ. norm   :     0.0007790 α      lambda        0.4965156E-06
   maximum displ.:     0.0006933 α      in ANC's #50, #7, #55, ...

........................................................................
.............................. CYCLE  437 ..............................
........................................................................
     iter. time                 ...        0 min,  0.018 sec
 * total energy  :    95.0225626 Eh     change        0.2179481E-03 Eh
   gradient norm :     0.0009341 Eh/α   predicted     0.2431383E-06 ( -99.89%)
   displ. norm   :     0.0007901 α      lambda        0.1447015E-05
   maximum displ.:     0.0006475 α      in ANC's #50, #7, #55, ...

........................................................................
.............................. CYCLE  438 ..............................
........................................................................
     iter. time                 ...        0 min,  0.018 sec
 * total energy  :    95.0228743 Eh     change        0.3116412E-03 Eh
   gradient norm :     0.0000994 Eh/α   predicted    -0.2365414E-06 (-100.08%)
   displ. norm   :     0.0007851 α      lambda        0.4856143E-06
   maximum displ.:     0.0006896 α      in ANC's #50, #7, #55, ...

........................................................................
.............................. CYCLE  439 ..............................
........................................................................
     iter. time                 ...        0 min,  0.018 sec
 * total energy  :    95.0233477 Eh     change        0.4733978E-03 Eh
   gradient norm :     0.0009254 Eh/α   predicted     0.2388343E-06 ( -99.95%)
   displ. norm   :     0.0007940 α      lambda       -0.4536832E-06
   maximum displ.:     0.0006524 α      in ANC's #50, #7, #55, ...

........................................................................
.............................. CYCLE  440 ..............................
........................................................................
     iter. time                 ...        0 min,  0.018 sec
 * total energy  :    95.0229224 Eh     change       -0.4252229E-03 Eh
   gradient norm :     0.0000486 Eh/α   predicted    -0.2412129E-06 ( -99.94%)
   displ. norm   :     0.0007934 α      lambda        0.4877775E-06
   maximum displ.:     0.0006434 α      in ANC's #50, #7, #55, ...

........................................................................
.............................. CYCLE  441 ..............................
........................................................................
     iter. time                 ...        0 min,  0.018 sec
 * total energy  :    95.0231631 Eh     change        0.2406346E-03 Eh
   gradient norm :     0.0009266 Eh/α   predicted     0.2441026E-06 ( -99.90%)
   displ. norm   :     0.0007957 α      lambda        0.1428114E-05
   maximum displ.:     0.0006112 α      in ANC's #50, #7, #55, ...

........................................................................
.............................. CYCLE  442 ..............................
........................................................................
     iter. time                 ...        0 min,  0.019 sec
 * total energy  :    95.0235173 Eh     change        0.3542241E-03 Eh
   gradient norm :     0.0000747 Eh/α   predicted    -0.2389409E-06 (-100.07%)
   displ. norm   :     0.0005458 α      lambda        0.1003810E-06
   maximum displ.:     0.0003025 α      in ANC's #55, #29, #7, ...

........................................................................
.............................. CYCLE  443 ..............................
........................................................................
     iter. time                 ...        0 min,  0.018 sec
 * total energy  :    95.0234930 Eh     change       -0.2430811E-04 Eh
   gradient norm :     0.0005760 Eh/α   predicted     0.1076139E-06 (-100.44%)
   displ. norm   :     0.0005458 α      lambda        0.0000000E+00
   maximum displ.:     0.0003025 α      in ANC's #55, #29, #7, ...

........................................................................
.............................. CYCLE  444 ..............................
........................................................................
     iter. time                 ...        0 min,  0.018 sec
 * total energy  :    95.0234690 Eh     change       -0.2401270E-04 Eh
   gradient norm :     0.0011359 Eh/α   predicted     0.2953476E-06 (-101.23%)
   displ. norm   :     0.0005458 α      lambda        0.0000000E+00
   maximum displ.:     0.0003025 α      in ANC's #55, #29, #7, ...

........................................................................
.............................. CYCLE  445 ..............................
........................................................................
     iter. time                 ...        0 min,  0.018 sec
 * total energy  :    95.0234452 Eh     change       -0.2371736E-04 Eh
   gradient norm :     0.0016972 Eh/α   predicted     0.4920937E-06 (-102.07%)
   displ. norm   :     0.0016245 α      lambda       -0.1745610E-05
   maximum displ.:     0.0009252 α      in ANC's #55, #29, #7, ...

........................................................................
.............................. CYCLE  446 ..............................
........................................................................
     iter. time                 ...        0 min,  0.019 sec
 * total energy  :    95.0234274 Eh     change       -0.1783315E-04 Eh
   gradient norm :     0.0000244 Eh/α   predicted    -0.8872191E-06 ( -95.02%)
   displ. norm   :     0.0005032 α      lambda        0.6272433E-07
   maximum displ.:     0.0003488 α      in ANC's #50, #45, #7, ...

........................................................................
.............................. CYCLE  447 ..............................
........................................................................
     iter. time                 ...        0 min,  0.019 sec
 * total energy  :    95.0227833 Eh     change       -0.6441309E-03 Eh
   gradient norm :     0.0006156 Eh/α   predicted     0.1084243E-06 (-100.02%)
   displ. norm   :     0.0005032 α      lambda        0.0000000E+00
   maximum displ.:     0.0003488 α      in ANC's #50, #45, #7, ...

........................................................................
.............................. CYCLE  448 ..............................
........................................................................
     iter. time                 ...        0 min,  0.019 sec
 * total energy  :    95.0221394 Eh     change       -0.6438393E-03 Eh
   gradient norm :     0.0012342 Eh/α   predicted     0.3057214E-06 (-100.05%)
   displ. norm   :     0.0005032 α      lambda        0.0000000E+00
   maximum displ.:     0.0003488 α      in ANC's #50, #45, #7, ...

........................................................................
.............................. CYCLE  449 ..............................
........................................................................
     iter. time                 ...        0 min,  0.019 sec
 * total energy  :    95.0214959 Eh     change       -0.6435479E-03 Eh
   gradient norm :     0.0018526 Eh/α   predicted     0.5098479E-06 (-100.08%)
   displ. norm   :     0.0005032 α      lambda        0.0000000E+00
   maximum displ.:     0.0003488 α      in ANC's #50, #45, #7, ...

........................................................................
.............................. CYCLE  450 ..............................
........................................................................
     iter. time                 ...        0 min,  0.018 sec
 * total energy  :    95.0208526 Eh     change       -0.6432565E-03 Eh
   gradient norm :     0.0024709 Eh/α   predicted     0.7138835E-06 (-100.11%)
   displ. norm   :     0.0003355 α      lambda        0.0000000E+00
   maximum displ.:     0.0002326 α      in ANC's #50, #45, #7, ...

........................................................................
.............................. CYCLE  451 ..............................
........................................................................
     iter. time                 ...        0 min,  0.019 sec
 * total energy  :    95.0204240 Eh     change       -0.4286758E-03 Eh
   gradient norm :     0.0028829 Eh/α   predicted     0.9178499E-06 (-100.21%)
   displ. norm   :     0.0003355 α      lambda        0.0000000E+00
   maximum displ.:     0.0002326 α      in ANC's #50, #45, #7, ...

........................................................................
.............................. CYCLE  452 ..............................
........................................................................
     iter. time                 ...        0 min,  0.018 sec
 * total energy  :    95.0199954 Eh     change       -0.4285464E-03 Eh
   gradient norm :     0.0032949 Eh/α   predicted     0.1019784E-05 (-100.24%)
   displ. norm   :     0.0003355 α      lambda        0.0000000E+00
   maximum displ.:     0.0002326 α      in ANC's #50, #45, #7, ...

........................................................................
.............................. CYCLE  453 ..............................
........................................................................
     iter. time                 ...        0 min,  0.018 sec
 * total energy  :    95.0195670 Eh     change       -0.4284171E-03 Eh
   gradient norm :     0.0037067 Eh/α   predicted     0.1155688E-05 (-100.27%)
   displ. norm   :     0.0003355 α      lambda        0.0000000E+00
   maximum displ.:     0.0002326 α      in ANC's #50, #45, #7, ...

........................................................................
.............................. CYCLE  454 ..............................
........................................................................
     iter. time                 ...        0 min,  0.019 sec
 * total energy  :    95.0191387 Eh     change       -0.4282877E-03 Eh
   gradient norm :     0.0041185 Eh/α   predicted     0.1291557E-05 (-100.30%)
   displ. norm   :     0.0003355 α      lambda        0.0000000E+00
   maximum displ.:     0.0002326 α      in ANC's #50, #45, #7, ...

........................................................................
.............................. CYCLE  455 ..............................
........................................................................
     iter. time                 ...        0 min,  0.018 sec
 * total energy  :    95.0187106 Eh     change       -0.4281584E-03 Eh
   gradient norm :     0.0045301 Eh/α   predicted     0.1427389E-05 (-100.33%)
   displ. norm   :     0.0003355 α      lambda        0.0000000E+00
   maximum displ.:     0.0002326 α      in ANC's #50, #45, #7, ...

........................................................................
.............................. CYCLE  456 ..............................
........................................................................
     iter. time                 ...        0 min,  0.018 sec
 * total energy  :    95.0182825 Eh     change       -0.4280292E-03 Eh
   gradient norm :     0.0049417 Eh/α   predicted     0.1563187E-05 (-100.37%)
   displ. norm   :     0.0003355 α      lambda        0.0000000E+00
   maximum displ.:     0.0002326 α      in ANC's #50, #45, #7, ...

........................................................................
.............................. CYCLE  457 ..............................
........................................................................
     iter. time                 ...        0 min,  0.019 sec
 * total energy  :    95.0178546 Eh     change       -0.4279000E-03 Eh
   gradient norm :     0.0053531 Eh/α   predicted     0.1698949E-05 (-100.40%)
   displ. norm   :     0.0003355 α      lambda        0.0000000E+00
   maximum displ.:     0.0002326 α      in ANC's #50, #45, #7, ...

........................................................................
.............................. CYCLE  458 ..............................
........................................................................
     iter. time                 ...        0 min,  0.018 sec
 * total energy  :    95.0174269 Eh     change       -0.4277708E-03 Eh
   gradient norm :     0.0057645 Eh/α   predicted     0.1834676E-05 (-100.43%)
   displ. norm   :     0.0003355 α      lambda        0.0000000E+00
   maximum displ.:     0.0002326 α      in ANC's #50, #45, #7, ...
 * RMSD in coord.:     0.0251328 α      energy gain   0.7373416E+00 Eh

generating ANC from exact Hessian ...
Using GFN-FF Lindh-Hessian
 Shifting diagonal of input Hessian by    1.1760145935196342E-002
 Lowest  eigenvalues of input Hessian
    0.010000    0.010024    0.011313    0.011326    0.011387    0.011599
    0.011648    0.011661    0.011674    0.011680    0.011684    0.011687
    0.011692    0.011694    0.011697    0.011702    0.011705    0.011709
 Highest eigenvalues
   16.224166   43.810609   47.154823   87.083426  136.004288  203.846075


........................................................................
.............................. CYCLE  459 ..............................
........................................................................
     iter. time                 ...        0 min,  0.019 sec
 * total energy  :    95.0169992 Eh     change       -0.4276416E-03 Eh
   gradient norm :     0.0801334 Eh/α   predicted     0.0000000E+00 (-100.00%)
   displ. norm   :     0.0279962 α      lambda       -0.2236970E-02
   maximum displ.:     0.0201709 α      in ANC's #39, #38, #55, ...

........................................................................
.............................. CYCLE  460 ..............................
........................................................................
     iter. time                 ...        0 min,  0.018 sec
 * total energy  :    95.0152090 Eh     change       -0.1790245E-02 Eh
   gradient norm :     0.0434956 Eh/α   predicted    -0.1122032E-02 ( -37.33%)
   displ. norm   :     0.0331999 α      lambda       -0.1442757E-02
   maximum displ.:     0.0231863 α      in ANC's #38, #39, #55, ...

........................................................................
.............................. CYCLE  461 ..............................
........................................................................
     iter. time                 ...        0 min,  0.018 sec
 * total energy  :    95.0142976 Eh     change       -0.9113647E-03 Eh
   gradient norm :     0.0039011 Eh/α   predicted    -0.7225955E-03 ( -20.71%)
   displ. norm   :     0.0021596 α      lambda       -0.7103639E-05
   maximum displ.:     0.0016244 α      in ANC's #38, #55, #28, ...

........................................................................
.............................. CYCLE  462 ..............................
........................................................................
     iter. time                 ...        0 min,  0.018 sec
 * total energy  :    95.0142071 Eh     change       -0.9045624E-04 Eh
   gradient norm :     0.0016022 Eh/α   predicted    -0.3803671E-05 ( -95.80%)
   displ. norm   :     0.0011878 α      lambda       -0.9574906E-06
   maximum displ.:     0.0008949 α      in ANC's #55, #38, #39, ...

........................................................................
.............................. CYCLE  463 ..............................
........................................................................
     iter. time                 ...        0 min,  0.018 sec
 * total energy  :    95.0139994 Eh     change       -0.2077796E-03 Eh
   gradient norm :     0.0005207 Eh/α   predicted    -0.6007918E-06 ( -99.71%)
   displ. norm   :     0.0008088 α      lambda        0.1035903E-05
   maximum displ.:     0.0007555 α      in ANC's #55, #39, #44, ...

........................................................................
.............................. CYCLE  464 ..............................
........................................................................
     iter. time                 ...        0 min,  0.019 sec
 * total energy  :    95.0135335 Eh     change       -0.4658980E-03 Eh
   gradient norm :     0.0011606 Eh/α   predicted     0.3656317E-06 (-100.08%)
   displ. norm   :     0.0008864 α      lambda       -0.4883036E-06
   maximum displ.:     0.0006989 α      in ANC's #55, #39, #38, ...

........................................................................
.............................. CYCLE  465 ..............................
........................................................................
     iter. time                 ...        0 min,  0.018 sec
 * total energy  :    95.0136853 Eh     change        0.1518002E-03 Eh
   gradient norm :     0.0001431 Eh/α   predicted    -0.3341868E-06 (-100.22%)
   displ. norm   :     0.0003055 α      lambda        0.6706095E-07
   maximum displ.:     0.0001879 α      in ANC's #55, #38, #28, ...

........................................................................
.............................. CYCLE  466 ..............................
........................................................................
     iter. time                 ...        0 min,  0.018 sec
 * total energy  :    95.0143795 Eh     change        0.6942020E-03 Eh
   gradient norm :     0.0003539 Eh/α   predicted     0.4210282E-07 ( -99.99%)
   displ. norm   :     0.0002942 α      lambda       -0.1868458E-07
   maximum displ.:     0.0001776 α      in ANC's #55, #38, #28, ...

........................................................................
.............................. CYCLE  467 ..............................
........................................................................
     iter. time                 ...        0 min,  0.018 sec
 * total energy  :    95.0135661 Eh     change       -0.8133730E-03 Eh
   gradient norm :     0.0000721 Eh/α   predicted    -0.3475942E-07 (-100.00%)
   displ. norm   :     0.0000480 α      lambda        0.2693201E-10
   maximum displ.:     0.0000278 α      in ANC's #28, #2, #38, ...

........................................................................
.............................. CYCLE  468 ..............................
........................................................................
     iter. time                 ...        0 min,  0.018 sec
 * total energy  :    95.0130029 Eh     change       -0.5632095E-03 Eh
   gradient norm :     0.0000329 Eh/α   predicted    -0.6229869E-09 (-100.00%)
   displ. norm   :     0.0000480 α      lambda        0.0000000E+00
   maximum displ.:     0.0000278 α      in ANC's #28, #2, #38, ...

........................................................................
.............................. CYCLE  469 ..............................
........................................................................
     iter. time                 ...        0 min,  0.019 sec
 * total energy  :    95.0124397 Eh     change       -0.5632211E-03 Eh
   gradient norm :     0.0000302 Eh/α   predicted    -0.2460635E-09 (-100.00%)
   displ. norm   :     0.0000480 α      lambda        0.0000000E+00
   maximum displ.:     0.0000278 α      in ANC's #28, #2, #38, ...

........................................................................
.............................. CYCLE  470 ..............................
........................................................................
     iter. time                 ...        0 min,  0.018 sec
 * total energy  :    95.0118764 Eh     change       -0.5632326E-03 Eh
   gradient norm :     0.0000685 Eh/α   predicted     0.7531142E-09 (-100.00%)
   displ. norm   :     0.0000480 α      lambda        0.0000000E+00
   maximum displ.:     0.0000278 α      in ANC's #28, #2, #38, ...

........................................................................
.............................. CYCLE  471 ..............................
........................................................................
     iter. time                 ...        0 min,  0.018 sec
 * total energy  :    95.0113132 Eh     change       -0.5632441E-03 Eh
   gradient norm :     0.0001115 Eh/α   predicted     0.1752301E-08 (-100.00%)
   displ. norm   :     0.0000672 α      lambda        0.1061730E-07
   maximum displ.:     0.0000328 α      in ANC's #2, #4, #10, ...

........................................................................
.............................. CYCLE  472 ..............................
........................................................................
     iter. time                 ...        0 min,  0.018 sec
 * total energy  :    95.0102279 Eh     change       -0.1085288E-02 Eh
   gradient norm :     0.0000917 Eh/α   predicted     0.2541538E-09 (-100.00%)
   displ. norm   :     0.0000672 α      lambda        0.0000000E+00
   maximum displ.:     0.0000328 α      in ANC's #2, #4, #10, ...

........................................................................
.............................. CYCLE  473 ..............................
........................................................................
     iter. time                 ...        0 min,  0.019 sec
 * total energy  :    95.0091426 Eh     change       -0.1085336E-02 Eh
   gradient norm :     0.0000764 Eh/α   predicted    -0.1095184E-08 (-100.00%)
   displ. norm   :     0.0000672 α      lambda        0.0000000E+00
   maximum displ.:     0.0000328 α      in ANC's #2, #4, #10, ...

........................................................................
.............................. CYCLE  474 ..............................
........................................................................
     iter. time                 ...        0 min,  0.018 sec
 * total energy  :    95.0080572 Eh     change       -0.1085384E-02 Eh
   gradient norm :     0.0000685 Eh/α   predicted    -0.7555070E-09 (-100.00%)
   displ. norm   :     0.0000672 α      lambda        0.0000000E+00
   maximum displ.:     0.0000328 α      in ANC's #2, #4, #10, ...

........................................................................
.............................. CYCLE  475 ..............................
........................................................................
     iter. time                 ...        0 min,  0.019 sec
 * total energy  :    95.0069718 Eh     change       -0.1085433E-02 Eh
   gradient norm :     0.0000707 Eh/α   predicted    -0.4158335E-09 (-100.00%)
   displ. norm   :     0.0000672 α      lambda        0.0000000E+00
   maximum displ.:     0.0000328 α      in ANC's #2, #4, #10, ...

........................................................................
.............................. CYCLE  476 ..............................
........................................................................
     iter. time                 ...        0 min,  0.019 sec
 * total energy  :    95.0058863 Eh     change       -0.1085481E-02 Eh
   gradient norm :     0.0000821 Eh/α   predicted    -0.7616396E-10 (-100.00%)
   displ. norm   :     0.0000672 α      lambda        0.0000000E+00
   maximum displ.:     0.0000328 α      in ANC's #2, #4, #10, ...

........................................................................
.............................. CYCLE  477 ..............................
........................................................................
     iter. time                 ...        0 min,  0.018 sec
 * total energy  :    95.0048007 Eh     change       -0.1085529E-02 Eh
   gradient norm :     0.0000997 Eh/α   predicted     0.2635016E-09 (-100.00%)
   displ. norm   :     0.0000672 α      lambda        0.0000000E+00
   maximum displ.:     0.0000328 α      in ANC's #2, #4, #10, ...

........................................................................
.............................. CYCLE  478 ..............................
........................................................................
     iter. time                 ...        0 min,  0.018 sec
 * total energy  :    95.0037152 Eh     change       -0.1085577E-02 Eh
   gradient norm :     0.0001207 Eh/α   predicted     0.6031633E-09 (-100.00%)
   displ. norm   :     0.0000672 α      lambda        0.0000000E+00
   maximum displ.:     0.0000328 α      in ANC's #2, #4, #10, ...

........................................................................
.............................. CYCLE  479 ..............................
........................................................................
     iter. time                 ...        0 min,  0.018 sec
 * total energy  :    95.0026295 Eh     change       -0.1085625E-02 Eh
   gradient norm :     0.0001437 Eh/α   predicted     0.9428211E-09 (-100.00%)
   displ. norm   :     0.0000672 α      lambda        0.0000000E+00
   maximum displ.:     0.0000328 α      in ANC's #2, #4, #10, ...

........................................................................
.............................. CYCLE  480 ..............................
........................................................................
     iter. time                 ...        0 min,  0.018 sec
 * total energy  :    95.0015439 Eh     change       -0.1085674E-02 Eh
   gradient norm :     0.0001678 Eh/α   predicted     0.1282475E-08 (-100.00%)
   displ. norm   :     0.0000672 α      lambda        0.0000000E+00
   maximum displ.:     0.0000328 α      in ANC's #2, #4, #10, ...

........................................................................
.............................. CYCLE  481 ..............................
........................................................................
     iter. time                 ...        0 min,  0.018 sec
 * total energy  :    95.0004581 Eh     change       -0.1085722E-02 Eh
   gradient norm :     0.0001927 Eh/α   predicted     0.1622125E-08 (-100.00%)
   displ. norm   :     0.0000672 α      lambda        0.0000000E+00
   maximum displ.:     0.0000328 α      in ANC's #2, #4, #10, ...

........................................................................
.............................. CYCLE  482 ..............................
........................................................................
     iter. time                 ...        0 min,  0.019 sec
 * total energy  :    94.9993724 Eh     change       -0.1085770E-02 Eh
   gradient norm :     0.0002180 Eh/α   predicted     0.1961771E-08 (-100.00%)
   displ. norm   :     0.0000672 α      lambda        0.0000000E+00
   maximum displ.:     0.0000328 α      in ANC's #2, #4, #10, ...

........................................................................
.............................. CYCLE  483 ..............................
........................................................................
     iter. time                 ...        0 min,  0.019 sec
 * total energy  :    94.9982866 Eh     change       -0.1085818E-02 Eh
   gradient norm :     0.0002437 Eh/α   predicted     0.2301413E-08 (-100.00%)
   displ. norm   :     0.0001306 α      lambda       -0.3860653E-07
   maximum displ.:     0.0000554 α      in ANC's #55, #38, #2, ...

........................................................................
.............................. CYCLE  484 ..............................
........................................................................
     iter. time                 ...        0 min,  0.019 sec
 * total energy  :    94.9966670 Eh     change       -0.1619602E-02 Eh
   gradient norm :     0.0001200 Eh/α   predicted    -0.6997742E-08 (-100.00%)
   displ. norm   :     0.0001486 α      lambda       -0.1855654E-07
   maximum displ.:     0.0000691 α      in ANC's #38, #2, #55, ...

........................................................................
.............................. CYCLE  485 ..............................
........................................................................
     iter. time                 ...        0 min,  0.018 sec
 * total energy  :    94.9947831 Eh     change       -0.1883843E-02 Eh
   gradient norm :     0.0000689 Eh/α   predicted    -0.3559275E-08 (-100.00%)
   displ. norm   :     0.0001342 α      lambda        0.2240711E-10
   maximum displ.:     0.0000656 α      in ANC's #2, #4, #10, ...

........................................................................
.............................. CYCLE  486 ..............................
........................................................................
     iter. time                 ...        0 min,  0.018 sec
 * total energy  :    94.9926462 Eh     change       -0.2136948E-02 Eh
   gradient norm :     0.0000215 Eh/α   predicted    -0.1504801E-08 (-100.00%)
   displ. norm   :     0.0001342 α      lambda        0.0000000E+00
   maximum displ.:     0.0000656 α      in ANC's #2, #4, #10, ...

........................................................................
.............................. CYCLE  487 ..............................
........................................................................
     iter. time                 ...        0 min,  0.018 sec
 * total energy  :    94.9905090 Eh     change       -0.2137138E-02 Eh
   gradient norm :     0.0000808 Eh/α   predicted     0.4469046E-09 (-100.00%)
   displ. norm   :     0.0001438 α      lambda       -0.2439452E-09
   maximum displ.:     0.0000722 α      in ANC's #2, #4, #10, ...

........................................................................
.............................. CYCLE  488 ..............................
........................................................................
     iter. time                 ...        0 min,  0.018 sec
 * total energy  :    94.9881592 Eh     change       -0.2349797E-02 Eh
   gradient norm :     0.0000268 Eh/α   predicted    -0.1754916E-08 (-100.00%)
   displ. norm   :     0.0001438 α      lambda        0.0000000E+00
   maximum displ.:     0.0000722 α      in ANC's #2, #4, #10, ...

........................................................................
.............................. CYCLE  489 ..............................
........................................................................
     iter. time                 ...        0 min,  0.018 sec
 * total energy  :    94.9858092 Eh     change       -0.2350028E-02 Eh
   gradient norm :     0.0000565 Eh/α   predicted    -0.5686814E-09 (-100.00%)
   displ. norm   :     0.0001511 α      lambda       -0.1945244E-09
   maximum displ.:     0.0000781 α      in ANC's #2, #4, #10, ...

........................................................................
.............................. CYCLE  490 ..............................
........................................................................
     iter. time                 ...        0 min,  0.019 sec
 * total energy  :    94.9832698 Eh     change       -0.2539353E-02 Eh
   gradient norm :     0.0000182 Eh/α   predicted    -0.1334544E-08 (-100.00%)
   displ. norm   :     0.0001547 α      lambda       -0.1210041E-07
   maximum displ.:     0.0000800 α      in ANC's #2, #4, #10, ...

........................................................................
.............................. CYCLE  491 ..............................
........................................................................
     iter. time                 ...        0 min,  0.018 sec
 * total energy  :    94.9806679 Eh     change       -0.2601920E-02 Eh
   gradient norm :     0.0000374 Eh/α   predicted    -0.8947199E-09 (-100.00%)
   displ. norm   :     0.0001547 α      lambda        0.0000000E+00
   maximum displ.:     0.0000800 α      in ANC's #2, #4, #10, ...

........................................................................
.............................. CYCLE  492 ..............................
........................................................................
     iter. time                 ...        0 min,  0.019 sec
 * total energy  :    94.9780657 Eh     change       -0.2602205E-02 Eh
   gradient norm :     0.0000800 Eh/α   predicted    -0.1223238E-09 (-100.00%)
   displ. norm   :     0.0001879 α      lambda        0.1035550E-07
   maximum displ.:     0.0000985 α      in ANC's #2, #4, #10, ...

........................................................................
.............................. CYCLE  493 ..............................
........................................................................
     iter. time                 ...        0 min,  0.018 sec
 * total energy  :    94.9748651 Eh     change       -0.3200648E-02 Eh
   gradient norm :     0.0001031 Eh/α   predicted    -0.5003821E-09 (-100.00%)
   displ. norm   :     0.0001879 α      lambda        0.0000000E+00
   maximum displ.:     0.0000985 α      in ANC's #2, #4, #10, ...

........................................................................
.............................. CYCLE  494 ..............................
........................................................................
     iter. time                 ...        0 min,  0.018 sec
 * total energy  :    94.9716640 Eh     change       -0.3201082E-02 Eh
   gradient norm :     0.0001263 Eh/α   predicted    -0.3137574E-09 (-100.00%)
   displ. norm   :     0.0001879 α      lambda        0.0000000E+00
   maximum displ.:     0.0000985 α      in ANC's #2, #4, #10, ...

........................................................................
.............................. CYCLE  495 ..............................
........................................................................
     iter. time                 ...        0 min,  0.018 sec
 * total energy  :    94.9684625 Eh     change       -0.3201517E-02 Eh
   gradient norm :     0.0001497 Eh/α   predicted    -0.9228473E-10 (-100.00%)
   displ. norm   :     0.0001879 α      lambda        0.0000000E+00
   maximum displ.:     0.0000985 α      in ANC's #2, #4, #10, ...

........................................................................
.............................. CYCLE  496 ..............................
........................................................................
     iter. time                 ...        0 min,  0.018 sec
 * total energy  :    94.9652605 Eh     change       -0.3201952E-02 Eh
   gradient norm :     0.0001732 Eh/α   predicted     0.1291896E-09 (-100.00%)
   displ. norm   :     0.0001879 α      lambda        0.0000000E+00
   maximum displ.:     0.0000985 α      in ANC's #2, #4, #10, ...

........................................................................
.............................. CYCLE  497 ..............................
........................................................................
     iter. time                 ...        0 min,  0.019 sec
 * total energy  :    94.9620581 Eh     change       -0.3202386E-02 Eh
   gradient norm :     0.0001966 Eh/α   predicted     0.3506654E-09 (-100.00%)
   displ. norm   :     0.0001879 α      lambda        0.0000000E+00
   maximum displ.:     0.0000985 α      in ANC's #2, #4, #10, ...

........................................................................
.............................. CYCLE  498 ..............................
........................................................................
     iter. time                 ...        0 min,  0.018 sec
 * total energy  :    94.9588553 Eh     change       -0.3202821E-02 Eh
   gradient norm :     0.0002202 Eh/α   predicted     0.5721429E-09 (-100.00%)
   displ. norm   :     0.0001879 α      lambda        0.0000000E+00
   maximum displ.:     0.0000985 α      in ANC's #2, #4, #10, ...
 * RMSD in coord.:     0.0040618 α      energy gain  -0.5857154E-01 Eh

generating ANC from exact Hessian ...
Using GFN-FF Lindh-Hessian
 Shifting diagonal of input Hessian by    1.1760150592819445E-002
 Lowest  eigenvalues of input Hessian
    0.010000    0.010024    0.011313    0.011326    0.011387    0.011599
    0.011648    0.011661    0.011674    0.011680    0.011684    0.011687
    0.011692    0.011694    0.011697    0.011702    0.011705    0.011709
 Highest eigenvalues
   16.236306   43.574140   46.920909   87.402775  135.932032  204.009248


........................................................................
.............................. CYCLE  499 ..............................
........................................................................
     iter. time                 ...        0 min,  0.019 sec
 * total energy  :    94.9556521 Eh     change       -0.3203256E-02 Eh
   gradient norm :     0.0179031 Eh/α   predicted     0.0000000E+00 (-100.00%)
   displ. norm   :     0.0064661 α      lambda       -0.1155646E-03
   maximum displ.:     0.0051496 α      in ANC's #33, #39, #28, ...

........................................................................
.............................. CYCLE  500 ..............................
........................................................................
     iter. time                 ...        0 min,  0.018 sec
 * total energy  :    94.9554693 Eh     change       -0.1827467E-03 Eh
   gradient norm :     0.0102249 Eh/α   predicted    -0.5786449E-04 ( -68.34%)
   displ. norm   :     0.0086651 α      lambda       -0.8845118E-04
   maximum displ.:     0.0068933 α      in ANC's #33, #28, #39, ...

........................................................................
.............................. CYCLE  501 ..............................
........................................................................
     iter. time                 ...        0 min,  0.019 sec
 * total energy  :    94.9552146 Eh     change       -0.2547117E-03 Eh
   gradient norm :     0.0006197 Eh/α   predicted    -0.4428125E-04 ( -82.62%)
   displ. norm   :     0.0003353 α      lambda       -0.7967175E-07
   maximum displ.:     0.0002713 α      in ANC's #39, #28, #55, ...

........................................................................
.............................. CYCLE  502 ..............................
........................................................................
     iter. time                 ...        0 min,  0.018 sec
 * total energy  :    94.9550817 Eh     change       -0.1329116E-03 Eh
   gradient norm :     0.0001837 Eh/α   predicted    -0.6883416E-07 ( -99.95%)
   displ. norm   :     0.0002197 α      lambda        0.5966899E-07
   maximum displ.:     0.0001667 α      in ANC's #39, #28, #33, ...

........................................................................
.............................. CYCLE  503 ..............................
........................................................................
     iter. time                 ...        0 min,  0.019 sec
 * total energy  :    94.9551406 Eh     change        0.5887121E-04 Eh
   gradient norm :     0.0003644 Eh/α   predicted     0.1909502E-07 ( -99.97%)
   displ. norm   :     0.0002156 α      lambda        0.1407260E-06
   maximum displ.:     0.0001439 α      in ANC's #55, #33, #28, ...

........................................................................
.............................. CYCLE  504 ..............................
........................................................................
     iter. time                 ...        0 min,  0.018 sec
 * total energy  :    94.9550760 Eh     change       -0.6455257E-04 Eh
   gradient norm :     0.0001025 Eh/α   predicted    -0.2030851E-07 ( -99.97%)
   displ. norm   :     0.0002156 α      lambda        0.0000000E+00
   maximum displ.:     0.0001439 α      in ANC's #55, #33, #28, ...

........................................................................
.............................. CYCLE  505 ..............................
........................................................................
     iter. time                 ...        0 min,  0.019 sec
 * total energy  :    94.9550115 Eh     change       -0.6448288E-04 Eh
   gradient norm :     0.0003247 Eh/α   predicted     0.2150975E-07 (-100.03%)
   displ. norm   :     0.0002129 α      lambda        0.1362131E-06
   maximum displ.:     0.0001828 α      in ANC's #28, #33, #55, ...

........................................................................
.............................. CYCLE  506 ..............................
........................................................................
     iter. time                 ...        0 min,  0.018 sec
 * total energy  :    94.9547215 Eh     change       -0.2900200E-03 Eh
   gradient norm :     0.0001358 Eh/α   predicted    -0.1638709E-07 ( -99.99%)
   displ. norm   :     0.0002129 α      lambda        0.0000000E+00
   maximum displ.:     0.0001828 α      in ANC's #28, #33, #55, ...

........................................................................
.............................. CYCLE  507 ..............................
........................................................................
     iter. time                 ...        0 min,  0.018 sec
 * total energy  :    94.9544315 Eh     change       -0.2899579E-03 Eh
   gradient norm :     0.0003597 Eh/α   predicted     0.2502353E-07 (-100.01%)
   displ. norm   :     0.0002344 α      lambda        0.1377610E-06
   maximum displ.:     0.0001967 α      in ANC's #28, #33, #39, ...

........................................................................
.............................. CYCLE  508 ..............................
........................................................................
     iter. time                 ...        0 min,  0.019 sec
 * total energy  :    94.9537702 Eh     change       -0.6613322E-03 Eh
   gradient norm :     0.0000931 Eh/α   predicted    -0.2629371E-07 (-100.00%)
   displ. norm   :     0.0002344 α      lambda        0.0000000E+00
   maximum displ.:     0.0001967 α      in ANC's #28, #33, #39, ...

........................................................................
.............................. CYCLE  509 ..............................
........................................................................
     iter. time                 ...        0 min,  0.018 sec
 * total energy  :    94.9531089 Eh     change       -0.6612721E-03 Eh
   gradient norm :     0.0003620 Eh/α   predicted     0.2421699E-07 (-100.00%)
   displ. norm   :     0.0002314 α      lambda       -0.3414386E-07
   maximum displ.:     0.0001467 α      in ANC's #28, #33, #39, ...

........................................................................
.............................. CYCLE  510 ..............................
........................................................................
     iter. time                 ...        0 min,  0.019 sec
 * total energy  :    94.9535963 Eh     change        0.4873473E-03 Eh
   gradient norm :     0.0000529 Eh/α   predicted    -0.2639082E-07 (-100.01%)
   displ. norm   :     0.0002314 α      lambda        0.0000000E+00
   maximum displ.:     0.0001467 α      in ANC's #28, #33, #39, ...

........................................................................
.............................. CYCLE  511 ..............................
........................................................................
     iter. time                 ...        0 min,  0.018 sec
 * total energy  :    94.9540837 Eh     change        0.4874173E-03 Eh
   gradient norm :     0.0003573 Eh/α   predicted     0.2780468E-07 ( -99.99%)
   displ. norm   :     0.0002342 α      lambda        0.1630981E-06
   maximum displ.:     0.0001684 α      in ANC's #33, #28, #55, ...

........................................................................
.............................. CYCLE  512 ..............................
........................................................................
     iter. time                 ...        0 min,  0.018 sec
 * total energy  :    94.9547728 Eh     change        0.6890466E-03 Eh
   gradient norm :     0.0000786 Eh/α   predicted    -0.2415549E-07 (-100.00%)
   displ. norm   :     0.0000817 α      lambda        0.2416084E-07
   maximum displ.:     0.0000428 α      in ANC's #2, #33, #4, ...

........................................................................
.............................. CYCLE  513 ..............................
........................................................................
     iter. time                 ...        0 min,  0.018 sec
 * total energy  :    94.9560464 Eh     change        0.1273627E-02 Eh
   gradient norm :     0.0000862 Eh/α   predicted     0.2829765E-08 (-100.00%)
   displ. norm   :     0.0000817 α      lambda        0.0000000E+00
   maximum displ.:     0.0000428 α      in ANC's #2, #33, #4, ...

........................................................................
.............................. CYCLE  514 ..............................
........................................................................
     iter. time                 ...        0 min,  0.019 sec
 * total energy  :    94.9573199 Eh     change        0.1273553E-02 Eh
   gradient norm :     0.0001156 Eh/α   predicted     0.2156794E-08 (-100.00%)
   displ. norm   :     0.0000817 α      lambda        0.0000000E+00
   maximum displ.:     0.0000428 α      in ANC's #2, #33, #4, ...

........................................................................
.............................. CYCLE  515 ..............................
........................................................................
     iter. time                 ...        0 min,  0.018 sec
 * total energy  :    94.9585934 Eh     change        0.1273480E-02 Eh
   gradient norm :     0.0001548 Eh/α   predicted     0.3434093E-08 (-100.00%)
   displ. norm   :     0.0000817 α      lambda        0.0000000E+00
   maximum displ.:     0.0000428 α      in ANC's #2, #33, #4, ...

........................................................................
.............................. CYCLE  516 ..............................
........................................................................
     iter. time                 ...        0 min,  0.019 sec
 * total energy  :    94.9598668 Eh     change        0.1273407E-02 Eh
   gradient norm :     0.0001981 Eh/α   predicted     0.4711360E-08 (-100.00%)
   displ. norm   :     0.0003483 α      lambda       -0.2233096E-08
   maximum displ.:     0.0001904 α      in ANC's #2, #33, #4, ...

........................................................................
.............................. CYCLE  517 ..............................
........................................................................
     iter. time                 ...        0 min,  0.019 sec
 * total energy  :    94.9543739 Eh     change       -0.5492884E-02 Eh
   gradient norm :     0.0000464 Eh/α   predicted    -0.1222523E-07 (-100.00%)
   displ. norm   :     0.0002037 α      lambda        0.2320066E-07
   maximum displ.:     0.0001316 α      in ANC's #33, #2, #4, ...

........................................................................
.............................. CYCLE  518 ..............................
........................................................................
     iter. time                 ...        0 min,  0.018 sec
 * total energy  :    94.9517111 Eh     change       -0.2662812E-02 Eh
   gradient norm :     0.0001947 Eh/α   predicted     0.9956695E-08 (-100.00%)
   displ. norm   :     0.0001577 α      lambda        0.6451344E-08
   maximum displ.:     0.0001125 α      in ANC's #33, #28, #55, ...

........................................................................
.............................. CYCLE  519 ..............................
........................................................................
     iter. time                 ...        0 min,  0.018 sec
 * total energy  :    94.9529267 Eh     change        0.1215576E-02 Eh
   gradient norm :     0.0000964 Eh/α   predicted    -0.6353649E-08 (-100.00%)
   displ. norm   :     0.0001577 α      lambda        0.0000000E+00
   maximum displ.:     0.0001125 α      in ANC's #33, #28, #55, ...

........................................................................
.............................. CYCLE  520 ..............................
........................................................................
     iter. time                 ...        0 min,  0.018 sec
 * total energy  :    94.9541422 Eh     change        0.1215543E-02 Eh
   gradient norm :     0.0001940 Eh/α   predicted     0.8201733E-08 (-100.00%)
   displ. norm   :     0.0001499 α      lambda       -0.6272771E-08
   maximum displ.:     0.0001009 α      in ANC's #28, #33, #55, ...

........................................................................
.............................. CYCLE  521 ..............................
........................................................................
     iter. time                 ...        0 min,  0.018 sec
 * total energy  :    94.9544895 Eh     change        0.3472876E-03 Eh
   gradient norm :     0.0000407 Eh/α   predicted    -0.9066554E-08 (-100.00%)
   displ. norm   :     0.0001499 α      lambda        0.0000000E+00
   maximum displ.:     0.0001009 α      in ANC's #28, #33, #55, ...

........................................................................
.............................. CYCLE  522 ..............................
........................................................................
     iter. time                 ...        0 min,  0.018 sec
 * total energy  :    94.9548368 Eh     change        0.3473049E-03 Eh
   gradient norm :     0.0001747 Eh/α   predicted     0.7918132E-08 (-100.00%)
   displ. norm   :     0.0001329 α      lambda        0.5113219E-07
   maximum displ.:     0.0001147 α      in ANC's #33, #28, #2, ...

........................................................................
.............................. CYCLE  523 ..............................
........................................................................
     iter. time                 ...        0 min,  0.019 sec
 * total energy  :    94.9552600 Eh     change        0.4231528E-03 Eh
   gradient norm :     0.0000948 Eh/α   predicted    -0.3846081E-08 (-100.00%)
   displ. norm   :     0.0001329 α      lambda        0.0000000E+00
   maximum displ.:     0.0001147 α      in ANC's #33, #28, #2, ...

........................................................................
.............................. CYCLE  524 ..............................
........................................................................
     iter. time                 ...        0 min,  0.019 sec
 * total energy  :    94.9556831 Eh     change        0.4231577E-03 Eh
   gradient norm :     0.0001934 Eh/α   predicted     0.6892726E-08 (-100.00%)
   displ. norm   :     0.0001424 α      lambda       -0.2757581E-08
   maximum displ.:     0.0001269 α      in ANC's #33, #2, #55, ...

........................................................................
.............................. CYCLE  525 ..............................
........................................................................
     iter. time                 ...        0 min,  0.019 sec
 * total energy  :    94.9549289 Eh     change       -0.7542408E-03 Eh
   gradient norm :     0.0000490 Eh/α   predicted    -0.8528758E-08 (-100.00%)
   displ. norm   :     0.0001424 α      lambda        0.0000000E+00
   maximum displ.:     0.0001269 α      in ANC's #33, #2, #55, ...

........................................................................
.............................. CYCLE  526 ..............................
........................................................................
     iter. time                 ...        0 min,  0.018 sec
 * total energy  :    94.9541747 Eh     change       -0.7542558E-03 Eh
   gradient norm :     0.0001751 Eh/α   predicted     0.7015004E-08 (-100.00%)
   displ. norm   :     0.0001370 α      lambda       -0.5500784E-08
   maximum displ.:     0.0001198 α      in ANC's #33, #28, #2, ...

........................................................................
.............................. CYCLE  527 ..............................
........................................................................
     iter. time                 ...        0 min,  0.018 sec
 * total energy  :    94.9543503 Eh     change        0.1756149E-03 Eh
   gradient norm :     0.0000181 Eh/α   predicted    -0.7732726E-08 (-100.00%)
   displ. norm   :     0.0001370 α      lambda        0.0000000E+00
   maximum displ.:     0.0001198 α      in ANC's #33, #28, #2, ...

........................................................................
.............................. CYCLE  528 ..............................
........................................................................
     iter. time                 ...        0 min,  0.018 sec
 * total energy  :    94.9545259 Eh     change        0.1756359E-03 Eh
   gradient norm :     0.0001747 Eh/α   predicted     0.7281228E-08 (-100.00%)
   displ. norm   :     0.0001395 α      lambda       -0.6230664E-08
   maximum displ.:     0.0001137 α      in ANC's #33, #28, #2, ...

........................................................................
.............................. CYCLE  529 ..............................
........................................................................
     iter. time                 ...        0 min,  0.018 sec
 * total energy  :    94.9535083 Eh     change       -0.1017641E-02 Eh
   gradient norm :     0.0000151 Eh/α   predicted    -0.7481302E-08 (-100.00%)
   displ. norm   :     0.0001395 α      lambda        0.0000000E+00
   maximum displ.:     0.0001137 α      in ANC's #33, #28, #2, ...

........................................................................
.............................. CYCLE  530 ..............................
........................................................................
     iter. time                 ...        0 min,  0.018 sec
 * total energy  :    94.9524906 Eh     change       -0.1017680E-02 Eh
   gradient norm :     0.0001724 Eh/α   predicted     0.6944611E-08 (-100.00%)
   displ. norm   :     0.0001316 α      lambda       -0.5625278E-08
   maximum displ.:     0.0001056 α      in ANC's #33, #28, #4, ...

........................................................................
.............................. CYCLE  531 ..............................
........................................................................
     iter. time                 ...        0 min,  0.018 sec
 * total energy  :    94.9523611 Eh     change       -0.1295211E-03 Eh
   gradient norm :     0.0000143 Eh/α   predicted    -0.7128426E-08 ( -99.99%)
   displ. norm   :     0.0001316 α      lambda        0.0000000E+00
   maximum displ.:     0.0001056 α      in ANC's #33, #28, #4, ...

........................................................................
.............................. CYCLE  532 ..............................
........................................................................
     iter. time                 ...        0 min,  0.019 sec
 * total energy  :    94.9522316 Eh     change       -0.1294972E-03 Eh
   gradient norm :     0.0001659 Eh/α   predicted     0.6362434E-08 (-100.00%)
   displ. norm   :     0.0001325 α      lambda       -0.5095824E-08
   maximum displ.:     0.0000957 α      in ANC's #33, #28, #2, ...

........................................................................
.............................. CYCLE  533 ..............................
........................................................................
     iter. time                 ...        0 min,  0.018 sec
 * total energy  :    94.9511023 Eh     change       -0.1129254E-02 Eh
   gradient norm :     0.0000138 Eh/α   predicted    -0.6547730E-08 (-100.00%)
   displ. norm   :     0.0001325 α      lambda        0.0000000E+00
   maximum displ.:     0.0000957 α      in ANC's #33, #28, #2, ...

........................................................................
.............................. CYCLE  534 ..............................
........................................................................
     iter. time                 ...        0 min,  0.018 sec
 * total energy  :    94.9499730 Eh     change       -0.1129307E-02 Eh
   gradient norm :     0.0001587 Eh/α   predicted     0.5660789E-08 (-100.00%)
   displ. norm   :     0.0001185 α      lambda       -0.3592920E-08
   maximum displ.:     0.0000859 α      in ANC's #33, #28, #4, ...

........................................................................
.............................. CYCLE  535 ..............................
........................................................................
     iter. time                 ...        0 min,  0.018 sec
 * total energy  :    94.9498529 Eh     change       -0.1200829E-03 Eh
   gradient norm :     0.0000140 Eh/α   predicted    -0.5876244E-08 (-100.00%)
   displ. norm   :     0.0001185 α      lambda        0.0000000E+00
   maximum displ.:     0.0000859 α      in ANC's #33, #28, #4, ...

........................................................................
.............................. CYCLE  536 ..............................
........................................................................
     iter. time                 ...        0 min,  0.019 sec
 * total energy  :    94.9497329 Eh     change       -0.1200634E-03 Eh
   gradient norm :     0.0001498 Eh/α   predicted     0.5052966E-08 (-100.00%)
   displ. norm   :     0.0001179 α      lambda       -0.3480508E-08
   maximum displ.:     0.0000770 α      in ANC's #33, #28, #2, ...

........................................................................
.............................. CYCLE  537 ..............................
........................................................................
     iter. time                 ...        0 min,  0.019 sec
 * total energy  :    94.9487369 Eh     change       -0.9959052E-03 Eh
   gradient norm :     0.0000130 Eh/α   predicted    -0.5290070E-08 (-100.00%)
   displ. norm   :     0.0001179 α      lambda        0.0000000E+00
   maximum displ.:     0.0000770 α      in ANC's #33, #28, #2, ...

........................................................................
.............................. CYCLE  538 ..............................
........................................................................
     iter. time                 ...        0 min,  0.018 sec
 * total energy  :    94.9477410 Eh     change       -0.9959457E-03 Eh
   gradient norm :     0.0001445 Eh/α   predicted     0.4558966E-08 (-100.00%)
   displ. norm   :     0.0001057 α      lambda       -0.2672799E-08
   maximum displ.:     0.0000690 α      in ANC's #33, #28, #4, ...
 * RMSD in coord.:     0.0009701 α      energy gain  -0.1111431E-01 Eh

generating ANC from exact Hessian ...
Using GFN-FF Lindh-Hessian
 Shifting diagonal of input Hessian by    1.1760150995278756E-002
 Lowest  eigenvalues of input Hessian
    0.010000    0.010024    0.011313    0.011326    0.011387    0.011599
    0.011648    0.011661    0.011674    0.011680    0.011684    0.011687
    0.011692    0.011694    0.011697    0.011702    0.011705    0.011709
 Highest eigenvalues
   16.237988   43.541933   46.889983   87.445466  135.922516  204.032354


........................................................................
.............................. CYCLE  539 ..............................
........................................................................
     iter. time                 ...        0 min,  0.019 sec
 * total energy  :    94.9476478 Eh     change       -0.9325193E-04 Eh
   gradient norm :     0.0050725 Eh/α   predicted     0.0000000E+00 (-100.00%)
   displ. norm   :     0.0018167 α      lambda       -0.9175356E-05
   maximum displ.:     0.0014878 α      in ANC's #33, #39, #28, ...

........................................................................
.............................. CYCLE  540 ..............................
........................................................................
     iter. time                 ...        0 min,  0.019 sec
 * total energy  :    94.9475492 Eh     change       -0.9856577E-04 Eh
   gradient norm :     0.0028706 Eh/α   predicted    -0.4603936E-05 ( -95.33%)
   displ. norm   :     0.0023868 α      lambda       -0.6398061E-05
   maximum displ.:     0.0019854 α      in ANC's #33, #39, #28, ...

........................................................................
.............................. CYCLE  541 ..............................
........................................................................
     iter. time                 ...        0 min,  0.018 sec
 * total energy  :    94.9473643 Eh     change       -0.1849058E-03 Eh
   gradient norm :     0.0002832 Eh/α   predicted    -0.3412637E-05 ( -98.15%)
   displ. norm   :     0.0001114 α      lambda       -0.4183676E-09
   maximum displ.:     0.0000944 α      in ANC's #28, #55, #33, ...

........................................................................
.............................. CYCLE  542 ..............................
........................................................................
     iter. time                 ...        0 min,  0.018 sec
 * total energy  :    94.9472918 Eh     change       -0.7249305E-04 Eh
   gradient norm :     0.0002025 Eh/α   predicted    -0.7953173E-08 ( -99.99%)
   displ. norm   :     0.0001114 α      lambda        0.0000000E+00
   maximum displ.:     0.0000944 α      in ANC's #28, #55, #33, ...

........................................................................
.............................. CYCLE  543 ..............................
........................................................................
     iter. time                 ...        0 min,  0.018 sec
 * total energy  :    94.9472193 Eh     change       -0.7247830E-04 Eh
   gradient norm :     0.0001964 Eh/α   predicted    -0.4850967E-09 (-100.00%)
   displ. norm   :     0.0001114 α      lambda        0.0000000E+00
   maximum displ.:     0.0000944 α      in ANC's #28, #55, #33, ...

........................................................................
.............................. CYCLE  544 ..............................
........................................................................
     iter. time                 ...        0 min,  0.018 sec
 * total energy  :    94.9471468 Eh     change       -0.7246354E-04 Eh
   gradient norm :     0.0002701 Eh/α   predicted     0.9504587E-08 (-100.01%)
   displ. norm   :     0.0001739 α      lambda        0.3899002E-07
   maximum displ.:     0.0001236 α      in ANC's #33, #39, #55, ...

........................................................................
.............................. CYCLE  545 ..............................
........................................................................
     iter. time                 ...        0 min,  0.018 sec
 * total energy  :    94.9468697 Eh     change       -0.2771615E-03 Eh
   gradient norm :     0.0001365 Eh/α   predicted    -0.9537325E-08 (-100.00%)
   displ. norm   :     0.0001739 α      lambda        0.0000000E+00
   maximum displ.:     0.0001236 α      in ANC's #33, #39, #55, ...

........................................................................
.............................. CYCLE  546 ..............................
........................................................................
     iter. time                 ...        0 min,  0.018 sec
 * total energy  :    94.9465926 Eh     change       -0.2771282E-03 Eh
   gradient norm :     0.0002318 Eh/α   predicted     0.1000148E-07 (-100.00%)
   displ. norm   :     0.0002199 α      lambda        0.6878212E-07
   maximum displ.:     0.0002003 α      in ANC's #33, #28, #55, ...

........................................................................
.............................. CYCLE  547 ..............................
........................................................................
     iter. time                 ...        0 min,  0.018 sec
 * total energy  :    94.9458433 Eh     change       -0.7492601E-03 Eh
   gradient norm :     0.0001040 Eh/α   predicted    -0.1408143E-07 (-100.00%)
   displ. norm   :     0.0002199 α      lambda        0.0000000E+00
   maximum displ.:     0.0002003 α      in ANC's #33, #28, #55, ...

........................................................................
.............................. CYCLE  548 ..............................
........................................................................
     iter. time                 ...        0 min,  0.018 sec
 * total energy  :    94.9450941 Eh     change       -0.7492304E-03 Eh
   gradient norm :     0.0003081 Eh/α   predicted     0.2333812E-07 (-100.00%)
   displ. norm   :     0.0002594 α      lambda       -0.2924849E-07
   maximum displ.:     0.0002378 α      in ANC's #33, #28, #39, ...

........................................................................
.............................. CYCLE  549 ..............................
........................................................................
     iter. time                 ...        0 min,  0.019 sec
 * total energy  :    94.9458193 Eh     change        0.7252425E-03 Eh
   gradient norm :     0.0000230 Eh/α   predicted    -0.2615128E-07 (-100.00%)
   displ. norm   :     0.0002594 α      lambda        0.0000000E+00
   maximum displ.:     0.0002378 α      in ANC's #33, #28, #39, ...

........................................................................
.............................. CYCLE  550 ..............................
........................................................................
     iter. time                 ...        0 min,  0.019 sec
 * total energy  :    94.9465446 Eh     change        0.7252964E-03 Eh
   gradient norm :     0.0003006 Eh/α   predicted     0.2555256E-07 (-100.00%)
   displ. norm   :     0.0002312 α      lambda        0.1545454E-06
   maximum displ.:     0.0002104 α      in ANC's #33, #39, #2, ...

........................................................................
.............................. CYCLE  551 ..............................
........................................................................
     iter. time                 ...        0 min,  0.019 sec
 * total energy  :    94.9477844 Eh     change        0.1239777E-02 Eh
   gradient norm :     0.0001073 Eh/α   predicted    -0.1686327E-07 (-100.00%)
   displ. norm   :     0.0002312 α      lambda        0.0000000E+00
   maximum displ.:     0.0002104 α      in ANC's #33, #39, #2, ...

........................................................................
.............................. CYCLE  552 ..............................
........................................................................
     iter. time                 ...        0 min,  0.019 sec
 * total energy  :    94.9490241 Eh     change        0.1239768E-02 Eh
   gradient norm :     0.0002947 Eh/α   predicted     0.1853135E-07 (-100.00%)
   displ. norm   :     0.0002159 α      lambda       -0.6649351E-08
   maximum displ.:     0.0001979 α      in ANC's #33, #39, #28, ...

........................................................................
.............................. CYCLE  553 ..............................
........................................................................
     iter. time                 ...        0 min,  0.018 sec
 * total energy  :    94.9483235 Eh     change       -0.7006731E-03 Eh
   gradient norm :     0.0000593 Eh/α   predicted    -0.1997887E-07 (-100.00%)
   displ. norm   :     0.0002159 α      lambda        0.0000000E+00
   maximum displ.:     0.0001979 α      in ANC's #33, #39, #28, ...

........................................................................
.............................. CYCLE  554 ..............................
........................................................................
     iter. time                 ...        0 min,  0.018 sec
 * total energy  :    94.9476228 Eh     change       -0.7006380E-03 Eh
   gradient norm :     0.0002716 Eh/α   predicted     0.1841327E-07 (-100.00%)
   displ. norm   :     0.0001974 α      lambda        0.1143850E-06
   maximum displ.:     0.0001580 α      in ANC's #33, #39, #2, ...

........................................................................
.............................. CYCLE  555 ..............................
........................................................................
     iter. time                 ...        0 min,  0.018 sec
 * total energy  :    94.9461159 Eh     change       -0.1506917E-02 Eh
   gradient norm :     0.0000819 Eh/α   predicted    -0.1356443E-07 (-100.00%)
   displ. norm   :     0.0001769 α      lambda        0.1936309E-07
   maximum displ.:     0.0001396 α      in ANC's #33, #39, #2, ...

........................................................................
.............................. CYCLE  556 ..............................
........................................................................
     iter. time                 ...        0 min,  0.019 sec
 * total energy  :    94.9450075 Eh     change       -0.1108437E-02 Eh
   gradient norm :     0.0002347 Eh/α   predicted     0.9417739E-08 (-100.00%)
   displ. norm   :     0.0001414 α      lambda       -0.5441215E-08
   maximum displ.:     0.0001004 α      in ANC's #33, #39, #55, ...

........................................................................
.............................. CYCLE  557 ..............................
........................................................................
     iter. time                 ...        0 min,  0.018 sec
 * total energy  :    94.9450780 Eh     change        0.7052228E-04 Eh
   gradient norm :     0.0000433 Eh/α   predicted    -0.1037396E-07 (-100.01%)
   displ. norm   :     0.0001414 α      lambda        0.0000000E+00
   maximum displ.:     0.0001004 α      in ANC's #33, #39, #55, ...

........................................................................
.............................. CYCLE  558 ..............................
........................................................................
     iter. time                 ...        0 min,  0.019 sec
 * total energy  :    94.9451486 Eh     change        0.7055148E-04 Eh
   gradient norm :     0.0001977 Eh/α   predicted     0.8667836E-08 ( -99.99%)
   displ. norm   :     0.0001305 α      lambda        0.5676483E-07
   maximum displ.:     0.0000853 α      in ANC's #39, #33, #28, ...

........................................................................
.............................. CYCLE  559 ..............................
........................................................................
     iter. time                 ...        0 min,  0.018 sec
 * total energy  :    94.9450853 Eh     change       -0.6325878E-04 Eh
   gradient norm :     0.0000566 Eh/α   predicted    -0.8225461E-08 ( -99.99%)
   displ. norm   :     0.0001305 α      lambda        0.0000000E+00
   maximum displ.:     0.0000853 α      in ANC's #39, #33, #28, ...

........................................................................
.............................. CYCLE  560 ..............................
........................................................................
     iter. time                 ...        0 min,  0.018 sec
 * total energy  :    94.9450221 Eh     change       -0.6323265E-04 Eh
   gradient norm :     0.0002208 Eh/α   predicted     0.8967055E-08 (-100.01%)
   displ. norm   :     0.0001332 α      lambda        0.5249316E-07
   maximum displ.:     0.0000880 α      in ANC's #39, #28, #55, ...

........................................................................
.............................. CYCLE  561 ..............................
........................................................................
     iter. time                 ...        0 min,  0.019 sec
 * total energy  :    94.9447430 Eh     change       -0.2790305E-03 Eh
   gradient norm :     0.0000572 Eh/α   predicted    -0.8467090E-08 (-100.00%)
   displ. norm   :     0.0001332 α      lambda        0.0000000E+00
   maximum displ.:     0.0000880 α      in ANC's #39, #28, #55, ...

........................................................................
.............................. CYCLE  562 ..............................
........................................................................
     iter. time                 ...        0 min,  0.018 sec
 * total energy  :    94.9444640 Eh     change       -0.2790024E-03 Eh
   gradient norm :     0.0002411 Eh/α   predicted     0.1039388E-07 (-100.00%)
   displ. norm   :     0.0001395 α      lambda        0.5983842E-07
   maximum displ.:     0.0000788 α      in ANC's #28, #39, #55, ...

........................................................................
.............................. CYCLE  563 ..............................
........................................................................
     iter. time                 ...        0 min,  0.019 sec
 * total energy  :    94.9438252 Eh     change       -0.6388489E-03 Eh
   gradient norm :     0.0000274 Eh/α   predicted    -0.9835228E-08 (-100.00%)
   displ. norm   :     0.0001395 α      lambda        0.0000000E+00
   maximum displ.:     0.0000788 α      in ANC's #28, #39, #55, ...

........................................................................
.............................. CYCLE  564 ..............................
........................................................................
     iter. time                 ...        0 min,  0.019 sec
 * total energy  :    94.9431864 Eh     change       -0.6388297E-03 Eh
   gradient norm :     0.0002042 Eh/α   predicted     0.7642271E-08 (-100.00%)
   displ. norm   :     0.0001285 α      lambda        0.5384766E-07
   maximum displ.:     0.0000523 α      in ANC's #39, #55, #28, ...

........................................................................
.............................. CYCLE  565 ..............................
........................................................................
     iter. time                 ...        0 min,  0.018 sec
 * total energy  :    94.9419265 Eh     change       -0.1259880E-02 Eh
   gradient norm :     0.0000594 Eh/α   predicted    -0.4287054E-08 (-100.00%)
   displ. norm   :     0.0001285 α      lambda        0.0000000E+00
   maximum displ.:     0.0000523 α      in ANC's #39, #55, #28, ...

........................................................................
.............................. CYCLE  566 ..............................
........................................................................
     iter. time                 ...        0 min,  0.018 sec
 * total energy  :    94.9406666 Eh     change       -0.1259909E-02 Eh
   gradient norm :     0.0001188 Eh/α   predicted     0.1341668E-08 (-100.00%)
   displ. norm   :     0.0001285 α      lambda        0.0000000E+00
   maximum displ.:     0.0000523 α      in ANC's #39, #55, #28, ...

........................................................................
.............................. CYCLE  567 ..............................
........................................................................
     iter. time                 ...        0 min,  0.018 sec
 * total energy  :    94.9394066 Eh     change       -0.1259938E-02 Eh
   gradient norm :     0.0002710 Eh/α   predicted     0.1076905E-07 (-100.00%)
   displ. norm   :     0.0001704 α      lambda        0.4039068E-07
   maximum displ.:     0.0000547 α      in ANC's #39, #4, #28, ...

........................................................................
.............................. CYCLE  568 ..............................
........................................................................
     iter. time                 ...        0 min,  0.018 sec
 * total energy  :    94.9373984 Eh     change       -0.2008186E-02 Eh
   gradient norm :     0.0001166 Eh/α   predicted    -0.5659445E-08 (-100.00%)
   displ. norm   :     0.0001704 α      lambda        0.0000000E+00
   maximum displ.:     0.0000547 α      in ANC's #39, #4, #28, ...

........................................................................
.............................. CYCLE  569 ..............................
........................................................................
     iter. time                 ...        0 min,  0.018 sec
 * total energy  :    94.9353902 Eh     change       -0.2008286E-02 Eh
   gradient norm :     0.0000539 Eh/α   predicted    -0.3069195E-08 (-100.00%)
   displ. norm   :     0.0002747 α      lambda        0.1327015E-07
   maximum displ.:     0.0001016 α      in ANC's #4, #10, #2, ...

........................................................................
.............................. CYCLE  570 ..............................
........................................................................
     iter. time                 ...        0 min,  0.018 sec
 * total energy  :    94.9315213 Eh     change       -0.3868906E-02 Eh
   gradient norm :     0.0001086 Eh/α   predicted     0.2188531E-08 (-100.00%)
   displ. norm   :     0.0002747 α      lambda        0.0000000E+00
   maximum displ.:     0.0001016 α      in ANC's #4, #10, #2, ...

........................................................................
.............................. CYCLE  571 ..............................
........................................................................
     iter. time                 ...        0 min,  0.019 sec
 * total energy  :    94.9276519 Eh     change       -0.3869342E-02 Eh
   gradient norm :     0.0001710 Eh/α   predicted     0.1273172E-08 (-100.00%)
   displ. norm   :     0.0002747 α      lambda        0.0000000E+00
   maximum displ.:     0.0001016 α      in ANC's #4, #10, #2, ...

........................................................................
.............................. CYCLE  572 ..............................
........................................................................
     iter. time                 ...        0 min,  0.019 sec
 * total energy  :    94.9237821 Eh     change       -0.3869778E-02 Eh
   gradient norm :     0.0002351 Eh/α   predicted     0.2943649E-08 (-100.00%)
   displ. norm   :     0.0002747 α      lambda        0.0000000E+00
   maximum displ.:     0.0001016 α      in ANC's #4, #10, #2, ...

........................................................................
.............................. CYCLE  573 ..............................
........................................................................
     iter. time                 ...        0 min,  0.018 sec
 * total energy  :    94.9199119 Eh     change       -0.3870215E-02 Eh
   gradient norm :     0.0002997 Eh/α   predicted     0.4614179E-08 (-100.00%)
   displ. norm   :     0.0003619 α      lambda        0.1256675E-07
   maximum displ.:     0.0001338 α      in ANC's #4, #10, #2, ...

........................................................................
.............................. CYCLE  574 ..............................
........................................................................
     iter. time                 ...        0 min,  0.018 sec
 * total energy  :    94.9147949 Eh     change       -0.5117020E-02 Eh
   gradient norm :     0.0002165 Eh/α   predicted    -0.4621897E-08 (-100.00%)
   displ. norm   :     0.0004902 α      lambda       -0.1642071E-07
   maximum displ.:     0.0001766 α      in ANC's #4, #10, #2, ...

........................................................................
.............................. CYCLE  575 ..............................
........................................................................
     iter. time                 ...        0 min,  0.018 sec
 * total energy  :    94.9080148 Eh     change       -0.6780129E-02 Eh
   gradient norm :     0.0000229 Eh/α   predicted    -0.1235850E-07 (-100.00%)
   displ. norm   :     0.0013194 α      lambda        0.1209041E-08
   maximum displ.:     0.0004932 α      in ANC's #4, #10, #2, ...

........................................................................
.............................. CYCLE  576 ..............................
........................................................................
     iter. time                 ...        0 min,  0.018 sec
 * total energy  :    94.8889945 Eh     change       -0.1902027E-01 Eh
   gradient norm :     0.0000519 Eh/α   predicted    -0.5148573E-08 (-100.00%)
   displ. norm   :     0.0026207 α      lambda       -0.1653072E-07
   maximum displ.:     0.0009800 α      in ANC's #4, #10, #2, ...

........................................................................
.............................. CYCLE  577 ..............................
........................................................................
     iter. time                 ...        0 min,  0.018 sec
 * total energy  :    94.8510897 Eh     change       -0.3790484E-01 Eh
   gradient norm :     0.0000644 Eh/α   predicted    -0.1563417E-07 (-100.00%)
   displ. norm   :     0.0490585 α      lambda       -0.2936471E-06
   maximum displ.:     0.0183441 α      in ANC's #4, #10, #2, ...

........................................................................
.............................. CYCLE  578 ..............................
........................................................................
     iter. time                 ...        0 min,  0.018 sec
 * total energy  :    94.1337231 Eh     change       -0.7173666E+00 Eh
   gradient norm :     0.0005279 Eh/α   predicted    -0.2120531E-06 (-100.00%)
   displ. norm   :     0.0764381 α      lambda       -0.4625442E-06
   maximum displ.:     0.0285814 α      in ANC's #4, #10, #2, ...
 * RMSD in coord.:     0.0085027 α      energy gain  -0.8140179E+00 Eh

generating ANC from exact Hessian ...
Using GFN-FF Lindh-Hessian
 Shifting diagonal of input Hessian by    1.1760344779068177E-002
 Lowest  eigenvalues of input Hessian
    0.010000    0.010024    0.011313    0.011326    0.011388    0.011596
    0.011648    0.011661    0.011674    0.011680    0.011684    0.011688
    0.011692    0.011695    0.011697    0.011702    0.011705    0.011709
 Highest eigenvalues
   16.795755   35.706833   42.062491  103.618059  132.767554  211.593339


........................................................................
.............................. CYCLE  579 ..............................
........................................................................
     iter. time                 ...        0 min,  0.018 sec
 * total energy  :    92.9829978 Eh     change       -0.1150725E+01 Eh
   gradient norm :     0.0013630 Eh/α   predicted     0.0000000E+00 (-100.00%)
   displ. norm   :     0.0007235 α      lambda        0.1532784E-05
   maximum displ.:     0.0004956 α      in ANC's #29, #33, #55, ...

........................................................................
.............................. CYCLE  580 ..............................
........................................................................
     iter. time                 ...        0 min,  0.018 sec
 * total energy  :    92.9829355 Eh     change       -0.6234860E-04 Eh
   gradient norm :     0.0005459 Eh/α   predicted    -0.3258622E-06 ( -99.48%)
   displ. norm   :     0.0004842 α      lambda       -0.1328159E-06
   maximum displ.:     0.0003265 α      in ANC's #29, #33, #55, ...

........................................................................
.............................. CYCLE  581 ..............................
........................................................................
     iter. time                 ...        0 min,  0.019 sec
 * total energy  :    92.9828819 Eh     change       -0.5355631E-04 Eh
   gradient norm :     0.0000155 Eh/α   predicted    -0.8813744E-07 ( -99.84%)
   displ. norm   :     0.0001400 α      lambda        0.1756525E-06
   maximum displ.:     0.0001070 α      in ANC's #29, #55, #33, ...

........................................................................
.............................. CYCLE  582 ..............................
........................................................................
     iter. time                 ...        0 min,  0.019 sec
 * total energy  :    92.9830544 Eh     change        0.1725017E-03 Eh
   gradient norm :     0.0002168 Eh/α   predicted     0.1370129E-07 ( -99.99%)
   displ. norm   :     0.0001279 α      lambda        0.5808592E-07
   maximum displ.:     0.0000868 α      in ANC's #55, #29, #39, ...

........................................................................
.............................. CYCLE  583 ..............................
........................................................................
     iter. time                 ...        0 min,  0.019 sec
 * total energy  :    92.9833429 Eh     change        0.2884760E-03 Eh
   gradient norm :     0.0000882 Eh/α   predicted    -0.5993963E-08 (-100.00%)
   displ. norm   :     0.0001279 α      lambda        0.0000000E+00
   maximum displ.:     0.0000868 α      in ANC's #55, #29, #39, ...

........................................................................
.............................. CYCLE  584 ..............................
........................................................................
     iter. time                 ...        0 min,  0.019 sec
 * total energy  :    92.9836314 Eh     change        0.2885075E-03 Eh
   gradient norm :     0.0002282 Eh/α   predicted     0.8662119E-08 (-100.00%)
   displ. norm   :     0.0001250 α      lambda        0.5049185E-07
   maximum displ.:     0.0000637 α      in ANC's #55, #33, #39, ...

........................................................................
.............................. CYCLE  585 ..............................
........................................................................
     iter. time                 ...        0 min,  0.018 sec
 * total energy  :    92.9841135 Eh     change        0.4820800E-03 Eh
   gradient norm :     0.0000627 Eh/α   predicted    -0.5322414E-08 (-100.00%)
   displ. norm   :     0.0001250 α      lambda        0.0000000E+00
   maximum displ.:     0.0000637 α      in ANC's #55, #33, #39, ...

........................................................................
.............................. CYCLE  586 ..............................
........................................................................
     iter. time                 ...        0 min,  0.018 sec
 * total energy  :    92.9845956 Eh     change        0.4821172E-03 Eh
   gradient norm :     0.0001279 Eh/α   predicted     0.3165742E-08 (-100.00%)
   displ. norm   :     0.0001250 α      lambda        0.0000000E+00
   maximum displ.:     0.0000637 α      in ANC's #55, #33, #39, ...

........................................................................
.............................. CYCLE  587 ..............................
........................................................................
     iter. time                 ...        0 min,  0.018 sec
 * total energy  :    92.9850777 Eh     change        0.4821544E-03 Eh
   gradient norm :     0.0002989 Eh/α   predicted     0.1573657E-07 (-100.00%)
   displ. norm   :     0.0001553 α      lambda        0.5661171E-07
   maximum displ.:     0.0000740 α      in ANC's #29, #33, #39, ...

........................................................................
.............................. CYCLE  588 ..............................
........................................................................
     iter. time                 ...        0 min,  0.018 sec
 * total energy  :    92.9858428 Eh     change        0.7650295E-03 Eh
   gradient norm :     0.0001181 Eh/α   predicted    -0.7652639E-08 (-100.00%)
   displ. norm   :     0.0001553 α      lambda        0.0000000E+00
   maximum displ.:     0.0000740 α      in ANC's #29, #33, #39, ...

........................................................................
.............................. CYCLE  589 ..............................
........................................................................
     iter. time                 ...        0 min,  0.018 sec
 * total energy  :    92.9866079 Eh     change        0.7651007E-03 Eh
   gradient norm :     0.0001556 Eh/α   predicted     0.2290813E-08 (-100.00%)
   displ. norm   :     0.0001553 α      lambda        0.0000000E+00
   maximum displ.:     0.0000740 α      in ANC's #29, #33, #39, ...

........................................................................
.............................. CYCLE  590 ..............................
........................................................................
     iter. time                 ...        0 min,  0.018 sec
 * total energy  :    92.9873730 Eh     change        0.7651718E-03 Eh
   gradient norm :     0.0003467 Eh/α   predicted     0.1943742E-07 (-100.00%)
   displ. norm   :     0.0002005 α      lambda        0.7316823E-07
   maximum displ.:     0.0001238 α      in ANC's #29, #11, #55, ...

........................................................................
.............................. CYCLE  591 ..............................
........................................................................
     iter. time                 ...        0 min,  0.019 sec
 * total energy  :    92.9885834 Eh     change        0.1210405E-02 Eh
   gradient norm :     0.0001231 Eh/α   predicted    -0.1006424E-07 (-100.00%)
   displ. norm   :     0.0002005 α      lambda        0.0000000E+00
   maximum displ.:     0.0001238 α      in ANC's #29, #11, #55, ...

........................................................................
.............................. CYCLE  592 ..............................
........................................................................
     iter. time                 ...        0 min,  0.018 sec
 * total energy  :    92.9897940 Eh     change        0.1210549E-02 Eh
   gradient norm :     0.0001234 Eh/α   predicted     0.1078431E-08 (-100.00%)
   displ. norm   :     0.0002005 α      lambda        0.0000000E+00
   maximum displ.:     0.0001238 α      in ANC's #29, #11, #55, ...

........................................................................
.............................. CYCLE  593 ..............................
........................................................................
     iter. time                 ...        0 min,  0.018 sec
 * total energy  :    92.9910047 Eh     change        0.1210694E-02 Eh
   gradient norm :     0.0003470 Eh/α   predicted     0.2233477E-07 (-100.00%)
   displ. norm   :     0.0002869 α      lambda       -0.1636138E-07
   maximum displ.:     0.0002125 α      in ANC's #29, #11, #56, ...

........................................................................
.............................. CYCLE  594 ..............................
........................................................................
     iter. time                 ...        0 min,  0.018 sec
 * total energy  :    92.9894364 Eh     change       -0.1568298E-02 Eh
   gradient norm :     0.0000674 Eh/α   predicted    -0.2418064E-07 (-100.00%)
   displ. norm   :     0.0003361 α      lambda        0.5022175E-07
   maximum displ.:     0.0002127 α      in ANC's #29, #11, #56, ...

........................................................................
.............................. CYCLE  595 ..............................
........................................................................
     iter. time                 ...        0 min,  0.019 sec
 * total energy  :    92.9872620 Eh     change       -0.2174420E-02 Eh
   gradient norm :     0.0003454 Eh/α   predicted     0.2462794E-07 (-100.00%)
   displ. norm   :     0.0002708 α      lambda        0.1577295E-07
   maximum displ.:     0.0001728 α      in ANC's #29, #55, #11, ...

........................................................................
.............................. CYCLE  596 ..............................
........................................................................
     iter. time                 ...        0 min,  0.018 sec
 * total energy  :    92.9887276 Eh     change        0.1465621E-02 Eh
   gradient norm :     0.0001358 Eh/α   predicted    -0.1964970E-07 (-100.00%)
   displ. norm   :     0.0003728 α      lambda        0.4769187E-07
   maximum displ.:     0.0001990 α      in ANC's #29, #11, #12, ...

........................................................................
.............................. CYCLE  597 ..............................
........................................................................
     iter. time                 ...        0 min,  0.019 sec
 * total energy  :    92.9912599 Eh     change        0.2532317E-02 Eh
   gradient norm :     0.0003235 Eh/α   predicted     0.1964912E-07 (-100.00%)
   displ. norm   :     0.0003493 α      lambda        0.4328979E-07
   maximum displ.:     0.0001497 α      in ANC's #11, #29, #56, ...

........................................................................
.............................. CYCLE  598 ..............................
........................................................................
     iter. time                 ...        0 min,  0.018 sec
 * total energy  :    92.9886474 Eh     change       -0.2612515E-02 Eh
   gradient norm :     0.0000448 Eh/α   predicted    -0.1750163E-07 (-100.00%)
   displ. norm   :     0.0001712 α      lambda        0.2555993E-07
   maximum displ.:     0.0001012 α      in ANC's #29, #55, #39, ...

........................................................................
.............................. CYCLE  599 ..............................
........................................................................
     iter. time                 ...        0 min,  0.018 sec
 * total energy  :    92.9877870 Eh     change       -0.8604344E-03 Eh
   gradient norm :     0.0002185 Eh/α   predicted     0.1024002E-07 (-100.00%)
   displ. norm   :     0.0001400 α      lambda       -0.1000978E-07
   maximum displ.:     0.0000762 α      in ANC's #29, #55, #39, ...

........................................................................
.............................. CYCLE  600 ..............................
........................................................................
     iter. time                 ...        0 min,  0.018 sec
 * total energy  :    92.9872764 Eh     change       -0.5105386E-03 Eh
   gradient norm :     0.0000309 Eh/α   predicted    -0.8231388E-08 (-100.00%)
   displ. norm   :     0.0000936 α      lambda        0.1207925E-07
   maximum displ.:     0.0000573 α      in ANC's #55, #29, #39, ...

........................................................................
.............................. CYCLE  601 ..............................
........................................................................
     iter. time                 ...        0 min,  0.018 sec
 * total energy  :    92.9873725 Eh     change        0.9609514E-04 Eh
   gradient norm :     0.0001420 Eh/α   predicted     0.4714286E-08 (-100.00%)
   displ. norm   :     0.0000860 α      lambda        0.2689449E-07
   maximum displ.:     0.0000590 α      in ANC's #55, #39, #29, ...

........................................................................
.............................. CYCLE  602 ..............................
........................................................................
     iter. time                 ...        0 min,  0.018 sec
 * total energy  :    92.9875201 Eh     change        0.1476215E-03 Eh
   gradient norm :     0.0000244 Eh/α   predicted    -0.3650726E-08 (-100.00%)
   displ. norm   :     0.0000860 α      lambda        0.0000000E+00
   maximum displ.:     0.0000590 α      in ANC's #55, #39, #29, ...

........................................................................
.............................. CYCLE  603 ..............................
........................................................................
     iter. time                 ...        0 min,  0.018 sec
 * total energy  :    92.9876678 Eh     change        0.1476340E-03 Eh
   gradient norm :     0.0001406 Eh/α   predicted     0.3867042E-08 (-100.00%)
   displ. norm   :     0.0000866 α      lambda        0.2314165E-07
   maximum displ.:     0.0000496 α      in ANC's #29, #55, #33, ...

........................................................................
.............................. CYCLE  604 ..............................
........................................................................
     iter. time                 ...        0 min,  0.018 sec
 * total energy  :    92.9879077 Eh     change        0.2399095E-03 Eh
   gradient norm :     0.0000342 Eh/α   predicted    -0.2934185E-08 (-100.00%)
   displ. norm   :     0.0000866 α      lambda        0.0000000E+00
   maximum displ.:     0.0000496 α      in ANC's #29, #55, #33, ...

........................................................................
.............................. CYCLE  605 ..............................
........................................................................
     iter. time                 ...        0 min,  0.018 sec
 * total energy  :    92.9881476 Eh     change        0.2399227E-03 Eh
   gradient norm :     0.0001337 Eh/α   predicted     0.3616326E-08 (-100.00%)
   displ. norm   :     0.0000872 α      lambda        0.2142741E-07
   maximum displ.:     0.0000533 α      in ANC's #29, #33, #55, ...

........................................................................
.............................. CYCLE  606 ..............................
........................................................................
     iter. time                 ...        0 min,  0.018 sec
 * total energy  :    92.9885503 Eh     change        0.4026571E-03 Eh
   gradient norm :     0.0000309 Eh/α   predicted    -0.2062584E-08 (-100.00%)
   displ. norm   :     0.0000872 α      lambda        0.0000000E+00
   maximum displ.:     0.0000533 α      in ANC's #29, #33, #55, ...

........................................................................
.............................. CYCLE  607 ..............................
........................................................................
     iter. time                 ...        0 min,  0.018 sec
 * total energy  :    92.9889529 Eh     change        0.4026721E-03 Eh
   gradient norm :     0.0000856 Eh/α   predicted     0.1578638E-08 (-100.00%)
   displ. norm   :     0.0001219 α      lambda        0.2034810E-08
   maximum displ.:     0.0000423 α      in ANC's #56, #11, #4, ...

........................................................................
.............................. CYCLE  608 ..............................
........................................................................
     iter. time                 ...        0 min,  0.018 sec
 * total energy  :    92.9882910 Eh     change       -0.6619413E-03 Eh
   gradient norm :     0.0000298 Eh/α   predicted    -0.1232895E-08 (-100.00%)
   displ. norm   :     0.0001219 α      lambda        0.0000000E+00
   maximum displ.:     0.0000423 α      in ANC's #56, #11, #4, ...

........................................................................
.............................. CYCLE  609 ..............................
........................................................................
     iter. time                 ...        0 min,  0.019 sec
 * total energy  :    92.9876291 Eh     change       -0.6618782E-03 Eh
   gradient norm :     0.0000770 Eh/α   predicted     0.2997646E-09 (-100.00%)
   displ. norm   :     0.0001219 α      lambda        0.0000000E+00
   maximum displ.:     0.0000423 α      in ANC's #56, #11, #4, ...

........................................................................
.............................. CYCLE  610 ..............................
........................................................................
     iter. time                 ...        0 min,  0.019 sec
 * total energy  :    92.9869673 Eh     change       -0.6618151E-03 Eh
   gradient norm :     0.0001498 Eh/α   predicted     0.2582298E-08 (-100.00%)
   displ. norm   :     0.0001219 α      lambda        0.0000000E+00
   maximum displ.:     0.0000423 α      in ANC's #56, #11, #4, ...

........................................................................
.............................. CYCLE  611 ..............................
........................................................................
     iter. time                 ...        0 min,  0.018 sec
 * total energy  :    92.9863055 Eh     change       -0.6617520E-03 Eh
   gradient norm :     0.0002246 Eh/α   predicted     0.4864769E-08 (-100.00%)
   displ. norm   :     0.0001191 α      lambda       -0.6201667E-08
   maximum displ.:     0.0000616 α      in ANC's #55, #56, #29, ...

........................................................................
.............................. CYCLE  612 ..............................
........................................................................
     iter. time                 ...        0 min,  0.019 sec
 * total energy  :    92.9854154 Eh     change       -0.8901223E-03 Eh
   gradient norm :     0.0000673 Eh/α   predicted    -0.6101213E-08 (-100.00%)
   displ. norm   :     0.0001191 α      lambda        0.0000000E+00
   maximum displ.:     0.0000616 α      in ANC's #55, #56, #29, ...

........................................................................
.............................. CYCLE  613 ..............................
........................................................................
     iter. time                 ...        0 min,  0.019 sec
 * total energy  :    92.9845254 Eh     change       -0.8900373E-03 Eh
   gradient norm :     0.0001013 Eh/α   predicted     0.1285250E-08 (-100.00%)
   displ. norm   :     0.0001006 α      lambda        0.1271398E-07
   maximum displ.:     0.0000385 α      in ANC's #56, #23, #29, ...

........................................................................
.............................. CYCLE  614 ..............................
........................................................................
     iter. time                 ...        0 min,  0.019 sec
 * total energy  :    92.9826837 Eh     change       -0.1841668E-02 Eh
   gradient norm :     0.0001158 Eh/α   predicted     0.2357017E-08 (-100.00%)
   displ. norm   :     0.0001310 α      lambda        0.1010376E-07
   maximum displ.:     0.0000528 α      in ANC's #23, #56, #29, ...

........................................................................
.............................. CYCLE  615 ..............................
........................................................................
     iter. time                 ...        0 min,  0.019 sec
 * total energy  :    92.9800499 Eh     change       -0.2633851E-02 Eh
   gradient norm :     0.0001325 Eh/α   predicted     0.1747251E-08 (-100.00%)
   displ. norm   :     0.0000821 α      lambda        0.4809123E-08
   maximum displ.:     0.0000525 α      in ANC's #56, #12, #33, ...

........................................................................
.............................. CYCLE  616 ..............................
........................................................................
     iter. time                 ...        0 min,  0.019 sec
 * total energy  :    92.9805257 Eh     change        0.4758175E-03 Eh
   gradient norm :     0.0001066 Eh/α   predicted     0.1718186E-09 (-100.00%)
   displ. norm   :     0.0000821 α      lambda        0.0000000E+00
   maximum displ.:     0.0000525 α      in ANC's #56, #12, #33, ...

........................................................................
.............................. CYCLE  617 ..............................
........................................................................
     iter. time                 ...        0 min,  0.018 sec
 * total energy  :    92.9810016 Eh     change        0.4758806E-03 Eh
   gradient norm :     0.0000861 Eh/α   predicted    -0.5644287E-09 (-100.00%)
   displ. norm   :     0.0000821 α      lambda        0.0000000E+00
   maximum displ.:     0.0000525 α      in ANC's #56, #12, #33, ...

........................................................................
.............................. CYCLE  618 ..............................
........................................................................
     iter. time                 ...        0 min,  0.018 sec
 * total energy  :    92.9814775 Eh     change        0.4759437E-03 Eh
   gradient norm :     0.0000753 Eh/α   predicted     0.3531518E-10 (-100.00%)
   displ. norm   :     0.0000821 α      lambda        0.0000000E+00
   maximum displ.:     0.0000525 α      in ANC's #56, #12, #33, ...
 * RMSD in coord.:     0.0000882 α      energy gain  -0.1152246E+01 Eh

generating ANC from exact Hessian ...
Using GFN-FF Lindh-Hessian
 Shifting diagonal of input Hessian by    1.1760343676561088E-002
 Lowest  eigenvalues of input Hessian
    0.010000    0.010024    0.011313    0.011326    0.011388    0.011596
    0.011648    0.011661    0.011674    0.011680    0.011684    0.011688
    0.011692    0.011695    0.011697    0.011702    0.011705    0.011709
 Highest eigenvalues
   16.793059   35.711989   42.064475  103.378862  132.767244  211.556817


........................................................................
.............................. CYCLE  619 ..............................
........................................................................
     iter. time                 ...        0 min,  0.018 sec
 * total energy  :    92.9819535 Eh     change        0.4760067E-03 Eh
   gradient norm :     0.0004374 Eh/α   predicted     0.0000000E+00 (-100.00%)
   displ. norm   :     0.0002320 α      lambda        0.1581774E-06
   maximum displ.:     0.0001911 α      in ANC's #33, #29, #55, ...

........................................................................
.............................. CYCLE  620 ..............................
........................................................................
     iter. time                 ...        0 min,  0.019 sec
 * total energy  :    92.9818912 Eh     change       -0.6235722E-04 Eh
   gradient norm :     0.0001681 Eh/α   predicted    -0.3367494E-07 ( -99.95%)
   displ. norm   :     0.0002320 α      lambda        0.0000000E+00
   maximum displ.:     0.0001911 α      in ANC's #33, #29, #55, ...

........................................................................
.............................. CYCLE  621 ..............................
........................................................................
     iter. time                 ...        0 min,  0.019 sec
 * total energy  :    92.9818289 Eh     change       -0.6229365E-04 Eh
   gradient norm :     0.0001259 Eh/α   predicted    -0.4314374E-08 ( -99.99%)
   displ. norm   :     0.0002320 α      lambda        0.0000000E+00
   maximum displ.:     0.0001911 α      in ANC's #33, #29, #55, ...

........................................................................
.............................. CYCLE  622 ..............................
........................................................................
     iter. time                 ...        0 min,  0.018 sec
 * total energy  :    92.9817666 Eh     change       -0.6223009E-04 Eh
   gradient norm :     0.0003924 Eh/α   predicted     0.3788466E-07 (-100.06%)
   displ. norm   :     0.0002930 α      lambda        0.1601470E-06
   maximum displ.:     0.0002707 α      in ANC's #33, #39, #55, ...

........................................................................
.............................. CYCLE  623 ..............................
........................................................................
     iter. time                 ...        0 min,  0.018 sec
 * total energy  :    92.9815794 Eh     change       -0.1872019E-03 Eh
   gradient norm :     0.0001612 Eh/α   predicted    -0.3044544E-07 ( -99.98%)
   displ. norm   :     0.0002930 α      lambda        0.0000000E+00
   maximum displ.:     0.0002707 α      in ANC's #33, #39, #55, ...

........................................................................
.............................. CYCLE  624 ..............................
........................................................................
     iter. time                 ...        0 min,  0.019 sec
 * total energy  :    92.9813923 Eh     change       -0.1870891E-03 Eh
   gradient norm :     0.0004359 Eh/α   predicted     0.3895170E-07 (-100.02%)
   displ. norm   :     0.0003090 α      lambda        0.2249614E-06
   maximum displ.:     0.0002177 α      in ANC's #33, #29, #39, ...

........................................................................
.............................. CYCLE  625 ..............................
........................................................................
     iter. time                 ...        0 min,  0.019 sec
 * total energy  :    92.9809884 Eh     change       -0.4039376E-03 Eh
   gradient norm :     0.0001329 Eh/α   predicted    -0.3504494E-07 ( -99.99%)
   displ. norm   :     0.0003090 α      lambda        0.0000000E+00
   maximum displ.:     0.0002177 α      in ANC's #33, #29, #39, ...

........................................................................
.............................. CYCLE  626 ..............................
........................................................................
     iter. time                 ...        0 min,  0.018 sec
 * total energy  :    92.9805846 Eh     change       -0.4037978E-03 Eh
   gradient norm :     0.0004520 Eh/α   predicted     0.4308824E-07 (-100.01%)
   displ. norm   :     0.0003178 α      lambda       -0.5587271E-07
   maximum displ.:     0.0002545 α      in ANC's #29, #33, #55, ...

........................................................................
.............................. CYCLE  627 ..............................
........................................................................
     iter. time                 ...        0 min,  0.018 sec
 * total energy  :    92.9809082 Eh     change        0.3235497E-03 Eh
   gradient norm :     0.0000527 Eh/α   predicted    -0.4682488E-07 (-100.01%)
   displ. norm   :     0.0003178 α      lambda        0.0000000E+00
   maximum displ.:     0.0002545 α      in ANC's #29, #33, #55, ...

........................................................................
.............................. CYCLE  628 ..............................
........................................................................
     iter. time                 ...        0 min,  0.018 sec
 * total energy  :    92.9812319 Eh     change        0.3236946E-03 Eh
   gradient norm :     0.0004356 Eh/α   predicted     0.4407781E-07 ( -99.99%)
   displ. norm   :     0.0003158 α      lambda       -0.6150749E-07
   maximum displ.:     0.0002244 α      in ANC's #29, #33, #39, ...

........................................................................
.............................. CYCLE  629 ..............................
........................................................................
     iter. time                 ...        0 min,  0.019 sec
 * total energy  :    92.9809146 Eh     change       -0.3172053E-03 Eh
   gradient norm :     0.0000195 Eh/α   predicted    -0.4464178E-07 ( -99.99%)
   displ. norm   :     0.0003158 α      lambda        0.0000000E+00
   maximum displ.:     0.0002244 α      in ANC's #29, #33, #39, ...

........................................................................
.............................. CYCLE  630 ..............................
........................................................................
     iter. time                 ...        0 min,  0.019 sec
 * total energy  :    92.9805976 Eh     change       -0.3170632E-03 Eh
   gradient norm :     0.0004341 Eh/α   predicted     0.4468128E-07 (-100.01%)
   displ. norm   :     0.0003168 α      lambda       -0.6122344E-07
   maximum displ.:     0.0002313 α      in ANC's #33, #29, #39, ...

........................................................................
.............................. CYCLE  631 ..............................
........................................................................
     iter. time                 ...        0 min,  0.019 sec
 * total energy  :    92.9808422 Eh     change        0.2446144E-03 Eh
   gradient norm :     0.0000224 Eh/α   predicted    -0.4464634E-07 (-100.02%)
   displ. norm   :     0.0003168 α      lambda        0.0000000E+00
   maximum displ.:     0.0002313 α      in ANC's #33, #29, #39, ...

........................................................................
.............................. CYCLE  632 ..............................
........................................................................
     iter. time                 ...        0 min,  0.018 sec
 * total energy  :    92.9810870 Eh     change        0.2447534E-03 Eh
   gradient norm :     0.0004302 Eh/α   predicted     0.4481203E-07 ( -99.98%)
   displ. norm   :     0.0002896 α      lambda        0.2686417E-06
   maximum displ.:     0.0002177 α      in ANC's #33, #29, #55, ...

........................................................................
.............................. CYCLE  633 ..............................
........................................................................
     iter. time                 ...        0 min,  0.019 sec
 * total energy  :    92.9815139 Eh     change        0.4269361E-03 Eh
   gradient norm :     0.0001395 Eh/α   predicted    -0.3433608E-07 (-100.01%)
   displ. norm   :     0.0002896 α      lambda        0.0000000E+00
   maximum displ.:     0.0002177 α      in ANC's #33, #29, #55, ...

........................................................................
.............................. CYCLE  634 ..............................
........................................................................
     iter. time                 ...        0 min,  0.018 sec
 * total energy  :    92.9819410 Eh     change        0.4270696E-03 Eh
   gradient norm :     0.0004604 Eh/α   predicted     0.4023769E-07 ( -99.99%)
   displ. norm   :     0.0002648 α      lambda        0.2394765E-06
   maximum displ.:     0.0001477 α      in ANC's #29, #55, #33, ...

........................................................................
.............................. CYCLE  635 ..............................
........................................................................
     iter. time                 ...        0 min,  0.018 sec
 * total energy  :    92.9827032 Eh     change        0.7622730E-03 Eh
   gradient norm :     0.0000940 Eh/α   predicted    -0.3292723E-07 (-100.00%)
   displ. norm   :     0.0002068 α      lambda        0.5460330E-07
   maximum displ.:     0.0001562 α      in ANC's #29, #39, #55, ...

........................................................................
.............................. CYCLE  636 ..............................
........................................................................
     iter. time                 ...        0 min,  0.018 sec
 * total energy  :    92.9827448 Eh     change        0.4159438E-04 Eh
   gradient norm :     0.0003426 Eh/α   predicted     0.2281105E-07 ( -99.95%)
   displ. norm   :     0.0002126 α      lambda        0.1380683E-06
   maximum displ.:     0.0001909 α      in ANC's #29, #39, #55, ...

........................................................................
.............................. CYCLE  637 ..............................
........................................................................
     iter. time                 ...        0 min,  0.018 sec
 * total energy  :    92.9827835 Eh     change        0.3864011E-04 Eh
   gradient norm :     0.0000289 Eh/α   predicted    -0.2304183E-07 (-100.06%)
   displ. norm   :     0.0001766 α      lambda        0.4808652E-07
   maximum displ.:     0.0001223 α      in ANC's #39, #29, #44, ...

........................................................................
.............................. CYCLE  638 ..............................
........................................................................
     iter. time                 ...        0 min,  0.019 sec
 * total energy  :    92.9828709 Eh     change        0.8741519E-04 Eh
   gradient norm :     0.0002576 Eh/α   predicted     0.1667844E-07 ( -99.98%)
   displ. norm   :     0.0001769 α      lambda       -0.1755586E-07
   maximum displ.:     0.0001179 α      in ANC's #39, #29, #44, ...

........................................................................
.............................. CYCLE  639 ..............................
........................................................................
     iter. time                 ...        0 min,  0.018 sec
 * total energy  :    92.9827471 Eh     change       -0.1238080E-03 Eh
   gradient norm :     0.0000195 Eh/α   predicted    -0.1492163E-07 ( -99.99%)
   displ. norm   :     0.0001618 α      lambda        0.2886137E-07
   maximum displ.:     0.0001200 α      in ANC's #39, #29, #44, ...

........................................................................
.............................. CYCLE  640 ..............................
........................................................................
     iter. time                 ...        0 min,  0.019 sec
 * total energy  :    92.9827590 Eh     change        0.1195172E-04 Eh
   gradient norm :     0.0002545 Eh/α   predicted     0.1361794E-07 ( -99.89%)
   displ. norm   :     0.0001519 α      lambda        0.8147707E-07
   maximum displ.:     0.0001133 α      in ANC's #39, #29, #55, ...

........................................................................
.............................. CYCLE  641 ..............................
........................................................................
     iter. time                 ...        0 min,  0.018 sec
 * total energy  :    92.9827386 Eh     change       -0.2041255E-04 Eh
   gradient norm :     0.0000933 Eh/α   predicted    -0.1045427E-07 ( -99.95%)
   displ. norm   :     0.0000720 α      lambda        0.1135443E-07
   maximum displ.:     0.0000457 α      in ANC's #55, #33, #39, ...

........................................................................
.............................. CYCLE  642 ..............................
........................................................................
     iter. time                 ...        0 min,  0.018 sec
 * total energy  :    92.9826392 Eh     change       -0.9944424E-04 Eh
   gradient norm :     0.0000501 Eh/α   predicted    -0.1357266E-08 (-100.00%)
   displ. norm   :     0.0000720 α      lambda        0.0000000E+00
   maximum displ.:     0.0000457 α      in ANC's #55, #33, #39, ...

........................................................................
.............................. CYCLE  643 ..............................
........................................................................
     iter. time                 ...        0 min,  0.018 sec
 * total energy  :    92.9825397 Eh     change       -0.9943739E-04 Eh
   gradient norm :     0.0001057 Eh/α   predicted     0.2269274E-08 (-100.00%)
   displ. norm   :     0.0000792 α      lambda        0.1193561E-07
   maximum displ.:     0.0000480 α      in ANC's #29, #39, #33, ...

........................................................................
.............................. CYCLE  644 ..............................
........................................................................
     iter. time                 ...        0 min,  0.018 sec
 * total energy  :    92.9822927 Eh     change       -0.2470467E-03 Eh
   gradient norm :     0.0000406 Eh/α   predicted    -0.1909398E-08 (-100.00%)
   displ. norm   :     0.0000792 α      lambda        0.0000000E+00
   maximum displ.:     0.0000480 α      in ANC's #29, #39, #33, ...

........................................................................
.............................. CYCLE  645 ..............................
........................................................................
     iter. time                 ...        0 min,  0.018 sec
 * total energy  :    92.9820456 Eh     change       -0.2470349E-03 Eh
   gradient norm :     0.0001011 Eh/α   predicted     0.2228063E-08 (-100.00%)
   displ. norm   :     0.0000853 α      lambda       -0.1444280E-08
   maximum displ.:     0.0000493 α      in ANC's #29, #39, #44, ...

........................................................................
.............................. CYCLE  646 ..............................
........................................................................
     iter. time                 ...        0 min,  0.018 sec
 * total energy  :    92.9824032 Eh     change        0.3575070E-03 Eh
   gradient norm :     0.0000360 Eh/α   predicted    -0.2295016E-08 (-100.00%)
   displ. norm   :     0.0000853 α      lambda        0.0000000E+00
   maximum displ.:     0.0000493 α      in ANC's #29, #39, #44, ...

........................................................................
.............................. CYCLE  647 ..............................
........................................................................
     iter. time                 ...        0 min,  0.018 sec
 * total energy  :    92.9827607 Eh     change        0.3575253E-03 Eh
   gradient norm :     0.0001101 Eh/α   predicted     0.3069639E-08 (-100.00%)
   displ. norm   :     0.0000909 α      lambda       -0.2150510E-08
   maximum displ.:     0.0000657 α      in ANC's #39, #33, #29, ...

........................................................................
.............................. CYCLE  648 ..............................
........................................................................
     iter. time                 ...        0 min,  0.018 sec
 * total energy  :    92.9827383 Eh     change       -0.2240722E-04 Eh
   gradient norm :     0.0000106 Eh/α   predicted    -0.3061954E-08 ( -99.99%)
   displ. norm   :     0.0000909 α      lambda        0.0000000E+00
   maximum displ.:     0.0000657 α      in ANC's #39, #33, #29, ...

........................................................................
.............................. CYCLE  649 ..............................
........................................................................
     iter. time                 ...        0 min,  0.018 sec
 * total energy  :    92.9827159 Eh     change       -0.2239675E-04 Eh
   gradient norm :     0.0001145 Eh/α   predicted     0.3492848E-08 (-100.02%)
   displ. norm   :     0.0000842 α      lambda       -0.1284865E-07
   maximum displ.:     0.0000595 α      in ANC's #39, #33, #29, ...

........................................................................
.............................. CYCLE  650 ..............................
........................................................................
     iter. time                 ...        0 min,  0.018 sec
 * total energy  :    92.9826239 Eh     change       -0.9200422E-04 Eh
   gradient norm :     0.0000344 Eh/α   predicted    -0.2878446E-08 (-100.00%)
   displ. norm   :     0.0001128 α      lambda        0.1028200E-07
   maximum displ.:     0.0000603 α      in ANC's #44, #56, #55, ...

........................................................................
.............................. CYCLE  651 ..............................
........................................................................
     iter. time                 ...        0 min,  0.018 sec
 * total energy  :    92.9830175 Eh     change        0.3936455E-03 Eh
   gradient norm :     0.0001172 Eh/α   predicted     0.8460862E-08 (-100.00%)
   displ. norm   :     0.0001128 α      lambda        0.0000000E+00
   maximum displ.:     0.0000603 α      in ANC's #44, #56, #55, ...

........................................................................
.............................. CYCLE  652 ..............................
........................................................................
     iter. time                 ...        0 min,  0.018 sec
 * total energy  :    92.9834112 Eh     change        0.3937141E-03 Eh
   gradient norm :     0.0002013 Eh/α   predicted     0.8293378E-08 (-100.00%)
   displ. norm   :     0.0001128 α      lambda        0.0000000E+00
   maximum displ.:     0.0000603 α      in ANC's #44, #56, #55, ...

........................................................................
.............................. CYCLE  653 ..............................
........................................................................
     iter. time                 ...        0 min,  0.018 sec
 * total energy  :    92.9838050 Eh     change        0.3937828E-03 Eh
   gradient norm :     0.0002856 Eh/α   predicted     0.1242564E-07 (-100.00%)
   displ. norm   :     0.0001128 α      lambda        0.0000000E+00
   maximum displ.:     0.0000603 α      in ANC's #44, #56, #55, ...

........................................................................
.............................. CYCLE  654 ..............................
........................................................................
     iter. time                 ...        0 min,  0.018 sec
 * total energy  :    92.9841989 Eh     change        0.3938514E-03 Eh
   gradient norm :     0.0003699 Eh/α   predicted     0.1655764E-07 (-100.00%)
   displ. norm   :     0.0001128 α      lambda        0.0000000E+00
   maximum displ.:     0.0000603 α      in ANC's #44, #56, #55, ...

........................................................................
.............................. CYCLE  655 ..............................
........................................................................
     iter. time                 ...        0 min,  0.018 sec
 * total energy  :    92.9845928 Eh     change        0.3939200E-03 Eh
   gradient norm :     0.0004542 Eh/α   predicted     0.2068937E-07 ( -99.99%)
   displ. norm   :     0.0001128 α      lambda        0.0000000E+00
   maximum displ.:     0.0000603 α      in ANC's #44, #56, #55, ...

........................................................................
.............................. CYCLE  656 ..............................
........................................................................
     iter. time                 ...        0 min,  0.018 sec
 * total energy  :    92.9849868 Eh     change        0.3939887E-03 Eh
   gradient norm :     0.0005386 Eh/α   predicted     0.2482083E-07 ( -99.99%)
   displ. norm   :     0.0001128 α      lambda        0.0000000E+00
   maximum displ.:     0.0000603 α      in ANC's #44, #56, #55, ...

........................................................................
.............................. CYCLE  657 ..............................
........................................................................
     iter. time                 ...        0 min,  0.018 sec
 * total energy  :    92.9853808 Eh     change        0.3940573E-03 Eh
   gradient norm :     0.0006229 Eh/α   predicted     0.2895201E-07 ( -99.99%)
   displ. norm   :     0.0001128 α      lambda        0.0000000E+00
   maximum displ.:     0.0000603 α      in ANC's #44, #56, #55, ...

........................................................................
.............................. CYCLE  658 ..............................
........................................................................
     iter. time                 ...        0 min,  0.018 sec
 * total energy  :    92.9857750 Eh     change        0.3941259E-03 Eh
   gradient norm :     0.0007073 Eh/α   predicted     0.3308293E-07 ( -99.99%)
   displ. norm   :     0.0001128 α      lambda        0.0000000E+00
   maximum displ.:     0.0000603 α      in ANC's #44, #56, #55, ...
 * RMSD in coord.:     0.0000726 α      energy gain   0.4297449E-02 Eh

generating ANC from exact Hessian ...
Using GFN-FF Lindh-Hessian
 Shifting diagonal of input Hessian by    1.1760342182735412E-002
 Lowest  eigenvalues of input Hessian
    0.010000    0.010024    0.011313    0.011326    0.011388    0.011596
    0.011648    0.011661    0.011674    0.011680    0.011684    0.011688
    0.011692    0.011695    0.011697    0.011702    0.011705    0.011709
 Highest eigenvalues
   16.789888   35.714773   42.063605  103.143206  132.795129  211.514483


........................................................................
.............................. CYCLE  659 ..............................
........................................................................
     iter. time                 ...        0 min,  0.018 sec
 * total energy  :    92.9861692 Eh     change        0.3941946E-03 Eh
   gradient norm :     0.0008050 Eh/α   predicted     0.0000000E+00 (-100.00%)
   displ. norm   :     0.0003812 α      lambda        0.7568776E-06
   maximum displ.:     0.0002847 α      in ANC's #55, #44, #29, ...

........................................................................
.............................. CYCLE  660 ..............................
........................................................................
     iter. time                 ...        0 min,  0.018 sec
 * total energy  :    92.9861162 Eh     change       -0.5293861E-04 Eh
   gradient norm :     0.0003462 Eh/α   predicted    -0.1010265E-06 ( -99.81%)
   displ. norm   :     0.0002517 α      lambda       -0.4604915E-07
   maximum displ.:     0.0001758 α      in ANC's #44, #55, #21, ...

........................................................................
.............................. CYCLE  661 ..............................
........................................................................
     iter. time                 ...        0 min,  0.019 sec
 * total energy  :    92.9860677 Eh     change       -0.4851991E-04 Eh
   gradient norm :     0.0001158 Eh/α   predicted    -0.3204313E-07 ( -99.93%)
   displ. norm   :     0.0001531 α      lambda        0.3531673E-07
   maximum displ.:     0.0001220 α      in ANC's #55, #44, #29, ...

........................................................................
.............................. CYCLE  662 ..............................
........................................................................
     iter. time                 ...        0 min,  0.018 sec
 * total energy  :    92.9860839 Eh     change        0.1622795E-04 Eh
   gradient norm :     0.0002654 Eh/α   predicted     0.1137600E-07 ( -99.93%)
   displ. norm   :     0.0001643 α      lambda        0.6491935E-07
   maximum displ.:     0.0000886 α      in ANC's #39, #29, #55, ...

........................................................................
.............................. CYCLE  663 ..............................
........................................................................
     iter. time                 ...        0 min,  0.019 sec
 * total energy  :    92.9860718 Eh     change       -0.1209373E-04 Eh
   gradient norm :     0.0001146 Eh/α   predicted    -0.7923964E-08 ( -99.93%)
   displ. norm   :     0.0001643 α      lambda        0.0000000E+00
   maximum displ.:     0.0000886 α      in ANC's #39, #29, #55, ...

........................................................................
.............................. CYCLE  664 ..............................
........................................................................
     iter. time                 ...        0 min,  0.019 sec
 * total energy  :    92.9860598 Eh     change       -0.1205073E-04 Eh
   gradient norm :     0.0003098 Eh/α   predicted     0.1824544E-07 (-100.15%)
   displ. norm   :     0.0002030 α      lambda        0.9369962E-07
   maximum displ.:     0.0001219 α      in ANC's #39, #44, #29, ...

........................................................................
.............................. CYCLE  665 ..............................
........................................................................
     iter. time                 ...        0 min,  0.019 sec
 * total energy  :    92.9859793 Eh     change       -0.8046979E-04 Eh
   gradient norm :     0.0000596 Eh/α   predicted    -0.2097167E-07 ( -99.97%)
   displ. norm   :     0.0002030 α      lambda        0.0000000E+00
   maximum displ.:     0.0001219 α      in ANC's #39, #44, #29, ...

........................................................................
.............................. CYCLE  666 ..............................
........................................................................
     iter. time                 ...        0 min,  0.018 sec
 * total energy  :    92.9858989 Eh     change       -0.8040812E-04 Eh
   gradient norm :     0.0003152 Eh/α   predicted     0.1933123E-07 (-100.02%)
   displ. norm   :     0.0002006 α      lambda        0.1197902E-06
   maximum displ.:     0.0001572 α      in ANC's #55, #39, #29, ...

........................................................................
.............................. CYCLE  667 ..............................
........................................................................
     iter. time                 ...        0 min,  0.018 sec
 * total energy  :    92.9856915 Eh     change       -0.2073871E-03 Eh
   gradient norm :     0.0001320 Eh/α   predicted    -0.1404790E-07 ( -99.99%)
   displ. norm   :     0.0002006 α      lambda        0.0000000E+00
   maximum displ.:     0.0001572 α      in ANC's #55, #39, #29, ...

........................................................................
.............................. CYCLE  668 ..............................
........................................................................
     iter. time                 ...        0 min,  0.018 sec
 * total energy  :    92.9854842 Eh     change       -0.2073200E-03 Eh
   gradient norm :     0.0003790 Eh/α   predicted     0.2668444E-07 (-100.01%)
   displ. norm   :     0.0002398 α      lambda        0.1375549E-06
   maximum displ.:     0.0001956 α      in ANC's #55, #44, #29, ...

........................................................................
.............................. CYCLE  669 ..............................
........................................................................
     iter. time                 ...        0 min,  0.018 sec
 * total energy  :    92.9850514 Eh     change       -0.4327492E-03 Eh
   gradient norm :     0.0000597 Eh/α   predicted    -0.2532478E-07 ( -99.99%)
   displ. norm   :     0.0002398 α      lambda        0.0000000E+00
   maximum displ.:     0.0001956 α      in ANC's #55, #44, #29, ...

........................................................................
.............................. CYCLE  670 ..............................
........................................................................
     iter. time                 ...        0 min,  0.018 sec
 * total energy  :    92.9846188 Eh     change       -0.4326558E-03 Eh
   gradient norm :     0.0002998 Eh/α   predicted     0.1871771E-07 (-100.00%)
   displ. norm   :     0.0002052 α      lambda       -0.6447181E-09
   maximum displ.:     0.0001691 α      in ANC's #55, #44, #29, ...

........................................................................
.............................. CYCLE  671 ..............................
........................................................................
     iter. time                 ...        0 min,  0.018 sec
 * total energy  :    92.9849224 Eh     change        0.3036566E-03 Eh
   gradient norm :     0.0000417 Eh/α   predicted    -0.1921649E-07 (-100.01%)
   displ. norm   :     0.0002052 α      lambda        0.0000000E+00
   maximum displ.:     0.0001691 α      in ANC's #55, #44, #29, ...

........................................................................
.............................. CYCLE  672 ..............................
........................................................................
     iter. time                 ...        0 min,  0.019 sec
 * total energy  :    92.9852262 Eh     change        0.3037229E-03 Eh
   gradient norm :     0.0002952 Eh/α   predicted     0.1902572E-07 ( -99.99%)
   displ. norm   :     0.0002063 α      lambda       -0.1817082E-07
   maximum displ.:     0.0001736 α      in ANC's #55, #44, #29, ...

........................................................................
.............................. CYCLE  673 ..............................
........................................................................
     iter. time                 ...        0 min,  0.018 sec
 * total energy  :    92.9849132 Eh     change       -0.3129567E-03 Eh
   gradient norm :     0.0000165 Eh/α   predicted    -0.1935161E-07 ( -99.99%)
   displ. norm   :     0.0002063 α      lambda        0.0000000E+00
   maximum displ.:     0.0001736 α      in ANC's #55, #44, #29, ...

........................................................................
.............................. CYCLE  674 ..............................
........................................................................
     iter. time                 ...        0 min,  0.018 sec
 * total energy  :    92.9846003 Eh     change       -0.3128888E-03 Eh
   gradient norm :     0.0002982 Eh/α   predicted     0.1903815E-07 (-100.01%)
   displ. norm   :     0.0002018 α      lambda       -0.1411095E-07
   maximum displ.:     0.0001749 α      in ANC's #55, #29, #44, ...

........................................................................
.............................. CYCLE  675 ..............................
........................................................................
     iter. time                 ...        0 min,  0.018 sec
 * total energy  :    92.9848208 Eh     change        0.2204648E-03 Eh
   gradient norm :     0.0000244 Eh/α   predicted    -0.1895541E-07 (-100.01%)
   displ. norm   :     0.0002018 α      lambda        0.0000000E+00
   maximum displ.:     0.0001749 α      in ANC's #55, #29, #44, ...

........................................................................
.............................. CYCLE  676 ..............................
........................................................................
     iter. time                 ...        0 min,  0.018 sec
 * total energy  :    92.9850413 Eh     change        0.2205277E-03 Eh
   gradient norm :     0.0002932 Eh/α   predicted     0.1895659E-07 ( -99.99%)
   displ. norm   :     0.0001770 α      lambda        0.1138256E-06
   maximum displ.:     0.0001277 α      in ANC's #55, #39, #29, ...

........................................................................
.............................. CYCLE  677 ..............................
........................................................................
     iter. time                 ...        0 min,  0.018 sec
 * total energy  :    92.9854327 Eh     change        0.3913917E-03 Eh
   gradient norm :     0.0000847 Eh/α   predicted    -0.1142173E-07 (-100.00%)
   displ. norm   :     0.0001770 α      lambda        0.0000000E+00
   maximum displ.:     0.0001277 α      in ANC's #55, #39, #29, ...

........................................................................
.............................. CYCLE  678 ..............................
........................................................................
     iter. time                 ...        0 min,  0.018 sec
 * total energy  :    92.9858242 Eh     change        0.3914518E-03 Eh
   gradient norm :     0.0002581 Eh/α   predicted     0.1152537E-07 (-100.00%)
   displ. norm   :     0.0001544 α      lambda       -0.6400640E-09
   maximum displ.:     0.0001118 α      in ANC's #55, #39, #29, ...

........................................................................
.............................. CYCLE  679 ..............................
........................................................................
     iter. time                 ...        0 min,  0.018 sec
 * total energy  :    92.9855708 Eh     change       -0.2533143E-03 Eh
   gradient norm :     0.0000705 Eh/α   predicted    -0.1192045E-07 (-100.00%)
   displ. norm   :     0.0001544 α      lambda        0.0000000E+00
   maximum displ.:     0.0001118 α      in ANC's #55, #39, #29, ...

........................................................................
.............................. CYCLE  680 ..............................
........................................................................
     iter. time                 ...        0 min,  0.019 sec
 * total energy  :    92.9853176 Eh     change       -0.2532712E-03 Eh
   gradient norm :     0.0002470 Eh/α   predicted     0.1140906E-07 (-100.00%)
   displ. norm   :     0.0001620 α      lambda        0.6972444E-07
   maximum displ.:     0.0001114 α      in ANC's #55, #11, #44, ...

........................................................................
.............................. CYCLE  681 ..............................
........................................................................
     iter. time                 ...        0 min,  0.018 sec
 * total energy  :    92.9847985 Eh     change       -0.5190750E-03 Eh
   gradient norm :     0.0000649 Eh/α   predicted    -0.7332658E-08 (-100.00%)
   displ. norm   :     0.0001620 α      lambda        0.0000000E+00
   maximum displ.:     0.0001114 α      in ANC's #55, #11, #44, ...

........................................................................
.............................. CYCLE  682 ..............................
........................................................................
     iter. time                 ...        0 min,  0.018 sec
 * total energy  :    92.9842795 Eh     change       -0.5190189E-03 Eh
   gradient norm :     0.0001301 Eh/α   predicted     0.2456828E-08 (-100.00%)
   displ. norm   :     0.0001620 α      lambda        0.0000000E+00
   maximum displ.:     0.0001114 α      in ANC's #55, #11, #44, ...

........................................................................
.............................. CYCLE  683 ..............................
........................................................................
     iter. time                 ...        0 min,  0.018 sec
 * total energy  :    92.9837605 Eh     change       -0.5189628E-03 Eh
   gradient norm :     0.0003150 Eh/α   predicted     0.1779814E-07 (-100.00%)
   displ. norm   :     0.0002476 α      lambda       -0.9453991E-08
   maximum displ.:     0.0001930 α      in ANC's #55, #11, #29, ...

........................................................................
.............................. CYCLE  684 ..............................
........................................................................
     iter. time                 ...        0 min,  0.018 sec
 * total energy  :    92.9843484 Eh     change        0.5879128E-03 Eh
   gradient norm :     0.0000422 Eh/α   predicted    -0.2065296E-07 (-100.00%)
   displ. norm   :     0.0002476 α      lambda        0.0000000E+00
   maximum displ.:     0.0001930 α      in ANC's #55, #11, #29, ...

........................................................................
.............................. CYCLE  685 ..............................
........................................................................
     iter. time                 ...        0 min,  0.018 sec
 * total energy  :    92.9849365 Eh     change        0.5880266E-03 Eh
   gradient norm :     0.0002952 Eh/α   predicted     0.2024009E-07 (-100.00%)
   displ. norm   :     0.0002434 α      lambda        0.6671854E-08
   maximum displ.:     0.0001807 α      in ANC's #55, #11, #44, ...

........................................................................
.............................. CYCLE  686 ..............................
........................................................................
     iter. time                 ...        0 min,  0.019 sec
 * total energy  :    92.9841848 Eh     change       -0.7516319E-03 Eh
   gradient norm :     0.0000654 Eh/α   predicted    -0.1919756E-07 (-100.00%)
   displ. norm   :     0.0002421 α      lambda        0.3956319E-07
   maximum displ.:     0.0001802 α      in ANC's #55, #11, #44, ...

........................................................................
.............................. CYCLE  687 ..............................
........................................................................
     iter. time                 ...        0 min,  0.018 sec
 * total energy  :    92.9834440 Eh     change       -0.7407947E-03 Eh
   gradient norm :     0.0003132 Eh/α   predicted     0.1977758E-07 (-100.00%)
   displ. norm   :     0.0002314 α      lambda        0.5368378E-08
   maximum displ.:     0.0001709 α      in ANC's #55, #44, #29, ...

........................................................................
.............................. CYCLE  688 ..............................
........................................................................
     iter. time                 ...        0 min,  0.018 sec
 * total energy  :    92.9840671 Eh     change        0.6230326E-03 Eh
   gradient norm :     0.0000484 Eh/α   predicted    -0.2027197E-07 (-100.00%)
   displ. norm   :     0.0001820 α      lambda        0.3911990E-07
   maximum displ.:     0.0001535 α      in ANC's #55, #29, #39, ...

........................................................................
.............................. CYCLE  689 ..............................
........................................................................
     iter. time                 ...        0 min,  0.018 sec
 * total energy  :    92.9841949 Eh     change        0.1278353E-03 Eh
   gradient norm :     0.0002885 Eh/α   predicted     0.1789264E-07 ( -99.99%)
   displ. norm   :     0.0001835 α      lambda        0.1012679E-06
   maximum displ.:     0.0001392 α      in ANC's #55, #39, #29, ...

........................................................................
.............................. CYCLE  690 ..............................
........................................................................
     iter. time                 ...        0 min,  0.018 sec
 * total energy  :    92.9844046 Eh     change        0.2097427E-03 Eh
   gradient norm :     0.0000514 Eh/α   predicted    -0.1604343E-07 (-100.01%)
   displ. norm   :     0.0001982 α      lambda        0.3583565E-07
   maximum displ.:     0.0001502 α      in ANC's #55, #39, #29, ...

........................................................................
.............................. CYCLE  691 ..............................
........................................................................
     iter. time                 ...        0 min,  0.019 sec
 * total energy  :    92.9849081 Eh     change        0.5034304E-03 Eh
   gradient norm :     0.0002755 Eh/α   predicted     0.1617698E-07 (-100.00%)
   displ. norm   :     0.0001840 α      lambda       -0.7271812E-08
   maximum displ.:     0.0001474 α      in ANC's #55, #39, #29, ...

........................................................................
.............................. CYCLE  692 ..............................
........................................................................
     iter. time                 ...        0 min,  0.018 sec
 * total energy  :    92.9845699 Eh     change       -0.3382107E-03 Eh
   gradient norm :     0.0000595 Eh/α   predicted    -0.1482355E-07 (-100.00%)
   displ. norm   :     0.0002082 α      lambda        0.2987491E-07
   maximum displ.:     0.0001397 α      in ANC's #55, #39, #11, ...

........................................................................
.............................. CYCLE  693 ..............................
........................................................................
     iter. time                 ...        0 min,  0.019 sec
 * total energy  :    92.9839515 Eh     change       -0.6183666E-03 Eh
   gradient norm :     0.0002664 Eh/α   predicted     0.1459086E-07 (-100.00%)
   displ. norm   :     0.0001961 α      lambda       -0.5278400E-08
   maximum displ.:     0.0001466 α      in ANC's #55, #39, #21, ...

........................................................................
.............................. CYCLE  694 ..............................
........................................................................
     iter. time                 ...        0 min,  0.018 sec
 * total energy  :    92.9844066 Eh     change        0.4551304E-03 Eh
   gradient norm :     0.0000292 Eh/α   predicted    -0.1507545E-07 (-100.00%)
   displ. norm   :     0.0001665 α      lambda        0.3019439E-07
   maximum displ.:     0.0001364 α      in ANC's #55, #39, #29, ...

........................................................................
.............................. CYCLE  695 ..............................
........................................................................
     iter. time                 ...        0 min,  0.018 sec
 * total energy  :    92.9845349 Eh     change        0.1282873E-03 Eh
   gradient norm :     0.0002576 Eh/α   predicted     0.1430773E-07 ( -99.99%)
   displ. norm   :     0.0001575 α      lambda        0.8153149E-07
   maximum displ.:     0.0001193 α      in ANC's #55, #39, #29, ...

........................................................................
.............................. CYCLE  696 ..............................
........................................................................
     iter. time                 ...        0 min,  0.018 sec
 * total energy  :    92.9847441 Eh     change        0.2091588E-03 Eh
   gradient norm :     0.0000504 Eh/α   predicted    -0.1164109E-07 (-100.01%)
   displ. norm   :     0.0001703 α      lambda        0.2392211E-07
   maximum displ.:     0.0001224 α      in ANC's #55, #39, #29, ...

........................................................................
.............................. CYCLE  697 ..............................
........................................................................
     iter. time                 ...        0 min,  0.018 sec
 * total energy  :    92.9850873 Eh     change        0.3432002E-03 Eh
   gradient norm :     0.0002503 Eh/α   predicted     0.1251623E-07 (-100.00%)
   displ. norm   :     0.0001612 α      lambda       -0.1032180E-07
   maximum displ.:     0.0001148 α      in ANC's #55, #44, #39, ...

........................................................................
.............................. CYCLE  698 ..............................
........................................................................
     iter. time                 ...        0 min,  0.018 sec
 * total energy  :    92.9849322 Eh     change       -0.1550195E-03 Eh
   gradient norm :     0.0000675 Eh/α   predicted    -0.1138609E-07 ( -99.99%)
   displ. norm   :     0.0001850 α      lambda        0.2653917E-07
   maximum displ.:     0.0001096 α      in ANC's #55, #11, #39, ...
 * RMSD in coord.:     0.0000486 α      energy gain  -0.8427091E-03 Eh

generating ANC from exact Hessian ...
Using GFN-FF Lindh-Hessian
 Shifting diagonal of input Hessian by    1.1760342871778823E-002
 Lowest  eigenvalues of input Hessian
    0.010000    0.010024    0.011313    0.011326    0.011388    0.011596
    0.011648    0.011661    0.011674    0.011680    0.011684    0.011688
    0.011692    0.011695    0.011697    0.011702    0.011705    0.011709
 Highest eigenvalues
   16.791127   35.713314   42.063641  103.239975  132.786593  211.531113


........................................................................
.............................. CYCLE  699 ..............................
........................................................................
     iter. time                 ...        0 min,  0.019 sec
 * total energy  :    92.9845120 Eh     change       -0.4202851E-03 Eh
   gradient norm :     0.0004667 Eh/α   predicted     0.0000000E+00 (-100.00%)
   displ. norm   :     0.0002250 α      lambda        0.2423121E-06
   maximum displ.:     0.0001713 α      in ANC's #55, #29, #39, ...

........................................................................
.............................. CYCLE  700 ..............................
........................................................................
     iter. time                 ...        0 min,  0.018 sec
 * total energy  :    92.9844548 Eh     change       -0.5718944E-04 Eh
   gradient norm :     0.0001215 Eh/α   predicted    -0.3435920E-07 ( -99.94%)
   displ. norm   :     0.0000850 α      lambda        0.1970996E-07
   maximum displ.:     0.0000599 α      in ANC's #55, #29, #39, ...

........................................................................
.............................. CYCLE  701 ..............................
........................................................................
     iter. time                 ...        0 min,  0.019 sec
 * total energy  :    92.9844680 Eh     change        0.1322827E-04 Eh
   gradient norm :     0.0001026 Eh/α   predicted    -0.9071658E-09 (-100.01%)
   displ. norm   :     0.0000850 α      lambda        0.0000000E+00
   maximum displ.:     0.0000599 α      in ANC's #55, #29, #39, ...

........................................................................
.............................. CYCLE  702 ..............................
........................................................................
     iter. time                 ...        0 min,  0.018 sec
 * total energy  :    92.9844812 Eh     change        0.1324046E-04 Eh
   gradient norm :     0.0002182 Eh/α   predicted     0.7022673E-08 ( -99.95%)
   displ. norm   :     0.0000850 α      lambda        0.0000000E+00
   maximum displ.:     0.0000599 α      in ANC's #55, #29, #39, ...

........................................................................
.............................. CYCLE  703 ..............................
........................................................................
     iter. time                 ...        0 min,  0.018 sec
 * total energy  :    92.9844945 Eh     change        0.1325264E-04 Eh
   gradient norm :     0.0003550 Eh/α   predicted     0.1513089E-07 ( -99.89%)
   displ. norm   :     0.0002038 α      lambda        0.4647690E-07
   maximum displ.:     0.0001173 α      in ANC's #39, #29, #55, ...

........................................................................
.............................. CYCLE  704 ..............................
........................................................................
     iter. time                 ...        0 min,  0.019 sec
 * total energy  :    92.9844800 Eh     change       -0.1453451E-04 Eh
   gradient norm :     0.0000184 Eh/α   predicted    -0.2385455E-07 ( -99.84%)
   displ. norm   :     0.0002038 α      lambda        0.0000000E+00
   maximum displ.:     0.0001173 α      in ANC's #39, #29, #55, ...

........................................................................
.............................. CYCLE  705 ..............................
........................................................................
     iter. time                 ...        0 min,  0.018 sec
 * total energy  :    92.9844655 Eh     change       -0.1446432E-04 Eh
   gradient norm :     0.0003371 Eh/α   predicted     0.2200102E-07 (-100.15%)
   displ. norm   :     0.0001932 α      lambda        0.1375286E-06
   maximum displ.:     0.0001180 α      in ANC's #29, #39, #55, ...

........................................................................
.............................. CYCLE  706 ..............................
........................................................................
     iter. time                 ...        0 min,  0.019 sec
 * total energy  :    92.9843845 Eh     change       -0.8095640E-04 Eh
   gradient norm :     0.0000586 Eh/α   predicted    -0.2008405E-07 ( -99.98%)
   displ. norm   :     0.0001932 α      lambda        0.0000000E+00
   maximum displ.:     0.0001180 α      in ANC's #29, #39, #55, ...

........................................................................
.............................. CYCLE  707 ..............................
........................................................................
     iter. time                 ...        0 min,  0.018 sec
 * total energy  :    92.9843036 Eh     change       -0.8089186E-04 Eh
   gradient norm :     0.0003368 Eh/α   predicted     0.2144193E-07 (-100.03%)
   displ. norm   :     0.0001952 α      lambda        0.1280597E-06
   maximum displ.:     0.0001227 α      in ANC's #29, #39, #55, ...

........................................................................
.............................. CYCLE  708 ..............................
........................................................................
     iter. time                 ...        0 min,  0.018 sec
 * total energy  :    92.9840879 Eh     change       -0.2157573E-03 Eh
   gradient norm :     0.0000274 Eh/α   predicted    -0.2084026E-07 ( -99.99%)
   displ. norm   :     0.0001952 α      lambda        0.0000000E+00
   maximum displ.:     0.0001227 α      in ANC's #29, #39, #55, ...

........................................................................
.............................. CYCLE  709 ..............................
........................................................................
     iter. time                 ...        0 min,  0.018 sec
 * total energy  :    92.9838722 Eh     change       -0.2156910E-03 Eh
   gradient norm :     0.0003115 Eh/α   predicted     0.1847882E-07 (-100.01%)
   displ. norm   :     0.0001714 α      lambda        0.1190835E-06
   maximum displ.:     0.0001070 α      in ANC's #29, #39, #55, ...

........................................................................
.............................. CYCLE  710 ..............................
........................................................................
     iter. time                 ...        0 min,  0.018 sec
 * total energy  :    92.9833955 Eh     change       -0.4766688E-03 Eh
   gradient norm :     0.0000828 Eh/α   predicted    -0.1078900E-07 (-100.00%)
   displ. norm   :     0.0000877 α      lambda        0.1512770E-07
   maximum displ.:     0.0000580 α      in ANC's #29, #39, #44, ...

........................................................................
.............................. CYCLE  711 ..............................
........................................................................
     iter. time                 ...        0 min,  0.018 sec
 * total energy  :    92.9834116 Eh     change        0.1602765E-04 Eh
   gradient norm :     0.0001285 Eh/α   predicted     0.3734250E-08 ( -99.98%)
   displ. norm   :     0.0000877 α      lambda        0.0000000E+00
   maximum displ.:     0.0000580 α      in ANC's #29, #39, #44, ...

........................................................................
.............................. CYCLE  712 ..............................
........................................................................
     iter. time                 ...        0 min,  0.018 sec
 * total energy  :    92.9834276 Eh     change        0.1603995E-04 Eh
   gradient norm :     0.0002575 Eh/α   predicted     0.1082037E-07 ( -99.93%)
   displ. norm   :     0.0001692 α      lambda        0.3797408E-07
   maximum displ.:     0.0001005 α      in ANC's #29, #44, #39, ...

........................................................................
.............................. CYCLE  713 ..............................
........................................................................
     iter. time                 ...        0 min,  0.018 sec
 * total energy  :    92.9834170 Eh     change       -0.1060904E-04 Eh
   gradient norm :     0.0000404 Eh/α   predicted    -0.1454271E-07 ( -99.86%)
   displ. norm   :     0.0001692 α      lambda        0.0000000E+00
   maximum displ.:     0.0001005 α      in ANC's #29, #44, #39, ...

........................................................................
.............................. CYCLE  714 ..............................
........................................................................
     iter. time                 ...        0 min,  0.018 sec
 * total energy  :    92.9834064 Eh     change       -0.1056618E-04 Eh
   gradient norm :     0.0002643 Eh/α   predicted     0.1373083E-07 (-100.13%)
   displ. norm   :     0.0001554 α      lambda        0.8438555E-07
   maximum displ.:     0.0000987 α      in ANC's #29, #55, #39, ...

........................................................................
.............................. CYCLE  715 ..............................
........................................................................
     iter. time                 ...        0 min,  0.018 sec
 * total energy  :    92.9833295 Eh     change       -0.7693447E-04 Eh
   gradient norm :     0.0000851 Eh/α   predicted    -0.1062535E-07 ( -99.99%)
   displ. norm   :     0.0001705 α      lambda        0.3047653E-07
   maximum displ.:     0.0000975 α      in ANC's #29, #44, #39, ...

........................................................................
.............................. CYCLE  716 ..............................
........................................................................
     iter. time                 ...        0 min,  0.019 sec
 * total energy  :    92.9830837 Eh     change       -0.2458210E-03 Eh
   gradient norm :     0.0002554 Eh/α   predicted     0.1126247E-07 (-100.00%)
   displ. norm   :     0.0001414 α      lambda       -0.1100745E-07
   maximum displ.:     0.0000857 α      in ANC's #29, #55, #39, ...

........................................................................
.............................. CYCLE  717 ..............................
........................................................................
     iter. time                 ...        0 min,  0.018 sec
 * total energy  :    92.9830290 Eh     change       -0.5467922E-04 Eh
   gradient norm :     0.0000414 Eh/α   predicted    -0.1161535E-07 ( -99.98%)
   displ. norm   :     0.0000978 α      lambda        0.1943691E-07
   maximum displ.:     0.0000755 α      in ANC's #44, #29, #39, ...

........................................................................
.............................. CYCLE  718 ..............................
........................................................................
     iter. time                 ...        0 min,  0.018 sec
 * total energy  :    92.9832190 Eh     change        0.1900121E-03 Eh
   gradient norm :     0.0001365 Eh/α   predicted     0.5236360E-08 (-100.00%)
   displ. norm   :     0.0001066 α      lambda        0.2512208E-07
   maximum displ.:     0.0000935 α      in ANC's #44, #29, #55, ...

........................................................................
.............................. CYCLE  719 ..............................
........................................................................
     iter. time                 ...        0 min,  0.018 sec
 * total energy  :    92.9835519 Eh     change        0.3329026E-03 Eh
   gradient norm :     0.0000333 Eh/α   predicted    -0.3298486E-08 (-100.00%)
   displ. norm   :     0.0001066 α      lambda        0.0000000E+00
   maximum displ.:     0.0000935 α      in ANC's #44, #29, #55, ...

........................................................................
.............................. CYCLE  720 ..............................
........................................................................
     iter. time                 ...        0 min,  0.019 sec
 * total energy  :    92.9838848 Eh     change        0.3329213E-03 Eh
   gradient norm :     0.0000963 Eh/α   predicted     0.2707665E-08 (-100.00%)
   displ. norm   :     0.0000999 α      lambda        0.9394765E-09
   maximum displ.:     0.0000830 α      in ANC's #44, #11, #29, ...

........................................................................
.............................. CYCLE  721 ..............................
........................................................................
     iter. time                 ...        0 min,  0.019 sec
 * total energy  :    92.9835322 Eh     change       -0.3526080E-03 Eh
   gradient norm :     0.0000248 Eh/α   predicted    -0.2834874E-08 (-100.00%)
   displ. norm   :     0.0000999 α      lambda        0.0000000E+00
   maximum displ.:     0.0000830 α      in ANC's #44, #11, #29, ...

........................................................................
.............................. CYCLE  722 ..............................
........................................................................
     iter. time                 ...        0 min,  0.018 sec
 * total energy  :    92.9831796 Eh     change       -0.3525897E-03 Eh
   gradient norm :     0.0001088 Eh/α   predicted     0.2816886E-08 (-100.00%)
   displ. norm   :     0.0000824 α      lambda        0.4212038E-09
   maximum displ.:     0.0000765 α      in ANC's #44, #29, #55, ...

........................................................................
.............................. CYCLE  723 ..............................
........................................................................
     iter. time                 ...        0 min,  0.018 sec
 * total energy  :    92.9832752 Eh     change        0.9561920E-04 Eh
   gradient norm :     0.0000231 Eh/α   predicted    -0.2836593E-08 (-100.00%)
   displ. norm   :     0.0000824 α      lambda        0.0000000E+00
   maximum displ.:     0.0000765 α      in ANC's #44, #29, #55, ...

........................................................................
.............................. CYCLE  724 ..............................
........................................................................
     iter. time                 ...        0 min,  0.018 sec
 * total energy  :    92.9833709 Eh     change        0.9562768E-04 Eh
   gradient norm :     0.0000858 Eh/α   predicted     0.2039405E-08 (-100.00%)
   displ. norm   :     0.0000698 α      lambda        0.1301882E-07
   maximum displ.:     0.0000627 α      in ANC's #44, #55, #21, ...

........................................................................
.............................. CYCLE  725 ..............................
........................................................................
     iter. time                 ...        0 min,  0.019 sec
 * total energy  :    92.9835202 Eh     change        0.1493281E-03 Eh
   gradient norm :     0.0000195 Eh/α   predicted    -0.1594175E-08 (-100.00%)
   displ. norm   :     0.0000698 α      lambda        0.0000000E+00
   maximum displ.:     0.0000627 α      in ANC's #44, #55, #21, ...

........................................................................
.............................. CYCLE  726 ..............................
........................................................................
     iter. time                 ...        0 min,  0.018 sec
 * total energy  :    92.9836695 Eh     change        0.1493348E-03 Eh
   gradient norm :     0.0000721 Eh/α   predicted     0.1527155E-08 (-100.00%)
   displ. norm   :     0.0000698 α      lambda        0.0000000E+00
   maximum displ.:     0.0000627 α      in ANC's #44, #55, #21, ...

........................................................................
.............................. CYCLE  727 ..............................
........................................................................
     iter. time                 ...        0 min,  0.019 sec
 * total energy  :    92.9838189 Eh     change        0.1493416E-03 Eh
   gradient norm :     0.0001478 Eh/α   predicted     0.4949893E-08 (-100.00%)
   displ. norm   :     0.0001645 α      lambda       -0.6548800E-08
   maximum displ.:     0.0001160 α      in ANC's #44, #55, #21, ...

........................................................................
.............................. CYCLE  728 ..............................
........................................................................
     iter. time                 ...        0 min,  0.019 sec
 * total energy  :    92.9829985 Eh     change       -0.8203398E-03 Eh
   gradient norm :     0.0000341 Eh/α   predicted    -0.5666353E-08 (-100.00%)
   displ. norm   :     0.0004444 α      lambda        0.2564240E-07
   maximum displ.:     0.0001205 α      in ANC's #4, #12, #1, ...

........................................................................
.............................. CYCLE  729 ..............................
........................................................................
     iter. time                 ...        0 min,  0.019 sec
 * total energy  :    92.9868351 Eh     change        0.3836528E-02 Eh
   gradient norm :     0.0001414 Eh/α   predicted     0.4566682E-07 (-100.00%)
   displ. norm   :     0.0004444 α      lambda        0.0000000E+00
   maximum displ.:     0.0001205 α      in ANC's #4, #12, #1, ...

........................................................................
.............................. CYCLE  730 ..............................
........................................................................
     iter. time                 ...        0 min,  0.018 sec
 * total energy  :    92.9906725 Eh     change        0.3837463E-02 Eh
   gradient norm :     0.0002566 Eh/α   predicted     0.1337307E-07 (-100.00%)
   displ. norm   :     0.0004444 α      lambda        0.0000000E+00
   maximum displ.:     0.0001205 α      in ANC's #4, #12, #1, ...

........................................................................
.............................. CYCLE  731 ..............................
........................................................................
     iter. time                 ...        0 min,  0.018 sec
 * total energy  :    92.9945109 Eh     change        0.3838399E-02 Eh
   gradient norm :     0.0003724 Eh/α   predicted     0.1962793E-07 (-100.00%)
   displ. norm   :     0.0004444 α      lambda        0.0000000E+00
   maximum displ.:     0.0001205 α      in ANC's #4, #12, #1, ...

........................................................................
.............................. CYCLE  732 ..............................
........................................................................
     iter. time                 ...        0 min,  0.018 sec
 * total energy  :    92.9983503 Eh     change        0.3839335E-02 Eh
   gradient norm :     0.0004884 Eh/α   predicted     0.2588166E-07 (-100.00%)
   displ. norm   :     0.0004444 α      lambda        0.0000000E+00
   maximum displ.:     0.0001205 α      in ANC's #4, #12, #1, ...

........................................................................
.............................. CYCLE  733 ..............................
........................................................................
     iter. time                 ...        0 min,  0.018 sec
 * total energy  :    93.0021905 Eh     change        0.3840271E-02 Eh
   gradient norm :     0.0006044 Eh/α   predicted     0.3213428E-07 (-100.00%)
   displ. norm   :     0.0004444 α      lambda        0.0000000E+00
   maximum displ.:     0.0001205 α      in ANC's #4, #12, #1, ...

........................................................................
.............................. CYCLE  734 ..............................
........................................................................
     iter. time                 ...        0 min,  0.018 sec
 * total energy  :    93.0060317 Eh     change        0.3841207E-02 Eh
   gradient norm :     0.0007205 Eh/α   predicted     0.3838578E-07 (-100.00%)
   displ. norm   :     0.0004444 α      lambda        0.0000000E+00
   maximum displ.:     0.0001205 α      in ANC's #4, #12, #1, ...

........................................................................
.............................. CYCLE  735 ..............................
........................................................................
     iter. time                 ...        0 min,  0.018 sec
 * total energy  :    93.0098739 Eh     change        0.3842143E-02 Eh
   gradient norm :     0.0008365 Eh/α   predicted     0.4463615E-07 (-100.00%)
   displ. norm   :     0.0004444 α      lambda        0.0000000E+00
   maximum displ.:     0.0001205 α      in ANC's #4, #12, #1, ...

........................................................................
.............................. CYCLE  736 ..............................
........................................................................
     iter. time                 ...        0 min,  0.018 sec
 * total energy  :    93.0137170 Eh     change        0.3843079E-02 Eh
   gradient norm :     0.0009526 Eh/α   predicted     0.5088541E-07 (-100.00%)
   displ. norm   :     0.0004444 α      lambda        0.0000000E+00
   maximum displ.:     0.0001205 α      in ANC's #4, #12, #1, ...

........................................................................
.............................. CYCLE  737 ..............................
........................................................................
     iter. time                 ...        0 min,  0.018 sec
 * total energy  :    93.0175610 Eh     change        0.3844016E-02 Eh
   gradient norm :     0.0010686 Eh/α   predicted     0.5713354E-07 (-100.00%)
   displ. norm   :     0.0004444 α      lambda        0.0000000E+00
   maximum displ.:     0.0001205 α      in ANC's #4, #12, #1, ...

........................................................................
.............................. CYCLE  738 ..............................
........................................................................
     iter. time                 ...        0 min,  0.018 sec
 * total energy  :    93.0214059 Eh     change        0.3844952E-02 Eh
   gradient norm :     0.0011846 Eh/α   predicted     0.6338056E-07 (-100.00%)
   displ. norm   :     0.0004444 α      lambda        0.0000000E+00
   maximum displ.:     0.0001205 α      in ANC's #4, #12, #1, ...

   *** FAILED TO CONVERGE GEOMETRY OPTIMIZATION IN 738 ITERATIONS ***


 ANCopt (total)                0 d,  0 h,  0 min, 16.551 sec
 optimizer setup                ...        0 min,  0.000 sec (  0.003%)
 model hessian                  ...        0 min,  1.321 sec (  7.979%)
 ANC generation                 ...        0 min,  0.989 sec (  5.977%)
 coordinate transformation      ...        0 min,  0.012 sec (  0.072%)
 single point calculation       ...        0 min, 14.037 sec ( 84.811%)
 optimization log               ...        0 min,  0.157 sec (  0.949%)
 hessian update                 ...        0 min,  0.003 sec (  0.020%)
 rational function              ...        0 min,  0.022 sec (  0.130%)

================
 final structure:
================
242
 xtb: 6.7.1 (edcfbbe)
N            0.43548318202887       -2.59916887621893       -2.73806954262501
N            1.54207360609712        2.97217460545356        0.32270666708770
C           -0.26597072666942       -1.00821977235484       -2.59422395068456
C           -0.07076512543713       -2.00657702213065       -2.60516203125537
C           -0.38807538605755       -2.16313458121812       -3.68031012104836
H            0.53816423577986       -3.81950840692985       -3.49068378055592
C            1.98358202938621       -6.40788416658642       -0.78811322564575
H            0.83354109925366       -3.77481773434596       -1.47691282635128
C            0.34539590027056       -1.61725306077493        1.99679623614096
C            1.05421348554906       -2.83132605157465       -0.17602259905279
C            0.58835907228143       -2.97256138050561        1.38920771923308
C            0.33189438577559       -2.53262609871220        4.15060881617481
H            0.77048706665043       -3.72022330502554        3.63473921980430
C           -0.52224054090000       -1.55492262311634        5.34710873491221
H           -0.12819679888531       -1.70731327107330        3.89418241524909
C           -1.43405482320699       -1.38815309903173        4.76924927111863
C           -0.42994808457911       -6.84302343628117        1.35772280354251
C            3.52490647503436       -3.93782239065314        1.77938391655876
C            4.63676373529530       -4.07350277288840        2.17778929127959
C            0.52795520417953       -9.69324587879978        1.89386478307253
H            3.11987309285373       -7.45975805647998        2.28589138630781
C            1.56965259258623       -6.27078431139178        1.63669417153619
C            2.66542963715788       -4.14589626991757        1.61091727873501
N           -1.19369801995563       -2.51191674908090       -0.18162089215671
N            0.35474961170752        1.32438481040088       -1.15791382741329
C           -0.43111110946974       -4.68579082157307        1.15556589475530
C            3.24209608150018       12.87316951652448        6.53092627394636
C           -4.45660234359894       -0.87769897542546        0.83140640421140
H           -1.78363964712134        3.49131361046655        3.82339067376440
C           -3.02263408330867        3.52720986673238        1.10244730295471
H           -1.79777580629656        4.42172172282572        1.16493323224921
C            0.57212501511223        2.96559409169867        2.69068210090868
C           -3.03821046345917        2.89081701736675       -2.01090505645673
C           -0.51462696920120        2.66022787741583       -3.04444540678322
C           -1.84494926003494        2.32645478390555       -2.12360243033886
H           -1.16157531741732        3.63190693818468       -3.65087246269080
C           -0.85279291541029        1.51640694842275       -4.46219255569307
H           -1.07002854824472        1.19274842213549       -4.77789182901370
C           -0.68877372897705        0.28619121184887       -3.07612423957789
C            1.40391039960168        3.11551413283772       -0.19904451777550
C            3.47486352450449        6.11489273788406        0.62754197323643
C            0.18679124441447        6.20114144113855       -0.65552247333032
C           -1.23071908698170        5.55994936815263       -3.63872472710496
H           -0.97108084648669        8.66210674736512       -2.26159197420102
C           -2.06370080224751        8.06873099761116       -2.01782692246057
C           -2.98045605546493        8.71361539298486       -1.84129330604466
Fe          -1.55823420966929       -4.29826229012579        0.40388312794014
Cl          -2.35068126851243        0.29634615371220       -0.26330023280242
C           -1.15305527420376        0.40917588283074        4.33947689022416
C           -1.25032291041586        1.47587658940892        6.31444892339054
C           -3.10667206096727        0.40873837985054        4.99061645053158
C           -1.32562950998662        1.62060684597577        7.30850934360565
N            0.72164779972616        1.66912378072216        5.15140149352465
C           -3.57865743343333        0.76232835387822        6.64223308166620
N           -3.50798369493859       -0.10303155534056        3.87285812968452
H           -0.73619275459506        1.92636776623602        7.76707030124255
C           -2.59998942760763        1.09438067142466        6.77505310728765
C            1.55499468050135        2.16540166643817        6.32147474831642
H            0.79721475601541        1.62011751699966        4.63202184167680
H           -4.51074712228377        0.38547001128445        6.29987049632673
C           -4.97564996805902       -0.47977794981081        3.94567455299534
H           -3.18384033226557       -0.32732276972813        3.05942216951463
H           -3.19571643521351        1.38255270024285        8.37962258183052
O            1.40438793169643        2.23935928294600        7.67366561969645
C            2.66658108393950        2.34640376303659        5.85253129493585
O           -5.80641769226160       -0.29269650740822        4.80424130270485
C           -5.51540118272402       -1.36077668664228        2.67283122014763
C            4.15170276624471        2.24078454838711        6.30112258820083
H            2.96888617433328        2.47124400380487        4.54889351347690
C            3.74553529064143        3.45018719348556        6.38625294200439
C           -6.75980168097831       -0.89860331191897        2.02871430861884
H           -4.61266240824883       -1.57016631461976        1.95034627925885
C           -6.55264528323314       -2.23489631718411        2.90178725763131
H            3.99238898612200        1.49080023802193        7.43512547458167
H            4.97307695604802        1.74973025952467        5.83268732050737
H            3.24921700514970        3.93143680031441        7.34562965021577
C            4.41519618570964        4.51219537192437        5.67765919874982
H           -7.36713247022743       -0.20753474542533        2.59154370984022
H           -6.87147077491516       -1.09032075331300        1.00450254397653
H           -6.99951699865628       -2.24308995531424        3.91114995629952
C           -6.59014713277798       -3.55292548608427        2.23888405764842
O            4.56606790102357        5.66725324696887        6.13408373570840
O            4.99216376871165        4.20479644574555        4.40600050539067
O           -7.16481691764475       -4.51038893780062        2.94835651916259
O           -6.08054504599101       -3.79416528076919        1.06665106735093
C            5.29405898970243        6.74795549123116        5.50018138926392
C           -7.26730237065950       -5.86009407685536        2.42610414831594
C            4.31026407092283        7.61398271783482        4.71072112161250
C            6.06478260428651        7.49949603158339        6.57119646571758
H            5.99649461698274        6.24925657782715        4.78248225092326
C           -7.24880224507062       -6.80301863844503        3.61915105958641
C           -8.52534776628823       -5.97600887821159        1.56199773050964
H           -6.36882930216710       -6.02007706187934        1.78254447905541
H            3.78771112331371        7.01984465837317        3.93622160395257
H            3.55129448702096        8.05478949946587        5.39176925058939
H            4.84587543525082        8.44217457567221        4.20504209380871
H            6.75222644936231        6.82202218621159        7.11681691365344
H            6.66609995466536        8.31250789624320        6.11807031190625
H            5.36820821396256        7.95303128292259        7.30932687981847
H           -6.32341011509152       -6.66902397102222        4.21484819642758
H           -8.11863290706502       -6.61429615380935        4.28431906399064
H           -7.29538709425506       -7.85793871921038        3.27974709790916
H           -8.48253793505794       -5.27260507177800        0.70822870536079
H           -8.62081939821391       -7.00386885719489        1.15484648520084
H           -9.43241792597640       -5.75418231168206        2.16338638639335
C           -0.67547034189303       -1.51292250252067       -4.73826734261075
C            0.26026578166788       -1.30824718507085       -5.75809225837610
C           -1.91967141386431       -2.21222371137955       -4.97390268872182
C            0.09492545538483       -1.77731525520051       -6.91320732870426
N            1.41524224770963       -0.47030956057524       -5.25651718091986
C           -2.02450474796222       -2.69026461113415       -6.22426618131645
N           -2.80950181498323       -2.20107325647716       -3.85475894359078
H            0.82141565603728       -1.64486119651304       -7.76038321928106
C           -1.15272093183424       -2.56235989772516       -7.22546309867887
C            2.38741373341519        0.06788182088052       -6.31000591751780
H            1.45115155031329       -0.17427764577725       -4.44488710709327
H           -3.02238112556312       -3.28750202601091       -6.43289488921803
C           -4.11935790400368       -2.92295317871821       -3.97001697429542
H           -2.65314236191207       -1.76742414329609       -3.09796670921498
H           -1.26311880119784       -2.95922961364596       -8.22219317777205
O            2.45525250243691       -0.20675042733787       -7.38857186649513
C            3.23838057500219        0.96649367527445       -5.58975696889746
O           -4.46772933854238       -3.60515059866956       -4.87203203879421
C           -4.91949604880036       -2.59652660592238       -2.87513251055474
C            3.57596425988052        2.34477683996757       -6.35896659405057
H            3.22326772180859        1.20632267539246       -4.45788874923584
C            4.61895169787103        1.30982553507099       -6.13873888392273
C           -5.85925195555640       -3.71885042169844       -2.21930130833804
H           -4.60743918993902       -1.86524082970089       -1.98992701295161
C           -6.43528436493001       -2.58299191186972       -3.00574219966258
H            3.12167245833331        2.38256637130388       -7.35683988294336
H            3.69241986840989        3.24445126690566       -5.79179844770139
H            4.88947759189626        0.62598812759781       -7.06287656371195
C            5.87785564381820        1.55872132805584       -5.25336469813100
H           -5.77889073307256       -4.66243824511540       -2.75414876516722
H           -6.03720366610175       -3.68953105024341       -1.16610392991601
H           -6.73684108130978       -2.81905454589074       -4.11754245167708
C           -7.41124061991144       -1.43658266152443       -2.36508721617489
O            6.88561269759732        1.11250771990012       -5.75182408867512
O            5.63215771471807        2.19541650559506       -4.19050846294079
O           -8.23986438164008       -1.20078585131100       -3.23854317344816
O           -7.10134413647426       -1.14209447823627       -1.28880296810709
C            8.18428612947119        1.36559063174455       -4.94927076704238
C           -9.24679717482497       -0.09741914415863       -2.68138267925615
C            9.06760056617049        0.15230263061700       -5.20110933954540
C            8.77294957580336        2.68365681575848       -5.41485530697848
H            7.86404387327044        1.42730915024828       -3.90387533022459
C           -8.66421763137295        1.25884019766498       -3.00442091420945
C          -10.57109657087851       -0.40162718086043       -3.38301404469970
H           -9.29822435272549       -0.27005096873958       -1.61733213705145
H            8.56667968556758       -0.78237765108223       -4.87955708485203
H            9.33479105661984        0.05657808364265       -6.27099309301365
H           10.00872482187220        0.26241911484329       -4.61679843517178
H            8.07743083175161        3.52644549534770       -5.22397659743089
H            9.71147364499086        2.88699870394316       -4.84799797713291
H            9.02123545686698        2.66470802656831       -6.49413542707615
H           -7.69563712616881        1.41066922269260       -2.48303341195411
H           -8.51510621899252        1.41047244862819       -4.08952490172944
H           -9.36540740084243        2.04825473876556       -2.63702485088236
H          -10.92750674619096       -1.42459746227710       -3.14883094605718
H          -11.33567734731715        0.32144161070346       -3.01411842853343
H          -10.49667821207363       -0.29776721080383       -4.47933610318010
H            3.97953433735566       -6.29669143511474        2.35152209101746
H            0.49935936330933       -8.23513397523379        1.64680232581803
H            1.00381810118834        7.81749971583132       -2.55211858003652
H           -3.17901948716857        7.21193119434098       -1.66097008941683
O            3.45661253557564       -4.29175834304145        1.82886118268880
O           -1.08947266811835       -5.39704964740750        0.66891318775682
O           -1.11387138561801        5.60473280908180       -3.59157997071146
O           -2.85789775464462        1.07220658360131        0.60771839941784
C            4.64716564883952       -3.50720076762838        2.13324045172349
C            5.76078442602669       -3.90489371665805        1.14583592790555
C            5.38694789691545       -3.29572364745375        3.51718910968127
C            7.48890199991821       -3.88070602954954        1.60030862308365
H            5.56269679033920       -4.12906145931559        0.17492551025317
C            6.54174790960685       -3.28752138119118        3.77678432011977
H            4.31431691747635       -3.06394477913081        4.18090918966348
C            7.25921932983788       -3.52281383493342        2.93935466022121
H            7.89891995788243       -4.07172699958450        0.85385889938807
H            6.79076571682375       -2.99958254868005        4.91180634239365
H            8.68342169906651       -3.52212329979873        3.20488060584040
C           -3.01283824967671       -7.69469835764883        1.05174743322929
C           -1.07759725753037       -6.16808932674452        2.98296130624049
C           -2.05072661526933       -6.68775907521478       -0.87223869705876
C           -2.64020304799358       -7.46546526511878        1.65766061765764
H           -1.78925384652583       -6.80566907841783        2.96889078997002
C           -2.51598903130668       -7.25539524911687        0.68607514901647
H           -2.10108204362148       -6.72081092162768       -0.89013091470513
C           -4.93620726805164       -9.52266312898293        1.50656240278216
H           -3.49687714695671       -8.41914209794526        3.66515814577833
H           -4.10085623669467       -8.48735628686898       -1.11975668153422
H           -4.17751568169377       -8.82284360067272        1.33477305950418
C            2.89566949892728        5.30153301964928       -1.40735205751206
C            2.79274393697674        6.14226256957321       -0.60375374533525
C            3.82068016440888        4.53162130556036       -2.10237631906792
C            4.39381058342698        6.65129584664617       -0.48184593753773
H            2.23342934993375        6.70027999204862        0.04251517068279
C            4.79240677073832        4.88305293317308       -2.13541883254162
H            3.41623988677235        3.66020047413026       -2.85010924653061
C            5.40047351693125        6.07736369933878       -1.17717758265520
H            4.56011989974614        7.48086759318349        0.21154850537827
H            5.82053247170410        4.44153387648108       -2.65014143221981
H            6.35902922477974        6.36766755425935       -1.12806585782338
C           -6.24907304474786        5.20523169582724        0.78414871520417
C           -5.04531414884876        5.30510301524980       -1.96189677690909
C           -3.56568051516097        5.01913168739996       -2.42407964098706
C           -6.07864676171506        5.58156395844449       -3.48105708811909
H           -3.97899690521535        5.13190105302111       -3.45833325856650
C           -7.32996935477074        5.60380037265403       -0.60821868851114
H           -5.38702790869620        4.97088007690600        1.22901073209501
C           -7.18015866487824        5.68050744168470       -1.54892856746141
H           -6.53811766740466        5.76174240866940       -3.86188728705316
H           -7.50611133015058        5.54174522705988        0.41556141241451
H           -8.31790346700774        5.98896230776104       -2.05554651060015
N            1.64767965263886        0.33712844096789        0.31535778160374
C            2.57197487991869        1.01245095704358        0.63125819522088
C            3.75627290694402        0.55524836351978        0.40672722335282
C            4.94872439267478        1.45376415417727        1.01210542275826
C            4.76432024382984        2.55990155318328        1.69869488195131
C            3.47617806323258        2.97174999060652        1.83280847798406
C            2.27974767020531        2.47047721123831        1.48719495336230
C            1.06666720330405        1.54365804070667        1.92420054966031
C           -0.24522296911677        4.38420828417164       -0.19680709379029
C           -0.86028369070704        5.51598015106352       -0.11619916900054
C           -2.51233717145391        2.19164286265493        0.42867030190320
C           -3.11506554092438        3.86338393451711       -0.26210175090756
C           -3.58490905770336        5.67142177564974        1.52553404408396
C           -2.29548099849011        5.57576864871467        1.82047420270274
C           -1.00824289570517        5.60382384248056        1.16573700014435
H            4.05376090025154       -0.23008259698983       -0.07443653770217
H            5.97908259997543        1.02088213286344        0.78555319278255
H            5.55745593962584        3.11460254886978        2.05912222158288
H            3.25239235505921        3.94080632742832        2.47091018997767
H           -1.05550714040468        4.82082161077511        2.78034680458707
H            0.76625997793209        3.66582983816438        2.48423828212305
H            1.10958970077187        4.50331261696847        0.35637898651717
H            0.93825835334847        2.40052998446109       -0.12980533936988
H           -1.49710348855707        2.43998385789677        0.08543299359135
H           -4.22126970951075        3.45041501359127        0.30402304143016
H           -4.48584787038059        5.32054206103841        1.26093935721675
H           -2.61789555873074        6.84424344601515        2.13638056145473
H           -0.27697862016069        5.95491316387820        1.77227771999874

 Bond Distances (Angstroems)
 ---------------------------
N1-C3=1.7447         N1-C4=0.7906         N1-C5=1.3252         N2-C40=0.5584        N2-C221=1.4669       N2-H237=0.9466       
C3-N1=1.7447         C3-C4=1.0173         C3-C5=1.5901         C3-C39=1.4445        C4-N1=0.7906         C4-C3=1.0173         
C4-C5=1.1319         C5-N1=1.3252         C5-C3=1.5901         C5-C4=1.1319         C5-C106=1.2746       C9-C11=1.5050        
C10-C11=1.6392       C11-C9=1.5050        C11-C10=1.6392       C12-H13=1.3671       C12-C14=1.7655       C12-H15=0.9791       
H13-C12=1.3671       C14-C12=1.7655       C14-C16=1.0923       H15-C12=0.9791       C16-C14=1.0923       C16-C49=1.8692       
C17-O168=1.7321      C17-C183=1.8752      C18-C19=1.1888       C18-C23=0.9002       C18-O167=0.3638      C18-C171=1.2530      
C19-C18=1.1888       C19-O167=1.2499      C19-C171=0.5681      C19-C172=1.5352      C19-C173=1.7210      C23-C18=0.9002       
C23-O167=0.8335      N24-Fe47=1.9149      C26-Fe47=1.4091      C26-O168=1.0845      C28-H72=1.3251       C30-C225=1.5805      
C30-C226=1.4084      C32-C222=1.6894      C32-H235=0.7554      C33-C35=1.3248       C34-C35=1.6520       C34-H36=1.3155       
C34-C37=1.8528       C35-C33=1.3248       C35-C34=1.6520       H36-C34=1.3155       C37-C34=1.8528       C37-H38=0.5016       
C37-C39=1.8605       H38-C37=0.5016       C39-C3=1.4445        C39-C37=1.8605       C40-N2=0.5584        C40-H237=0.8561      
C41-C194=1.4079      C41-C196=1.5372      C42-C223=1.9231      C42-C224=1.3626      C43-O169=0.1337      H44-C45=1.2670       
C45-H44=1.2670       C45-C46=1.1347       C46-C45=1.1347       Fe47-N24=1.9149      Fe47-C26=1.4091      Fe47-O168=1.2236     
Cl48-O170=1.2720     Cl48-C225=2.0241     C49-C16=1.8692       C50-C52=1.0074       C50-C57=1.4762       C51-C54=1.7537       
C51-N55=1.2932       C52-C50=1.0074       C52-H56=0.8070       C52-C57=1.4783       N53-C58=1.5198       N53-H59=0.5271       
C54-C51=1.7537       C54-C57=1.0420       C54-H60=1.0621       N55-C51=1.2932       N55-C61=1.5170       N55-H62=0.9039       
H56-C52=0.8070       C57-C50=1.4762       C57-C52=1.4783       C57-C54=1.0420       C58-N53=1.5198       C58-O64=1.3626       
C58-C65=1.2200       H59-N53=0.5271       H60-C54=1.0621       C61-N55=1.5170       C61-O66=1.2093       C61-C67=1.6394       
H62-N55=0.9039       O64-C58=1.3626       C65-C58=1.2200       C65-C68=1.5550       C65-H69=1.3440       C65-C70=1.6332       
O66-C61=1.2093       C67-C61=1.6394       C67-C71=1.4755       C67-H72=1.1751       C67-C73=1.3756       C68-C65=1.5550       
C68-C70=1.2786       C68-H74=1.3689       C68-H75=1.0655       H69-C65=1.3440       C70-C65=1.6332       C70-C68=1.2786       
C70-H76=1.1825       C70-C77=1.4417       C71-C67=1.4755       C71-C73=1.6096       C71-H78=1.0785       C71-H79=1.0480       
H72-C28=1.3251       H72-C67=1.1751       C73-C67=1.3756       C73-C71=1.6096       C73-H80=1.1039       C73-C81=1.4758       
H74-C68=1.3689       H75-C68=1.0655       H76-C70=1.1825       C77-C70=1.4417       C77-O82=1.2511       C77-O83=1.4299       
H78-C71=1.0785       H79-C71=1.0480       H80-C73=1.1039       C81-C73=1.4758       C81-O84=1.3230       C81-O85=1.3008       
O82-C77=1.2511       O82-C86=1.4490       O83-C77=1.4299       O84-C81=1.3230       O84-C87=1.4508       O85-C81=1.3008       
C86-O82=1.4490       C86-C88=1.5301       C86-C89=1.5185       C86-H90=1.1213       C87-O84=1.4508       C87-C91=1.5208       
C87-C92=1.5306       C87-H93=1.1167       C88-C86=1.5301       C88-H94=1.1072       C88-H95=1.1109       C88-H96=1.1084       
C89-C86=1.5185       C89-H97=1.1087       C89-H98=1.1081       C89-H99=1.1116       H90-C86=1.1213       C91-C87=1.5208       
C91-H100=1.1087      C91-H101=1.1112      C91-H102=1.1092      C92-C87=1.5306       C92-H103=1.1070      C92-H104=1.1097      
C92-H105=1.1107      H93-C87=1.1167       H94-C88=1.1072       H95-C88=1.1109       H96-C88=1.1084       H97-C89=1.1087       
H98-C89=1.1081       H99-C89=1.1116       H100-C91=1.1087      H101-C91=1.1112      H102-C91=1.1092      H103-C92=1.1070      
H104-C92=1.1097      H105-C92=1.1107      C106-C5=1.2746       C106-C107=1.3991     C106-C108=1.4466     C107-C106=1.3991     
C107-C109=1.2576     C107-N110=1.5125     C108-C106=1.4466     C108-C111=1.3427     C108-N112=1.4298     C109-C107=1.2576     
C109-H113=1.1239     C109-C114=1.5068     N110-C107=1.5125     N110-C115=1.5312     N110-H116=0.8647     C111-C108=1.3427     
C111-C114=1.3337     C111-H117=1.1815     N112-C108=1.4298     N112-C118=1.5000     N112-H119=0.8861     H113-C109=1.1239     
C114-C109=1.5068     C114-C111=1.3337     C114-H120=1.0785     C115-N110=1.5312     C115-O121=1.1150     C115-C122=1.4319     
H116-N110=0.8647     H117-C111=1.1815     C118-N112=1.5000     C118-O123=1.1834     C118-C124=1.3948     H119-N112=0.8861     
H120-C114=1.0785     O121-C115=1.1150     C122-C115=1.4319     C122-C125=1.6141     C122-H126=1.1571     C122-C127=1.5249     
O123-C118=1.1834     C124-C118=1.3948     C124-C128=1.6040     C124-H129=1.1899     C124-C130=1.5215     C125-C122=1.6141     
C125-C127=1.4857     C125-H131=1.0971     C125-H132=1.0699     H126-C122=1.1571     C127-C122=1.5249     C127-C125=1.4857     
C127-H133=1.1810     C127-C134=1.5591     C128-C124=1.6040     C128-C130=1.4968     C128-H135=1.0876     C128-H136=1.0685     
H129-C124=1.1899     C130-C124=1.5215     C130-C128=1.4968     C130-H137=1.1759     C130-C138=1.6362     H131-C125=1.0971     
H132-C125=1.0699     H133-C127=1.1810     C134-C127=1.5591     C134-O139=1.2096     C134-O140=1.2631     H135-C128=1.0876     
H136-C128=1.0685     H137-C130=1.1759     C138-C130=1.6362     C138-O141=1.2268     C138-O142=1.1581     O139-C134=1.2096     
O139-C143=1.5475     O140-C134=1.2631     O141-C138=1.2268     O141-C144=1.5943     O142-C138=1.1581     C143-O139=1.5475     
C143-C145=1.5218     C143-C146=1.5168     C143-H147=1.0951     C144-O141=1.5943     C144-C148=1.5110     C144-C149=1.5292     
C144-H150=1.0792     C145-C143=1.5218     C145-H151=1.1081     C145-H152=1.1069     C145-H153=1.1132     C146-C143=1.5168     
C146-H154=1.1093     C146-H155=1.1151     C146-H156=1.1076     H147-C143=1.0951     C148-C144=1.5110     C148-H157=1.1104     
C148-H158=1.1057     C148-H159=1.1180     C149-C144=1.5292     C149-H160=1.1083     C149-H161=1.1151     C149-H162=1.1037     
H150-C144=1.0792     H151-C145=1.1081     H152-C145=1.1069     H153-C145=1.1132     H154-C146=1.1093     H155-C146=1.1151     
H156-C146=1.1076     H157-C148=1.1104     H158-C148=1.1057     H159-C148=1.1180     H160-C149=1.1083     H161-C149=1.1151     
H162-C149=1.1037     O167-C18=0.3638      O167-C19=1.2499      O167-C23=0.8335      O167-C171=1.4579     O168-C17=1.7321      
O168-C26=1.0845      O168-Fe47=1.2236     O169-C43=0.1337      O170-Cl48=1.2720     O170-C225=1.1852     C171-C18=1.2530      
C171-C19=0.5681      C171-O167=1.4579     C171-C172=1.5405     C171-C173=1.5835     C172-C19=1.5352      C172-C171=1.5405     
C172-C174=1.7870     C172-H175=1.0160     C173-C19=1.7210      C173-C171=1.5835     C173-C176=1.1836     C173-H177=1.2825     
C174-C172=1.7870     C174-C178=1.4050     C174-H179=0.8728     H175-C172=1.0160     C176-C173=1.1836     C176-C178=1.1276     
C176-H180=1.1972     H177-C173=1.2825     C178-C174=1.4050     C178-C176=1.1276     H179-C174=0.8728     H180-C176=1.1972     
C182-C185=0.7474     C182-C187=0.7573     C183-C17=1.8752      C183-H186=0.9556     C184-C187=1.7225     C184-H188=0.0628     
C185-C182=0.7474     C185-C187=1.0018     H186-C183=0.9556     C187-C182=0.7573     C187-C184=1.7225     C187-C185=1.0018     
H188-C184=0.0628     C189-H192=1.0464     H192-C189=1.0464     C193-C194=1.1676     C193-C195=1.3898     C194-C41=1.4079      
C194-C193=1.1676     C194-C196=1.6845     C194-H197=1.0207     C195-C193=1.3898     C195-C198=1.0339     C195-H199=1.2174     
C196-C41=1.5372      C196-C194=1.6845     C196-C200=1.3514     C196-H201=1.0939     H197-C194=1.0207     C198-C195=1.0339     
C198-C200=1.6475     C198-H202=1.2316     H199-C195=1.2174     C200-C196=1.3514     C200-C198=1.6475     C200-H203=1.0028     
H201-C196=1.0939     H202-C198=1.2316     H203-C200=1.0028     C204-C209=1.8072     C204-H210=0.9980     C204-H213=1.3525     
C205-C206=1.5763     C205-C207=1.8580     C206-C205=1.5763     C206-H208=1.1195     C207-C205=1.8580     C207-H212=0.6234     
H208-C206=1.1195     C209-C204=1.8072     C209-C211=0.9556     C209-H213=1.0407     H210-C204=0.9980     C211-C209=0.9556     
C211-H214=1.2831     H212-C207=0.6234     H213-C204=1.3525     H213-C209=1.0407     H214-C211=1.2831     N215-C216=1.1875     
C216-N215=1.1875     C216-C217=1.2892     C216-C221=1.7158     C217-C216=1.2892     C217-C218=1.6111     C217-H230=0.9679     
C218-C217=1.6111     C218-C219=1.3149     C218-H231=1.1403     C219-C218=1.3149     C219-C220=1.3590     C219-H232=1.0328     
C220-C219=1.3590     C220-C221=1.3424     C220-H233=1.1817     C221-N2=1.4669       C221-C216=1.7158     C221-C220=1.3424     
C221-C222=1.5879     C222-C32=1.6894      C222-C221=1.5879     C223-C42=1.9231      C223-C224=1.2906     C224-C42=1.3626      
C224-C223=1.2906     C224-C229=1.2934     C225-C30=1.5805      C225-Cl48=2.0241     C225-O170=1.1852     C225-C226=1.9066     
C225-H238=1.1001     C226-C30=1.4084      C226-C225=1.9066     C226-H239=1.3095     C227-C228=1.3262     C227-H240=1.0024     
C228-C227=1.3262     C228-C229=1.4445     C228-H241=1.3464     C229-C224=1.2934     C229-C228=1.4445     C229-H242=1.0129     
H230-C217=0.9679     H231-C218=1.1403     H232-C219=1.0328     H233-C220=1.1817     H235-C32=0.7554      H237-N2=0.9466       
H237-C40=0.8561      H238-C225=1.1001     H239-C226=1.3095     H240-C227=1.0024     H241-C228=1.3464     H242-C229=1.0129     
 C  H  Rav=1.0901 sigma=0.1810  Rmin=0.0628  Rmax=1.3689    84
 C  C  Rav=1.4411 sigma=0.2614  Rmin=0.5681  Rmax=1.9231   100
 N  H  Rav=0.8257 sigma=0.1517  Rmin=0.5271  Rmax=0.9466     5
 N  C  Rav=1.3367 sigma=0.3140  Rmin=0.5584  Rmax=1.7447    13
 O  C  Rav=1.2131 sigma=0.3449  Rmin=0.1337  Rmax=1.7321    24
 Cl C  Rav=2.0241 sigma=0.0000  Rmin=2.0241  Rmax=2.0241     1
 Cl O  Rav=1.2720 sigma=0.0000  Rmin=1.2720  Rmax=1.2720     1
 Fe C  Rav=1.4091 sigma=0.0000  Rmin=1.4091  Rmax=1.4091     1
 Fe N  Rav=1.9149 sigma=0.0000  Rmin=1.9149  Rmax=1.9149     1
 Fe O  Rav=1.2236 sigma=0.0000  Rmin=1.2236  Rmax=1.2236     1

 selected bond angles (degree)
 --------------------
C4-N1-C3= 17.30                C5-N1-C3= 60.58                C5-N1-C4= 58.33                C221-N2-C40=162.53             
H237-N2-C40= 63.29             H237-N2-C221=119.58            C4-C3-N1= 13.36                C5-C3-N1= 46.55                
C5-C3-C4= 45.14                C39-C3-N1=155.14               C39-C3-C4=158.75               C39-C3-C5=113.61               
C3-C4-N1=149.34                C5-C4-N1= 85.19                C5-C4-C3= 95.29                C3-C5-N1= 72.88                
C4-C5-N1= 36.48                C4-C5-C3= 39.57                C106-C5-N1=153.91              C106-C5-C3=102.34              
C106-C5-C4=141.36              

 selected dihedral angles (degree)
 ---------------------------------
C4-C3-N1-C5= 77.52            C5-C3-N1-C4=282.48            C39-C3-N1-C4=239.57           C39-C3-N1-C5=317.09           
C3-C4-N1-C5=267.74            C5-C4-N1-C3= 92.26            N1-C4-C3-C5= 89.48            N1-C4-C3-C39= 90.40           
C5-C4-C3-N1=270.52            C5-C4-C3-C39=  0.91           C3-C5-N1-C4= 19.95            C4-C5-N1-C3=340.05            
C106-C5-N1-C3= 83.08          C106-C5-N1-C4=103.02          N1-C5-C3-C4=341.44            N1-C5-C3-C39=161.80           
C4-C5-C3-N1= 18.56            C4-C5-C3-C39=180.36           C106-C5-C3-N1=206.54          C106-C5-C3-C4=187.98          
C106-C5-C3-C39=  8.34         N1-C5-C4-C3=149.22            C3-C5-C4-N1=210.78            C106-C5-C4-N1=223.32          
C106-C5-C4-C3= 12.54          
           -------------------------------------------------
          |                Final Singlepoint                |
           -------------------------------------------------
         :::::::::::::::::::::::::::::::::::::::::::::::::::::
         ::                     SUMMARY                     ::
         :::::::::::::::::::::::::::::::::::::::::::::::::::::
         :: total energy              93.025251820873 Eh    ::
         :: total w/o Gsolv           93.294788917363 Eh    ::
         :: total w/o Gsasa/hb        93.164802249074 Eh    ::
         :: gradient norm            789.873795521868 Eh/a0 ::
         ::.................................................::
         :: bond energy              -33.571131011881 Eh    ::
         :: angle energy               1.916628263585 Eh    ::
         :: torsion energy             0.378026322444 Eh    ::
         :: repulsion energy         142.181721582035 Eh    ::
         :: electrostat energy        -2.610742142998 Eh    ::
         :: dispersion energy         -0.314023217388 Eh    ::
         :: HB energy                 -0.024152135173 Eh    ::
         :: XB energy                 -0.000126006920 Eh    ::
         :: bonded atm energy        -14.661412736340 Eh    ::
         :: external energy            0.000000000000 Eh    ::
         :: -> Gsolv                  -0.269537096490 Eh    ::
         ::    -> Gborn               -0.129986668289 Eh    ::
         ::    -> Gsasa               -0.138149503359 Eh    ::
         ::    -> Ghb                 -0.008184136307 Eh    ::
         ::    -> Gshift               0.006783211464 Eh    ::
         :: add. restraining           0.000000000000 Eh    ::
         :: total charge              -0.000000000000 e     ::
         :::::::::::::::::::::::::::::::::::::::::::::::::::::

           -------------------------------------------------
          |                Property Printout                |
           -------------------------------------------------

molecular dipole:
                 x           y           z       tot (Debye)
 q only:        0.549      -6.539       0.531      16.733
           -------------------------------------------------
          |                Geometry Summary                 |
           -------------------------------------------------

      molecular mass/u    :     1944.3747980
   center of mass at/Å    :       -0.4270643       0.1805109       0.1566676
  moments of inertia/u·Å² :        0.5234927E+05   0.6837674E+05   0.6976445E+05
rotational constants/cm⁻¹ :        0.3220223E-03   0.2465404E-03   0.2416364E-03

 * 149 selected distances

     #   Z          #   Z                                           value/Å
     1   7 N        4   6 C                                       0.7906434
     3   6 C        4   6 C                                       1.0173211
     1   7 N        5   6 C                                       1.3252140
     4   6 C        5   6 C                                       1.1318744
    12   6 C       15   1 H                                       0.9790709
    14   6 C       16   6 C                                       1.0923091
    18   6 C       19   6 C                                       1.1888494
    18   6 C       23   6 C                                       0.9002090
    37   6 C       38   1 H                                       0.5016096
     2   7 N       40   6 C                                       0.5584440
    45   6 C       46   6 C                                       1.1346720
    26   6 C       47  26 Fe                                      1.4091175
    50   6 C       52   6 C                                       1.0073600
    51   6 C       55   7 N                                       1.2931912
    52   6 C       56   1 H                                       0.8069719
    54   6 C       57   6 C                                       1.0419651
    53   7 N       59   1 H                                       0.5271312
    54   6 C       60   1 H                                       1.0620856
    55   7 N       62   1 H                                       0.9039102
    58   6 C       65   6 C                                       1.2199567
    61   6 C       66   8 O                                       1.2092608
    68   6 C       70   6 C                                       1.2786220
    67   6 C       71   6 C                                       1.4754741
    67   6 C       72   1 H                                       1.1750600
    67   6 C       73   6 C                                       1.3756386
    68   6 C       75   1 H                                       1.0654678
    70   6 C       77   6 C                                       1.4416701
    71   6 C       78   1 H                                       1.0785192
    71   6 C       79   1 H                                       1.0479673
    73   6 C       80   1 H                                       1.1038907
    73   6 C       81   6 C                                       1.4758212
    77   6 C       82   8 O                                       1.2510974
    81   6 C       84   8 O                                       1.3230016
    86   6 C       88   6 C                                       1.5300665
    86   6 C       89   6 C                                       1.5185196
    86   6 C       90   1 H                                       1.1212532
    87   6 C       91   6 C                                       1.5207927
    87   6 C       92   6 C                                       1.5306191
    87   6 C       93   1 H                                       1.1166995
    88   6 C       94   1 H                                       1.1072088
    88   6 C       95   1 H                                       1.1109330
    88   6 C       96   1 H                                       1.1083739
    89   6 C       97   1 H                                       1.1087163
    89   6 C       98   1 H                                       1.1081040
    89   6 C       99   1 H                                       1.1116415
    91   6 C      100   1 H                                       1.1086751
    91   6 C      101   1 H                                       1.1111572
    91   6 C      102   1 H                                       1.1091536
    92   6 C      103   1 H                                       1.1070372
    92   6 C      104   1 H                                       1.1096771
    92   6 C      105   1 H                                       1.1106988
     5   6 C      106   6 C                                       1.2746158
   106   6 C      107   6 C                                       1.3991202
   106   6 C      108   6 C                                       1.4465763
   107   6 C      109   6 C                                       1.2576380
   108   6 C      111   6 C                                       1.3427294
   108   6 C      112   7 N                                       1.4298271
   111   6 C      114   6 C                                       1.3337025
   110   7 N      116   1 H                                       0.8646779
   112   7 N      119   1 H                                       0.8861346
   114   6 C      120   1 H                                       1.0785010
   115   6 C      121   8 O                                       1.1150470
   115   6 C      122   6 C                                       1.4319241
   118   6 C      123   8 O                                       1.1833797
   118   6 C      124   6 C                                       1.3948289
   122   6 C      127   6 C                                       1.5248721
   125   6 C      127   6 C                                       1.4857482
   124   6 C      130   6 C                                       1.5214653
   128   6 C      130   6 C                                       1.4968225
   125   6 C      131   1 H                                       1.0970690
   125   6 C      132   1 H                                       1.0698859
   128   6 C      135   1 H                                       1.0876019
   128   6 C      136   1 H                                       1.0685277
   134   6 C      139   8 O                                       1.2096044
   138   6 C      141   8 O                                       1.2268427
   138   6 C      142   8 O                                       1.1580791
   143   6 C      145   6 C                                       1.5217540
   143   6 C      146   6 C                                       1.5167704
   143   6 C      147   1 H                                       1.0950873
   144   6 C      148   6 C                                       1.5110236
   144   6 C      149   6 C                                       1.5292477
   144   6 C      150   1 H                                       1.0791896
   145   6 C      151   1 H                                       1.1081268
   145   6 C      152   1 H                                       1.1068900
   145   6 C      153   1 H                                       1.1132205
   146   6 C      154   1 H                                       1.1092673
   146   6 C      155   1 H                                       1.1151246
   146   6 C      156   1 H                                       1.1076329
   148   6 C      157   1 H                                       1.1104258
   148   6 C      158   1 H                                       1.1057475
   148   6 C      159   1 H                                       1.1179546
   149   6 C      160   1 H                                       1.1083043
   149   6 C      161   1 H                                       1.1151217
   149   6 C      162   1 H                                       1.1037424
    18   6 C      167   8 O                                       0.3638444
    19   6 C      167   8 O                                       1.2498574
    23   6 C      167   8 O                                       0.8335141
    26   6 C      168   8 O                                       1.0845092
    47  26 Fe     168   8 O                                       1.2236471
    43   6 C      169   8 O                                       0.1337220
    48  17 Cl     170   8 O                                       1.2719677
    18   6 C      171   6 C                                       1.2530424
    19   6 C      171   6 C                                       0.5681468
   167   8 O      171   6 C                                       1.4579419
    19   6 C      172   6 C                                       1.5351807
   171   6 C      172   6 C                                       1.5405436
   171   6 C      173   6 C                                       1.5834503 (max)
   172   6 C      175   1 H                                       1.0159513
   173   6 C      176   6 C                                       1.1836470
   174   6 C      178   6 C                                       1.4049504
   176   6 C      178   6 C                                       1.1275710
   174   6 C      179   1 H                                       0.8728064
   182   6 C      185   6 C                                       0.7473525
   183   6 C      186   1 H                                       0.9555947
   182   6 C      187   6 C                                       0.7573392
   185   6 C      187   6 C                                       1.0017670
   184   6 C      188   1 H                                       0.0628349 (min)
    41   6 C      194   6 C                                       1.4078799
   193   6 C      194   6 C                                       1.1675574
   193   6 C      195   6 C                                       1.3897726
   194   6 C      197   1 H                                       1.0207252
   195   6 C      198   6 C                                       1.0338514
   196   6 C      200   6 C                                       1.3513900
   196   6 C      201   1 H                                       1.0939123
   200   6 C      203   1 H                                       1.0027550
   204   6 C      210   1 H                                       0.9979704
   209   6 C      211   6 C                                       0.9556477
   207   6 C      212   1 H                                       0.6233855
   209   6 C      213   1 H                                       1.0406742
   215   7 N      216   6 C                                       1.1875081
   216   6 C      217   6 C                                       1.2891899
   218   6 C      219   6 C                                       1.3148955
   219   6 C      220   6 C                                       1.3590130
     2   7 N      221   6 C                                       1.4669344
   220   6 C      221   6 C                                       1.3424489
   223   6 C      224   6 C                                       1.2906220
   170   8 O      225   6 C                                       1.1851617
    30   6 C      226   6 C                                       1.4083860
   227   6 C      228   6 C                                       1.3261841
   224   6 C      229   6 C                                       1.2934331
   228   6 C      229   6 C                                       1.4444550
   217   6 C      230   1 H                                       0.9678650
   219   6 C      232   1 H                                       1.0327950
    32   6 C      235   1 H                                       0.7554056
     2   7 N      237   1 H                                       0.9466455
    40   6 C      237   1 H                                       0.8560539
   225   6 C      238   1 H                                       1.1000840
   227   6 C      240   1 H                                       1.0024060
   229   6 C      242   1 H                                       1.0128687

 * 8 distinct bonds (by element types)

   Z      Z             #   av. dist./Å        max./Å        min./Å
   1 H    6 C          59     1.0284997     1.1750600     0.0628349
   6 C    6 C          60     1.2991383     1.5834503     0.5681468
   1 H    7 N           5     0.8256999     0.9466455     0.5271312
   6 C    7 N           7     1.1502517     1.4669344     0.5584440
   6 C    8 O          15     1.0656575     1.4579419     0.1337220
   8 O   17 Cl          1     1.2719677     1.2719677     1.2719677
   6 C   26 Fe          1     1.4091175     1.4091175     1.4091175
   8 O   26 Fe          1     1.2236471     1.2236471     1.2236471


optimized geometry written to: xtbopt.xyz


           -------------------------------------------------
          | TOTAL ENERGY               93.025251820873 Eh   |
          | GRADIENT NORM               1.767206119587 Eh/α |
           -------------------------------------------------

------------------------------------------------------------------------
 * finished run on 2026/09/07 at 18:12:41.327     
------------------------------------------------------------------------
 total:
 * wall-time:     0 d,  0 h,  0 min, 16.598 sec
 *  cpu-time:     0 d,  0 h,  0 min, 16.565 sec
 * ratio c/w:     0.998 speedup
 SCF:
 * wall-time:     0 d,  0 h,  0 min,  0.020 sec
 *  cpu-time:     0 d,  0 h,  0 min,  0.020 sec
 * ratio c/w:     0.998 speedup
 ANC optimizer:
 * wall-time:     0 d,  0 h,  0 min, 16.571 sec
 *  cpu-time:     0 d,  0 h,  0 min, 16.538 sec
 * ratio c/w:     0.998 speedup

