27

N     -1.933341    2.335239    0.002644
C     -2.488892    1.021888    0.012521
C     -3.838587    0.854227    0.345234
C     -4.402581   -0.423358    0.377013
C     -3.619502   -1.540762    0.081011
C     -2.271519   -1.383451   -0.252399
C     -1.695292   -0.102039   -0.302865
C     -0.229881    0.040828   -0.633247
C      0.614358    0.034435    0.644701
C      2.075306    0.179715    0.314349
C      2.654657    1.452334    0.205619
C      4.004541    1.566558   -0.134737
N      4.745817    0.451275   -0.368658
C      4.207566   -0.794275   -0.282585
Cl     5.208413   -2.196115   -0.602971
C      2.860345   -0.953447    0.055433
H     -4.450954    1.714923    0.583613
H     -5.446064   -0.547670    0.636242
H     -4.056417   -2.530503    0.113207
H     -1.675782   -2.261443   -0.470045
H      0.091081   -0.794602   -1.294408
H     -0.055555    0.982712   -1.197883
H      0.295789    0.866419    1.310846
H      0.446677   -0.915339    1.199340
H      2.067148    2.345112    0.380875
H      4.462368    2.543260   -0.216567
H      2.430299   -1.945924    0.113949
