27

N     -1.768938   -2.460480   -0.269275
C     -2.413078   -1.189387   -0.214200
C     -3.769313   -1.125774    0.127948
C     -4.419312    0.108357    0.203752
C     -3.716176    1.285991   -0.057405
C     -2.362362    1.232602   -0.399901
C     -1.699996   -0.003891   -0.494547
C     -0.230003   -0.034918   -0.833885
C      0.618539   -0.012599    0.441030
C      2.084247   -0.046345    0.101660
C      2.748825   -1.271944   -0.050893
C      4.101555   -1.282016   -0.398885
N      4.763458   -0.111411   -0.597962
C      4.141615    1.090762   -0.469076
Cl     5.042395    2.567748   -0.745859
C      2.788452    1.145911   -0.121938
H     -4.320023   -2.033835    0.339515
H     -5.467476    0.152178    0.470100
H     -4.219679    2.241819    0.008889
H     -1.829316    2.156086   -0.590116
H      0.029496    0.841844   -1.467953
H      0.005446   -0.943554   -1.429951
H      0.389131    0.904690    1.027343
H      0.361214   -0.885921    1.080187
H      2.224778   -2.208210    0.096459
H      4.624770   -2.221779   -0.514388
H      2.291752    2.104076   -0.029293
