27

N     -2.032901   -2.223561   -0.392561
C     -2.530150   -0.910893   -0.141025
C     -3.880114   -0.633432   -0.388206
C     -4.387996    0.648485   -0.164443
C     -3.548344    1.661296    0.303124
C     -2.199614    1.393935    0.552951
C     -1.679151    0.104341    0.346399
C     -0.212604   -0.152736    0.591644
C      0.594217    0.057813   -0.693128
C      2.056203   -0.201441   -0.448194
C      2.581864   -1.493281   -0.596048
C      3.934594   -1.719666   -0.331570
N      4.730614   -0.695862    0.076159
C      4.245451    0.563643    0.239812
Cl     5.315768    1.842998    0.775696
C      2.897426    0.833633   -0.014212
H     -4.536340   -1.411295   -0.758223
H     -5.431976    0.858151   -0.358486
H     -3.942006    2.655793    0.469032
H     -1.559826    2.193251    0.906374
H      0.163593    0.533198    1.382886
H     -0.063837   -1.188729    0.967062
H      0.220424   -0.623912   -1.488717
H      0.452713    1.099449   -1.057521
H      1.950867   -2.315271   -0.910861
H      4.351152   -2.711320   -0.447112
H      2.509972    1.835412    0.126121
