27

N     -2.158844   -0.300853   -2.697771
C     -2.152793    0.107051   -1.331431
C     -2.928628    1.206096   -0.943624
C     -2.930577    1.632517    0.386549
C     -2.156740    0.963172    1.336364
C     -1.381027   -0.135989    0.959395
C     -1.374243   -0.579369   -0.375239
C     -0.487354   -1.737840   -0.771043
C      0.841847   -1.261026   -1.373953
C      1.669721   -0.499608   -0.370353
C      2.447192   -1.186342    0.573182
C      3.169432   -0.464057    1.525868
N      3.109145    0.893941    1.542247
C      2.357134    1.585555    0.645320
Cl     2.304667    3.334888    0.722026
C      1.622319    0.901927   -0.327303
H     -3.528152    1.733689   -1.674912
H     -3.529814    2.484542    0.680531
H     -2.154357    1.298897    2.365305
H     -0.776013   -0.635150    1.706347
H     -0.284618   -2.389669    0.107340
H     -1.014502   -2.373276   -1.514871
H      0.646668   -0.633421   -2.270947
H      1.414462   -2.147325   -1.724093
H      2.488516   -2.268496    0.573646
H      3.774055   -0.984135    2.256723
H      1.012503    1.454281   -1.031907
