27

N     -2.536329   -2.235077    0.561848
C     -2.335782   -0.844269    0.319480
C     -3.107380    0.089324    1.021799
C     -2.921735    1.457618    0.810831
C     -1.963544    1.900392   -0.102852
C     -1.190306    0.976318   -0.810089
C     -1.370830   -0.404217   -0.611562
C     -0.487364   -1.384794   -1.348611
C      0.693843   -1.851427   -0.485691
C      1.622589   -0.713452   -0.146888
C      2.584459   -0.284588   -1.072741
C      3.403457    0.802739   -0.759852
N      3.260030    1.444838    0.429770
C      2.330448    1.056383    1.342626
Cl     2.179480    1.929659    2.853720
C      1.493378   -0.029412    1.071223
H     -3.849568   -0.245554    1.735647
H     -3.518798    2.175247    1.358536
H     -1.816484    2.961057   -0.260330
H     -0.441998    1.337376   -1.504936
H     -1.086046   -2.270657   -1.651550
H     -0.104249   -0.931348   -2.289435
H      0.316710   -2.333227    0.442868
H      1.257804   -2.631194   -1.042399
H      2.694320   -0.783567   -2.027579
H      4.150119    1.140080   -1.466177
H      0.743778   -0.328249    1.793879
