27

N      1.872723   -0.828794    2.013065
C      2.458076   -0.275505    0.836266
C      3.830654   -0.440578    0.614314
C      4.425075    0.078649   -0.538245
C      3.650037    0.761620   -1.477547
C      2.279359    0.931621   -1.264683
C      1.671390    0.427252   -0.101677
C      0.184126    0.594238    0.091080
C     -0.571730   -0.613146   -0.471802
C     -2.054569   -0.447109   -0.276279
C     -2.668999   -0.894890    0.902278
C     -4.041013   -0.701309    1.078853
N     -4.770561   -0.073835    0.118594
C     -4.199275    0.381476   -1.028073
Cl    -5.186986    1.190606   -2.227753
C     -2.829040    0.208146   -1.244892
H      4.437501   -0.975638    1.334079
H      5.486260   -0.052953   -0.705797
H      4.111035    1.156951   -2.373490
H      1.690899    1.455657   -2.007812
H     -0.161151    1.519939   -0.420733
H     -0.049677    0.717845    1.171084
H     -0.228251   -1.542161    0.034541
H     -0.345243   -0.724607   -1.555356
H     -2.091671   -1.386542    1.675521
H     -4.525616   -1.047127    1.982079
H     -2.373355    0.580193   -2.154455
