27

N     -2.164906   -0.044286   -2.122004
C     -2.569759    0.188217   -0.774539
C     -3.921288    0.052345   -0.434844
C     -4.340865    0.259675    0.881322
C     -3.411223    0.599334    1.866117
C     -2.060164    0.737458    1.536681
C     -1.626851    0.546471    0.212912
C     -0.158556    0.668779   -0.112884
C      0.533811   -0.692960   -0.002326
C      1.997431   -0.570444   -0.330072
C      2.441290   -0.703414   -1.653831
C      3.799757   -0.553042   -1.941989
N      4.680965   -0.269446   -0.946445
C      4.277230   -0.122913    0.343534
Cl     5.456044    0.250799    1.584596
C      2.926614   -0.265412    0.675388
H     -4.647587   -0.218340   -1.191042
H     -5.386574    0.151967    1.139003
H     -3.737101    0.752495    2.886835
H     -1.350687    0.992105    2.314459
H     -0.027512    1.078396   -1.138258
H      0.324173    1.388452    0.585068
H      0.053272   -1.417383   -0.696390
H      0.411314   -1.092544    1.028760
H      1.743028   -0.919371   -2.453034
H      4.153255   -0.658334   -2.958946
H      2.604888   -0.138606    1.701930
