27

N     -2.337366   -2.342191   -0.935990
C     -2.257073   -0.986577   -0.501051
C     -3.116984   -0.036544   -1.065146
C     -3.049951    1.299925   -0.664452
C     -2.122775    1.694352    0.301863
C     -1.262012    0.753164    0.872167
C     -1.322700   -0.596658    0.482069
C     -0.346771   -1.587910    1.073905
C      0.859695   -1.822363    0.153525
C      1.680035   -0.570046   -0.022796
C      2.612263   -0.190667    0.953599
C      3.328086    0.998307    0.795889
N      3.113210    1.784855   -0.291876
C      2.209751    1.446389   -1.249753
Cl     1.962821    2.505134   -2.623394
C      1.475254    0.263107   -1.132896
H     -3.835944   -0.333229   -1.818565
H     -3.714981    2.030935   -1.105832
H     -2.067745    2.731476    0.606465
H     -0.539511    1.078866    1.610443
H     -0.861067   -2.557174    1.249892
H      0.007036   -1.237976    2.068846
H      0.514506   -2.201461   -0.833243
H      1.497368   -2.618838    0.595128
H      2.778047   -0.806282    1.828984
H      4.051185    1.298904    1.542191
H      0.745624    0.002502   -1.889969
