27

N     -1.972647   -0.195567   -2.815496
C     -2.060744    0.101591   -1.423647
C     -2.865514    1.167105   -1.002652
C     -2.959220    1.485629    0.354168
C     -2.248719    0.741312    1.297660
C     -1.444802   -0.325186    0.887425
C     -1.345904   -0.660264   -0.474860
C     -0.429549   -1.784522   -0.901035
C      0.935453   -1.262763   -1.372379
C      1.690404   -0.585307   -0.257280
C      2.405042   -1.346469    0.678801
C      3.058212   -0.703799    1.732975
N      2.991416    0.648604    1.853831
C      2.299004    1.410862    0.966218
Cl     2.234331    3.148499    1.178909
C      1.634481    0.808339   -0.105543
H     -3.416313    1.752388   -1.728345
H     -3.580444    2.312189    0.674067
H     -2.317344    0.993551    2.347946
H     -0.889700   -0.883389    1.631342
H     -0.284069   -2.504879   -0.065894
H     -0.902553   -2.357628   -1.727329
H      1.534055   -2.118950   -1.752685
H      0.798869   -0.565063   -2.227445
H      2.450655   -2.425238    0.595480
H      3.614110   -1.281569    2.459167
H      1.071491    1.416185   -0.803397
