27

N      2.639701   -1.928345    1.161937
C      2.382554   -0.697030    0.490336
C      3.202106    0.407515    0.752113
C      2.963608    1.627962    0.115855
C      1.904386    1.751350   -0.785157
C      1.082466    0.654142   -1.054553
C      1.314844   -0.581942   -0.425288
C      0.381502   -1.740869   -0.691837
C     -0.690967   -1.874485    0.398844
C     -1.604890   -0.676214    0.433995
C     -2.668730   -0.569965   -0.473352
C     -3.475107    0.570399   -0.457236
N     -3.221898    1.572603    0.425677
C     -2.192464    1.500493    1.310771
Cl    -1.903200    2.828260    2.416289
C     -1.363778    0.375253    1.331037
H      4.023009    0.321615    1.453045
H      3.598337    2.479579    0.324001
H      1.717012    2.699486   -1.272357
H      0.256875    0.771162   -1.745818
H      0.965238   -2.685126   -0.742573
H     -0.109114   -1.624415   -1.683439
H     -1.292301   -2.788101    0.199554
H     -0.206936   -2.021680    1.389111
H     -2.867118   -1.359006   -1.188071
H     -4.299721    0.661204   -1.151472
H     -0.535413    0.326156    2.027338
