27

N     -2.705350   -1.604479   -1.389989
C     -2.390959   -0.701204   -0.332369
C     -3.063953   -0.819991    0.889589
C     -2.765671    0.045205    1.944891
C     -1.792764    1.033564    1.784901
C     -1.117424    1.161343    0.568521
C     -1.411926    0.300621   -0.504002
C     -0.632296    0.423036   -1.793373
C      0.522592   -0.586503   -1.861864
C      1.553002   -0.330611   -0.791762
C      2.528119    0.661183   -0.970133
C      3.444288    0.916753    0.052731
N      3.382324    0.214774    1.215249
C      2.442570   -0.746286    1.419101
Cl     2.399924   -1.609764    2.942713
C      1.509422   -1.036492    0.419945
H     -3.816710   -1.586787    1.023550
H     -3.286753   -0.052792    2.888463
H     -1.558270    1.698923    2.605720
H     -0.355901    1.924715    0.466113
H     -1.311461    0.254622   -2.656690
H     -0.231855    1.454477   -1.908779
H      1.005169   -0.511120   -2.860587
H      0.125402   -1.621738   -1.777536
H      2.574030    1.232985   -1.888665
H      4.201881    1.678172   -0.075698
H      0.752571   -1.792606    0.589959
