24

C     -3.130311    1.297657   -1.878847
C     -2.509966    0.038522   -1.280505
C     -1.111618    0.322604   -0.720827
C     -0.491406   -0.943706   -0.120380
C      0.883913   -0.652964    0.429180
C      1.024727   -0.270492    1.774792
C      2.285307    0.032330    2.296538
C      3.415522   -0.033491    1.479456
C      3.287709   -0.397659    0.136960
C      2.028910   -0.702654   -0.394956
N      1.923692   -1.056614   -1.772342
H     -2.501896    1.679113   -2.711723
H     -3.228563    2.085913   -1.102260
H     -4.140376    1.062038   -2.275347
H     -2.446232   -0.741159   -2.070688
H     -3.170143   -0.336247   -0.468066
H     -0.458597    0.701691   -1.537825
H     -1.181953    1.105602    0.066575
H     -1.147258   -1.329879    0.691038
H     -0.433059   -1.740559   -0.893386
H      0.157176   -0.205427    2.419952
H      2.385360    0.321620    3.334721
H      4.390696    0.202707    1.885358
H      4.168364   -0.438946   -0.491820
