24

C     -3.722329    0.030786    0.819916
C     -2.714637   -0.445360   -0.222247
C     -1.285421   -0.055638    0.171169
C     -0.275813   -0.534921   -0.877507
C      1.127490   -0.144847   -0.481743
C      1.656064    1.080372   -0.924727
C      2.941971    1.475068   -0.545728
C      3.708761    0.657059    0.286278
C      3.189902   -0.555814    0.745600
C      1.902487   -0.959728    0.371507
N      1.390400   -2.195128    0.866588
H     -3.685512    1.136985    0.915097
H     -4.746455   -0.264914    0.508974
H     -3.503792   -0.430104    1.806789
H     -2.789493   -1.550797   -0.315841
H     -2.970714    0.009578   -1.203980
H     -1.218206    1.050910    0.266394
H     -1.038300   -0.510036    1.156097
H     -0.526193   -0.088877   -1.865447
H     -0.346520   -1.638094   -0.995517
H      1.071092    1.731103   -1.563057
H      3.342939    2.417855   -0.894872
H      4.703972    0.965352    0.579574
H      3.788309   -1.180811    1.396683
