24

C     -1.811837    1.378455   -0.518844
C     -2.341545   -0.013759   -0.174623
C     -1.530168   -1.141310   -0.842639
C     -0.407121   -1.705122    0.044945
C      0.716748   -0.718446    0.261013
C      1.602348   -0.446438   -0.796882
C      2.640324    0.474441   -0.633916
C      2.806314    1.133433    0.585284
C      1.934804    0.873243    1.645122
C      0.891188   -0.047654    1.492362
N      0.011127   -0.283361    2.589180
H     -2.461015    2.146512   -0.048252
H     -1.823392    1.534797   -1.618445
H     -0.779914    1.520085   -0.142474
H     -2.367285   -0.143557    0.928779
H     -3.391698   -0.072120   -0.535264
H     -2.227352   -1.979887   -1.060188
H     -1.120998   -0.811585   -1.822804
H     -0.833279   -2.058205    1.008042
H      0.010483   -2.608223   -0.451491
H      1.486056   -0.947288   -1.750147
H      3.316114    0.678001   -1.454492
H      3.610520    1.847165    0.709044
H      2.069577    1.390821    2.586689
