24

C     -1.832935    1.072843    1.010768
C     -2.252396   -0.341475    0.609399
C     -1.764866   -0.729415   -0.800483
C     -0.420193   -1.476905   -0.806492
C      0.739117   -0.595512   -0.403449
C      1.204153    0.379096   -1.304169
C      2.262299    1.221398   -0.953704
C      2.867887    1.100687    0.298079
C      2.417097    0.137114    1.202956
C      1.357266   -0.711955    0.861836
N      0.912279   -1.678041    1.811434
H     -2.225580    1.813329    0.281927
H     -0.730568    1.165004    1.064334
H     -2.249819    1.310729    2.011978
H     -1.892444   -1.069471    1.367991
H     -3.363591   -0.378527    0.622153
H     -2.520743   -1.412321   -1.246458
H     -1.716303    0.161110   -1.464914
H     -0.491408   -2.379835   -0.163467
H     -0.233408   -1.851741   -1.836560
H      0.743743    0.487577   -2.278512
H      2.612347    1.969334   -1.653369
H      3.686849    1.754893    0.567885
H      2.891218    0.052084    2.172791
