24

C     -0.448729    1.150379    1.990100
C     -1.739807    0.549464    1.433699
C     -1.574408   -0.925317    1.015055
C     -1.280424   -1.111875   -0.483536
C      0.069190   -0.566843   -0.886533
C      0.149140    0.671776   -1.548192
C      1.390388    1.203865   -1.906894
C      2.563117    0.506979   -1.610196
C      2.497990   -0.724654   -0.954608
C      1.259204   -1.265997   -0.590674
N      1.220203   -2.526363    0.075110
H     -0.632277    2.202305    2.294320
H     -0.111945    0.580249    2.881883
H      0.357390    1.143584    1.230164
H     -2.510447    0.608257    2.233040
H     -2.103296    1.165801    0.583030
H     -2.530403   -1.451454    1.228983
H     -0.796001   -1.428955    1.628610
H     -1.318937   -2.196610   -0.723048
H     -2.089387   -0.636658   -1.081041
H     -0.749423    1.230442   -1.778935
H      1.443009    2.159037   -2.413188
H      3.523459    0.921524   -1.888341
H      3.412393   -1.258935   -0.728808
