24

C      3.729621   -0.335766   -0.704729
C      2.732405    0.017486    0.394831
C      1.289935   -0.077814   -0.114598
C      0.290848    0.277221    0.991980
C     -1.125860    0.178676    0.480830
C     -1.825234   -1.034173    0.609893
C     -3.127119   -1.156632    0.116859
C     -3.739991   -0.074743   -0.518155
C     -3.050865    1.131254   -0.666237
C     -1.746078    1.263527   -0.175764
N     -1.058909    2.500367   -0.353458
H      3.624455    0.364595   -1.560609
H      4.763671   -0.258308   -0.307612
H      3.561882   -1.375436   -1.058336
H      2.937827    1.051733    0.747662
H      2.875787   -0.680943    1.248050
H      1.092038   -1.113774   -0.469082
H      1.155537    0.619636   -0.970828
H      0.490531    1.304222    1.367894
H      0.429340   -0.413301    1.853182
H     -1.361174   -1.886085    1.091560
H     -3.660023   -2.092571    0.224353
H     -4.747917   -0.172246   -0.900371
H     -3.530707    1.963076   -1.166682
