31

N     -1.199911   -1.331268   -2.137098
C     -1.902409   -0.666330   -1.089095
C     -3.257970   -0.952336   -0.889047
C     -3.974429   -0.336741    0.151151
C     -5.446337   -0.612132    0.331408
F     -5.750468   -1.908791   -0.045776
F     -6.172513    0.266484   -0.450529
F     -5.816661   -0.449402    1.655248
C     -3.321535    0.603744    0.964462
C     -1.968962    0.892469    0.768468
C     -1.248269    0.269366   -0.262489
C      0.220006    0.574332   -0.432040
C      1.072651   -0.425464    0.354900
C      2.536806   -0.123219    0.182288
C      3.184299    0.768469    1.053897
C      4.536889    1.073426    0.871896
C      5.248493    0.499224   -0.185159
C      4.607607   -0.377802   -1.064666
C      3.255167   -0.685499   -0.886300
H     -3.750411   -1.658152   -1.547040
H     -3.856888    1.115932    1.754092
H     -1.483150    1.607782    1.420832
H      0.435230    1.606394   -0.076191
H      0.495311    0.542205   -1.508848
H      0.859395   -1.459720    0.005245
H      0.803239   -0.379641    1.433380
H      2.641722    1.227341    1.871224
H      5.032525    1.757701    1.548347
H      6.294955    0.737350   -0.325395
H      5.157949   -0.816594   -1.886892
H      2.767669   -1.359128   -1.580271
