31

N      1.124950   -2.537559   -0.190948
C      1.862072   -1.332771    0.006780
C      3.231935   -1.317148   -0.280612
C      3.983748   -0.140498   -0.123907
C      5.468588   -0.142448   -0.388657
F      6.135661   -0.511591    0.764368
F      5.898882    1.115061   -0.775552
F      5.783673   -1.036043   -1.397763
C      3.349734    1.012831    0.366108
C      1.982988    1.001920    0.654410
C      1.227568   -0.169318    0.486871
C     -0.253800   -0.145443    0.774206
C     -1.044148    0.182160   -0.496187
C     -2.521489    0.201960   -0.209884
C     -3.146180    1.387706    0.211804
C     -4.512632    1.396246    0.509057
C     -5.261344    0.221357    0.397171
C     -4.643970   -0.965223   -0.008187
C     -3.277782   -0.978203   -0.306425
H      3.707893   -2.226039   -0.628478
H      3.910910    1.925043    0.525499
H      1.513160    1.909426    1.013517
H     -0.580223   -1.127426    1.181019
H     -0.475073    0.615384    1.555413
H     -0.824483   -0.573879   -1.282046
H     -0.723852    1.171580   -0.891484
H     -2.575240    2.302615    0.311537
H     -4.990402    2.313026    0.829561
H     -6.318553    0.229398    0.628900
H     -5.223363   -1.875945   -0.087956
H     -2.809230   -1.906179   -0.610308
