31

N      1.241766    2.413487   -0.740193
C      1.919323    1.231707   -0.317972
C      3.295917    1.117713   -0.544590
C      3.990704   -0.043692   -0.166844
C      5.482124   -0.140852   -0.369508
F      6.126355    0.389906    0.732303
F      5.870280   -1.460264   -0.526553
F      5.868304    0.560195   -1.498882
C      3.291782   -1.075305    0.480876
C      1.918066   -0.965921    0.709285
C      1.219800    0.188489    0.321611
C     -0.269839    0.267694    0.550274
C     -1.031533   -0.236607   -0.679106
C     -2.516939   -0.153761   -0.451952
C     -3.205706   -1.229124    0.133924
C     -4.580262   -1.137489    0.374384
C     -5.273504    0.029567    0.041445
C     -4.592544    1.108734   -0.528758
C     -3.218027    1.021319   -0.770930
H      3.821810    1.937918   -1.018224
H      3.807533   -1.968602    0.810232
H      1.397988   -1.783126    1.194010
H     -0.566719    1.315018    0.776802
H     -0.549239   -0.344174    1.436647
H     -0.753830    0.369861   -1.569330
H     -0.741432   -1.289104   -0.893333
H     -2.678357   -2.135394    0.405135
H     -5.107400   -1.970036    0.822114
H     -6.337102    0.099342    0.229443
H     -5.129167    2.014502   -0.779939
H     -2.700155    1.867998   -1.204485
