31

N     -1.903913   -0.592818   -2.823810
C     -1.881731   -0.458273   -1.404284
C     -2.866885    0.313405   -0.777310
C     -2.875796    0.467357    0.619251
C     -3.906716    1.344696    1.283866
F     -3.441279    2.645781    1.320221
F     -5.100474    1.311937    0.583914
F     -4.152467    0.917283    2.577338
C     -1.853728   -0.127230    1.376569
C     -0.869950   -0.899741    0.755650
C     -0.877702   -1.081632   -0.636695
C      0.228771   -1.878218   -1.289823
C      1.340340   -0.971632   -1.837854
C      2.036035   -0.211209   -0.737574
C      1.658949    1.109229   -0.438189
C      2.272876    1.795402    0.613909
C      3.262643    1.168672    1.375913
C      3.637902   -0.146715    1.089073
C      3.025259   -0.837301    0.038814
H     -3.622124    0.798217   -1.384078
H     -1.811025    0.010699    2.449683
H     -0.089435   -1.343793    1.361397
H      0.663160   -2.603992   -0.567268
H     -0.189212   -2.482249   -2.123731
H      0.918369   -0.268361   -2.588765
H      2.083683   -1.600943   -2.373922
H      0.883583    1.601989   -1.011784
H      1.978030    2.811640    0.841341
H      3.735889    1.700769    2.190969
H      4.400478   -0.632958    1.683602
H      3.316473   -1.860009   -0.166423
