31

N      2.183283   -1.747714   -2.031994
C      2.010324   -0.992146   -0.834976
C      2.941919    0.002690   -0.516318
C      2.802884    0.766083    0.655033
C      3.778724    1.873344    0.964786
F      5.040272    1.559989    0.489002
F      3.870476    2.076845    2.330916
F      3.347568    3.040937    0.363448
C      1.688684    0.548691    1.481463
C      0.757775   -0.444144    1.168702
C      0.912150   -1.230207    0.015427
C     -0.137823   -2.262017   -0.328564
C     -1.158111   -1.724717   -1.342538
C     -1.948594   -0.569427   -0.782814
C     -1.570681    0.754095   -1.067162
C     -2.276680    1.823464   -0.507996
C     -3.360163    1.580237    0.340524
C     -3.737490    0.266895    0.633941
C     -3.033087   -0.805626    0.078243
H      3.771605    0.182825   -1.189199
H      1.533145    1.151603    2.367310
H     -0.095811   -0.588933    1.819657
H      0.351938   -3.165077   -0.752339
H     -0.667829   -2.597718    0.590090
H     -1.855457   -2.545628   -1.617809
H     -0.637968   -1.422135   -2.277638
H     -0.724393    0.956693   -1.711962
H     -1.980902    2.840854   -0.728974
H     -3.904737    2.409197    0.773731
H     -4.573172    0.079815    1.295800
H     -3.327849   -1.818766    0.322212
