31

N     -2.214843   -2.518338    0.868077
C     -2.029955   -1.246460    0.250183
C     -2.937598   -0.216935    0.524728
C     -2.786261    1.048598   -0.066616
C     -3.735184    2.169524    0.275880
F     -3.830194    3.067952   -0.772903
F     -3.270364    2.832546    1.396201
F     -5.001387    1.675031    0.537170
C     -1.683200    1.281787   -0.903615
C     -0.776229    0.257098   -1.182086
C     -0.943596   -1.017785   -0.617790
C      0.081590   -2.094276   -0.892685
C      1.121672   -2.195242    0.232418
C      1.938130   -0.933804    0.354978
C      3.010799   -0.697652   -0.520778
C      3.739102    0.493082   -0.437029
C      3.397542    1.457860    0.514747
C      2.325986    1.234293    1.383576
C      1.596190    0.044423    1.304467
H     -3.758161   -0.405578    1.206407
H     -1.517718    2.259617   -1.338222
H      0.069273    0.463637   -1.826900
H     -0.428606   -3.075395   -1.002567
H      0.597042   -1.901663   -1.859503
H      0.615330   -2.424831    1.195446
H      1.799355   -3.049987    0.017672
H      3.277858   -1.432629   -1.270009
H      4.565552    0.669881   -1.113152
H      3.960567    2.380148    0.576334
H      2.057877    1.985081    2.115583
H      0.759430   -0.109983    1.974549
