31

N      1.189352    1.280590    2.293940
C      1.890421    0.540822    1.296340
C      3.272669    0.716868    1.163084
C      3.991098    0.025378    0.173142
C      5.487339    0.182299    0.065967
F      6.101519   -0.732586    0.900527
F      5.872276    1.459482    0.435715
F      5.911131   -0.037247   -1.233407
C      3.309129   -0.879277   -0.656782
C      1.929849   -1.058354   -0.527367
C      1.208265   -0.359248    0.452988
C     -0.286127   -0.546140    0.550177
C     -1.016463    0.499248   -0.298141
C     -2.506697    0.314826   -0.197712
C     -3.232628    0.953931    0.821431
C     -4.612359    0.755565    0.933599
C     -5.274035   -0.088174    0.037090
C     -4.556356   -0.738388   -0.970685
C     -3.176505   -0.542845   -1.086427
H      3.784482    1.396635    1.833602
H      3.842502   -1.448278   -1.407920
H      1.423606   -1.747976   -1.191749
H     -0.612877   -0.469521    1.610227
H     -0.562957   -1.565960    0.201699
H     -0.696574    0.409390   -1.359931
H     -0.741097    1.521273    0.044002
H     -2.730084    1.602758    1.528184
H     -5.168056    1.253263    1.717799
H     -6.341730   -0.241658    0.126103
H     -5.068732   -1.396821   -1.660186
H     -2.630362   -1.059854   -1.865790
