31

N      1.168484    2.449865   -0.660478
C      1.878082    1.298574   -0.207753
C      3.262997    1.232469   -0.400114
C      3.990146    0.101656    0.008301
C      5.488584    0.056822   -0.157589
F      6.086231    0.623059    0.952778
F      5.928026   -1.249196   -0.289418
F      5.876363    0.758839   -1.285811
C      3.313657   -0.947391    0.651821
C      1.931743   -0.885764    0.846104
C      1.201611    0.237814    0.427763
C     -0.295027    0.265035    0.619895
C     -1.007859   -0.280920   -0.620941
C     -2.500368   -0.249867   -0.430290
C     -3.235725    0.894964   -0.780573
C     -4.617981    0.934813   -0.572329
C     -5.272932   -0.161845   -0.005036
C     -4.546042   -1.298781    0.358915
C     -3.163636   -1.342828    0.152435
H      3.770077    2.065920   -0.871133
H      3.853379   -1.817397    1.004306
H      1.430090   -1.715876    1.328311
H     -0.573415   -0.346428    1.506865
H     -0.635176    1.303317    0.826319
H     -0.730830    0.325007   -1.511744
H     -0.674636   -1.324498   -0.815132
H     -2.738580    1.754927   -1.212240
H     -5.180895    1.817340   -0.847548
H     -6.342611   -0.128871    0.156682
H     -5.053303   -2.144797    0.804355
H     -2.610455   -2.225963    0.447460
