31

N      1.156649   -0.273775    2.482469
C      1.879943   -0.110056    1.264272
C      3.223610    0.278762    1.316620
C      3.959077    0.476329    0.135798
C      5.419456    0.847962    0.199269
F      5.791706    1.565334   -0.924554
F      5.677208    1.627202    1.313915
F      6.179379   -0.304537    0.269894
C      3.338586    0.237572   -1.101231
C      1.997992   -0.150718   -1.158378
C      1.257993   -0.336766    0.019891
C     -0.197708   -0.724529   -0.070417
C     -1.088443    0.521449   -0.071409
C     -2.540117    0.133996   -0.157524
C     -3.275457   -0.122863    1.011827
C     -4.615277   -0.514807    0.929072
C     -5.226274   -0.662309   -0.319273
C     -4.497219   -0.422171   -1.487291
C     -3.157159   -0.030067   -1.409083
H      3.691866    0.428070    2.282059
H      3.890010    0.352423   -2.026000
H      1.536721   -0.310744   -2.125273
H     -0.470954   -1.385108    0.781236
H     -0.376189   -1.308978   -1.000291
H     -0.820604    1.172256   -0.933102
H     -0.912017    1.111448    0.854980
H     -2.810861   -0.021307    1.984896
H     -5.178908   -0.707604    1.832743
H     -6.262964   -0.967007   -0.381603
H     -4.969509   -0.543262   -2.453600
H     -2.600539    0.143804   -2.321728
