31

N      1.417693   -0.950890   -2.346201
C      2.006026   -0.373255   -1.182519
C      3.368563   -0.577259   -0.935056
C      3.975351   -0.046347    0.215694
C      5.453801   -0.228379    0.452118
F      5.885301   -1.438948   -0.062094
F      6.143228    0.796187   -0.168909
F      5.739517   -0.208062    1.806417
C      3.204003    0.729389    1.096325
C      1.843999    0.935797    0.853397
C      1.233148    0.395953   -0.289388
C     -0.244739    0.606124   -0.511331
C     -1.050048   -0.548664    0.091842
C     -2.523457   -0.340407   -0.133082
C     -3.135342   -0.815346   -1.305307
C     -4.497748   -0.592375   -1.528293
C     -5.255074    0.113356   -0.589231
C     -4.650315    0.601038    0.572614
C     -3.288182    0.380317    0.799551
H      3.952377   -1.153161   -1.642960
H      3.652361    1.176132    1.974875
H      1.266277    1.522312    1.557314
H     -0.564384    1.564616   -0.045255
H     -0.459808    0.690721   -1.598958
H     -0.842028   -0.620444    1.182430
H     -0.732551   -1.510256   -0.368557
H     -2.557427   -1.355421   -2.045144
H     -4.965660   -0.963717   -2.430863
H     -6.309134    0.286210   -0.763967
H     -5.236313    1.153247    1.295900
H     -2.829434    0.771532    1.699261
