31

N      1.114118    2.281022    1.195830
C      1.845914    1.120671    0.805932
C      3.235319    1.208402    0.660271
C      3.984903    0.092700    0.250863
C      5.486734    0.180106    0.142642
F      5.963099   -0.716381   -0.798401
F      5.875814    1.452894   -0.237772
F      6.049110   -0.114686    1.370467
C      3.325186   -1.127069    0.029068
C      1.938865   -1.219419    0.173345
C      1.186671   -0.102703    0.570430
C     -0.313360   -0.220598    0.687008
C     -0.989083    0.174045   -0.629627
C     -2.485060    0.060026   -0.511535
C     -3.244275    1.148128   -0.049248
C     -4.630605    1.030150    0.091312
C     -5.266145   -0.175456   -0.218595
C     -4.515848   -1.266623   -0.665653
C     -3.129288   -1.152970   -0.807623
H      3.728369    2.150863    0.865940
H      3.881495   -2.010688   -0.257627
H      1.450952   -2.166643   -0.021516
H     -0.684678    0.425590    1.512177
H     -0.591192   -1.265994    0.947892
H     -0.712408    1.217765   -0.897061
H     -0.624751   -0.484206   -1.449243
H     -2.762578    2.084746    0.203224
H     -5.211820    1.872382    0.443882
H     -6.339043   -0.265513   -0.107996
H     -5.008273   -2.201816   -0.898901
H     -2.558139   -2.008724   -1.145929
