31

N     -1.200786   -2.487943   -0.112436
C     -1.899241   -1.253890    0.039986
C     -3.275119   -1.213747   -0.214397
C     -3.990084   -0.009473   -0.101105
C     -5.480754    0.017595   -0.329172
F     -5.846151   -0.917360   -1.282289
F     -5.886242    1.265353   -0.770593
F     -6.127731   -0.272370    0.857446
C     -3.312244    1.148879    0.312428
C     -1.939329    1.113575    0.567552
C     -1.220890   -0.085957    0.443070
C      0.267497   -0.089874    0.692613
C      1.033484    0.149020   -0.612019
C      2.517707    0.141122   -0.363195
C      3.185335    1.328596   -0.019345
C      4.558725    1.313208    0.243692
C      5.271820    0.113106    0.175118
C      4.611902   -1.074570   -0.152562
C      3.238629   -1.063672   -0.416357
H     -3.784643   -2.125304   -0.502631
H     -3.843890    2.083837    0.437572
H     -1.435677    2.024506    0.867227
H      0.577260   -1.058569    1.142077
H      0.529634    0.703513    1.427409
H      0.730333    1.125548   -1.050531
H      0.772975   -0.639883   -1.351741
H      2.642448    2.263441    0.046345
H      5.069553    2.231189    0.504149
H      6.334479    0.102721    0.380296
H      5.163865   -2.004450   -0.198746
H      2.737134   -1.992238   -0.659862
