31

N     -1.626375   -2.707772    1.470553
C     -1.751147   -1.444432    0.820895
C     -2.661951   -0.507256    1.322140
C     -2.811207    0.747131    0.706996
C     -3.753740    1.773057    1.284355
F     -4.219111    2.621785    0.294793
F     -4.844530    1.157421    1.873622
F     -3.086378    2.517433    2.238980
C     -1.999500    1.067103   -0.393202
C     -1.090901    0.134533   -0.898073
C     -0.963096   -1.131711   -0.304727
C      0.065442   -2.103265   -0.837267
C      1.369308   -2.057798   -0.027522
C      2.045756   -0.714419   -0.130471
C      2.817799   -0.395957   -1.260014
C      3.407301    0.866637   -1.376761
C      3.224298    1.820946   -0.372201
C      2.450119    1.514883    0.750320
C      1.860311    0.253143    0.871934
H     -3.248590   -0.758431    2.197561
H     -2.062422    2.042138   -0.859858
H     -0.472628    0.407318   -1.744621
H     -0.344855   -3.135513   -0.804307
H      0.284208   -1.889452   -1.906825
H      2.056227   -2.843395   -0.410850
H      1.162333   -2.307530    1.036109
H      2.957432   -1.123031   -2.050409
H      4.002330    1.106838   -2.248347
H      3.678996    2.798673   -0.465503
H      2.303217    2.256999    1.524325
H      1.251353    0.033923    1.740340
