31

N      1.100386    1.185351    2.374997
C      1.847263    0.538975    1.346245
C      3.223228    0.777614    1.250664
C      3.985362    0.179569    0.232933
C      5.475558    0.401961    0.164341
F      5.929252    0.282692   -1.138006
F      5.802176    1.667142    0.621206
F      6.112558   -0.539360    0.951025
C      3.354467   -0.696543   -0.665207
C      1.981654   -0.937838   -0.573595
C      1.216218   -0.331720    0.434994
C     -0.270747   -0.583306    0.491772
C     -1.028876    0.484383   -0.302678
C     -2.511840    0.235215   -0.242438
C     -3.279831    0.778871    0.800975
C     -4.652025    0.519417    0.874148
C     -5.264015   -0.290923   -0.086194
C     -4.504003   -0.846712   -1.119119
C     -3.131516   -0.589839   -1.196034
H      3.695889    1.432922    1.972324
H      3.922813   -1.194977   -1.440449
H      1.514854   -1.603139   -1.289652
H     -0.500140   -1.588965    0.074483
H     -0.617758   -0.587405    1.548137
H     -0.800931    1.492588    0.108400
H     -0.688154    0.475118   -1.361745
H     -2.815774    1.400660    1.556658
H     -5.240328    0.943770    1.677451
H     -6.325915   -0.491819   -0.027361
H     -4.977776   -1.479569   -1.858378
H     -2.552052   -1.034135   -1.995908
