34

C     -1.953352    1.073163   -0.775212
C     -1.797685    0.598092    0.645717
C     -2.106278    1.485827    1.692758
C     -2.002800    1.081121    3.024198
C     -1.592605   -0.214409    3.330984
C     -1.278074   -1.108876    2.307534
C     -1.370750   -0.720789    0.957730
C     -0.994447   -1.736466   -0.100771
C      0.531178   -1.866434   -0.272339
C      1.110908   -0.774950   -1.149901
C      0.790389   -0.803590   -2.521395
C      1.252477    0.187669   -3.386131
C      2.050783    1.219127   -2.900293
C      2.402763    1.254990   -1.551156
C      1.952105    0.263616   -0.661374
S      2.507889    0.336525    1.020434
N      3.392265   -1.096939    1.406032
O      3.414777    1.518750    1.218848
O      1.335262    0.476832    1.946433
H     -2.698866    0.445849   -1.306427
H     -0.980768    1.028547   -1.301148
H     -2.307834    2.124890   -0.819648
H     -2.433059    2.496369    1.480618
H     -2.243888    1.773879    3.820135
H     -1.513313   -0.525699    4.364564
H     -0.952354   -2.108655    2.567988
H     -1.484314   -1.523918   -1.072294
H     -1.391605   -2.727542    0.210928
H      0.742736   -2.842966   -0.760403
H      1.016377   -1.924375    0.720325
H      0.167644   -1.594433   -2.921618
H      0.988178    0.156749   -4.435273
H      2.407299    1.988616   -3.572897
H      3.038960    2.059432   -1.206947
