34

C     -1.983030    1.233171    0.417478
C     -1.754134    0.384597   -0.805837
C     -1.996840    0.946076   -2.072894
C     -1.824296    0.189543   -3.232685
C     -1.409730   -1.137641   -3.146146
C     -1.159865   -1.712077   -1.899533
C     -1.322770   -0.966363   -0.716932
C     -1.014232   -1.647178    0.600232
C      0.498468   -1.714824    0.884878
C      1.039186   -0.419494    1.456962
C      0.643825   -0.069718    2.763061
C      1.066884    1.124993    3.344076
C      1.899940    1.986921    2.636734
C      2.325554    1.650472    1.351822
C      1.915276    0.448799    0.747436
S      2.562935    0.057235   -0.855655
N      3.454010   -1.421264   -0.780466
O      3.490049    1.144237   -1.322941
O      1.444084   -0.071576   -1.847519
H     -1.041135    1.342036    0.988005
H     -2.762164    0.772494    1.059533
H     -2.329860    2.253849    0.149728
H     -2.325528    1.973755   -2.166830
H     -2.015116    0.633550   -4.201189
H     -1.276794   -1.722168   -4.047328
H     -0.829490   -2.742784   -1.854986
H     -1.402719   -2.688333    0.553355
H     -1.554601   -1.177337    1.446551
H      1.036739   -2.041966   -0.024737
H      0.674103   -2.516875    1.634840
H     -0.007058   -0.722983    3.331409
H      0.745282    1.383775    4.344634
H      2.226090    2.914698    3.088920
H      2.986937    2.332381    0.834203
