34

C     -2.914422   -2.111692    0.521988
C     -2.649395   -0.739503   -0.041864
C     -3.688186    0.208802   -0.037107
C     -3.496462    1.477293   -0.586735
C     -2.271047    1.813482   -1.158645
C     -1.231833    0.883049   -1.182607
C     -1.401108   -0.398510   -0.626385
C     -0.228947   -1.357616   -0.648219
C      0.611932   -1.292188    0.639825
C      1.424566   -0.016813    0.733774
C      0.808306    1.117686    1.295320
C      1.479579    2.337906    1.360599
C      2.779980    2.444724    0.874998
C      3.417931    1.329263    0.331813
C      2.759834    0.088955    0.254951
S      3.663795   -1.303347   -0.372576
N      2.847336   -2.002390   -1.723859
O      5.032284   -0.873186   -0.821722
O      3.819649   -2.331569    0.712089
H     -3.888651   -2.153293    1.054082
H     -2.939181   -2.854401   -0.302544
H     -2.127565   -2.394985    1.249086
H     -4.653048   -0.033174    0.391290
H     -4.302316    2.199783   -0.573188
H     -2.125291    2.797714   -1.584714
H     -0.285540    1.166955   -1.627040
H      0.412585   -1.141864   -1.528219
H     -0.591048   -2.397194   -0.791196
H     -0.049803   -1.375757    1.528202
H      1.268418   -2.182745    0.683905
H     -0.205307    1.060024    1.673416
H      0.988539    3.203270    1.786680
H      3.299660    3.392782    0.927397
H      4.434755    1.438540   -0.021101
