34

C      2.777366    1.205511   -1.438228
C      2.903747    0.162745   -0.358007
C      4.154477   -0.035341    0.254050
C      4.313654   -0.999044    1.251226
C      3.229545   -1.779746    1.648660
C      1.983156   -1.604797    1.045941
C      1.805034   -0.647933    0.030603
C      0.426578   -0.481984   -0.567934
C     -0.415432    0.487053    0.271192
C     -1.794150    0.655580   -0.326645
C     -1.936050    1.542321   -1.410054
C     -3.173770    1.723462   -2.027055
C     -4.287644    1.019417   -1.575812
C     -4.167775    0.129412   -0.507791
C     -2.928839   -0.071397    0.125444
S     -2.851186   -1.205522    1.485946
N     -2.529800   -0.338066    2.945042
O     -1.770466   -2.222106    1.251313
O     -4.160023   -1.929264    1.636241
H      3.687445    1.839188   -1.502899
H      1.918517    1.876099   -1.230113
H      2.630116    0.709287   -2.420188
H      5.011196    0.559326   -0.038284
H      5.280049   -1.139282    1.718153
H      3.354675   -2.522425    2.426048
H      1.152124   -2.217934    1.372419
H     -0.079048   -1.470528   -0.615530
H      0.491071   -0.122223   -1.616214
H      0.088224    1.477450    0.309407
H     -0.465773    0.134688    1.320308
H     -1.080725    2.094752   -1.780400
H     -3.268628    2.410477   -2.858068
H     -5.247562    1.162825   -2.055015
H     -5.050102   -0.402003   -0.176542
