34

C      2.426529    2.249461    0.034613
C      2.808610    0.797151    0.157171
C      4.123469    0.468483    0.533074
C      4.518175   -0.865538    0.647144
C      3.608785   -1.888742    0.384832
C      2.302641   -1.582407    0.000761
C      1.888787   -0.244767   -0.132174
C      0.454499    0.029099   -0.524273
C     -0.452698    0.039683    0.712264
C     -1.887586    0.314942    0.322387
C     -2.260730    1.652328    0.093505
C     -3.560559    1.974122   -0.296809
C     -4.506570    0.966484   -0.469272
C     -4.155930   -0.367028   -0.254933
C     -2.850405   -0.713697    0.134551
S     -2.477502   -2.425822    0.404379
N     -2.170217   -2.693717    2.083229
O     -3.638455   -3.284087   -0.013969
O     -1.275312   -2.827029   -0.401984
H      3.216791    2.915609    0.441676
H      1.494573    2.453479    0.600704
H      2.273904    2.505979   -1.034534
H      4.847507    1.246447    0.741874
H      5.531588   -1.106160    0.941595
H      3.916164   -2.922239    0.479506
H      1.609749   -2.391861   -0.193719
H      0.108008   -0.752368   -1.234480
H      0.370119    0.993438   -1.067788
H     -0.109249    0.828329    1.416605
H     -0.355490   -0.917312    1.261856
H     -1.538233    2.450408    0.215914
H     -3.834092    3.007414   -0.467278
H     -5.515175    1.218646   -0.770563
H     -4.911694   -1.128726   -0.393739
