34

C     -2.360248   -1.926730    0.156973
C     -2.762749   -0.484417    0.313953
C     -4.037571   -0.186197    0.828631
C     -4.444929    1.137923    0.997378
C     -3.586608    2.181863    0.657902
C     -2.319299    1.906131    0.143138
C     -1.893844    0.578630   -0.047856
C     -0.497762    0.344251   -0.583876
C      0.527423    0.305814    0.557521
C      1.943167    0.333872    0.021141
C      2.463470    1.580925   -0.374470
C      3.750189    1.685261   -0.901611
C      4.537997    0.546749   -1.047144
C      4.042278   -0.700360   -0.666384
C      2.747971   -0.829267   -0.131462
S      2.191865   -2.447455    0.333996
N      0.823188   -2.896221   -0.617337
O      3.280470   -3.457316    0.100181
O      1.832068   -2.468840    1.792847
H     -3.151482   -2.615779    0.521690
H     -1.443020   -2.128840    0.745708
H     -2.179541   -2.155549   -0.913845
H     -4.720377   -0.980319    1.104645
H     -5.427489    1.354675    1.396394
H     -3.902650    3.207836    0.796000
H     -1.664532    2.732229   -0.106726
H     -0.239218    1.164212   -1.290116
H     -0.446345   -0.592157   -1.174314
H      0.342890   -0.576176    1.197654
H      0.379773    1.192018    1.214254
H      1.865424    2.479066   -0.276395
H      4.135918    2.651488   -1.200294
H      5.536168    0.629650   -1.457582
H      4.677403   -1.566969   -0.793005
