34

C      2.394804    0.098659    2.282976
C      2.788432    0.229828    0.834506
C      4.079277    0.690536    0.518836
C      4.484379    0.815496   -0.811087
C      3.609664    0.479789   -1.843035
C      2.328389    0.011264   -1.549473
C      1.905413   -0.133775   -0.215949
C      0.497311   -0.619417    0.043525
C     -0.491874    0.552486    0.026137
C     -1.900745    0.069036    0.286966
C     -2.276582   -0.168961    1.622005
C     -3.551357   -0.643100    1.931188
C     -4.468938   -0.891469    0.913164
C     -4.114618   -0.669467   -0.418120
C     -2.833748   -0.196060   -0.752085
S     -2.455570    0.078360   -2.462323
N     -2.259293    1.770973   -2.747395
O     -3.572998   -0.428198   -3.330769
O     -1.195735   -0.648888   -2.836988
H      3.145950    0.566452    2.954479
H      1.423706    0.602306    2.467179
H      2.311534   -0.975302    2.551016
H      4.776237    0.957340    1.303769
H      5.478781    1.175448   -1.041754
H      3.924666    0.582994   -2.873416
H      1.661976   -0.239501   -2.365653
H      0.436263   -1.156018    1.013479
H      0.211102   -1.360737   -0.733440
H     -0.418546    1.096112   -0.936378
H     -0.208406    1.287830    0.810313
H     -1.575574    0.011778    2.428131
H     -3.827441   -0.819618    2.962784
H     -5.458244   -1.257777    1.155520
H     -4.848219   -0.868400   -1.188110
