34

C      2.988102    0.506433    1.992949
C      2.686439    0.275758    0.534572
C      3.671819   -0.313957   -0.277619
C      3.447791   -0.507492   -1.641538
C      2.243698   -0.105412   -2.216206
C      1.258132    0.491066   -1.429364
C      1.460066    0.687754   -0.050607
C      0.343363    1.308242    0.763203
C     -0.576981    0.253402    1.404058
C     -1.459622   -0.437510    0.384566
C     -0.939219   -1.562251   -0.283520
C     -1.676319   -2.210988   -1.273282
C     -2.948406   -1.754150   -1.606978
C     -3.492550   -0.653272   -0.944966
C     -2.766822    0.016944    0.055781
S     -3.556431    1.357026    0.910263
N     -2.623335    2.803220    0.772116
O     -3.724145    0.999265    2.360059
O     -4.915581    1.617036    0.323204
H      3.928806    0.001748    2.300100
H      3.102170    1.594275    2.181814
H      2.174200    0.105679    2.629370
H      4.620038   -0.624110    0.143953
H      4.212299   -0.966305   -2.255210
H      2.072845   -0.256145   -3.274308
H      0.327202    0.791029   -1.895176
H      0.767564    1.951387    1.562389
H     -0.253588    1.987697    0.119385
H     -1.187310    0.740809    2.188878
H      0.032660   -0.504836    1.940254
H      0.051005   -1.931569   -0.045295
H     -1.258327   -3.068683   -1.784324
H     -3.519339   -2.259759   -2.375108
H     -4.490222   -0.332327   -1.213410
