34

C     -2.934732   -1.911514   -0.943700
C     -2.664784   -0.681395   -0.116053
C     -3.685283    0.275312    0.031209
C     -3.489970    1.408300    0.822478
C     -2.279576    1.597013    1.486619
C     -1.259006    0.654107    1.361675
C     -1.431896   -0.490979    0.562101
C     -0.278939   -1.464893    0.433646
C      0.607953   -1.172251   -0.790363
C      1.446578    0.076648   -0.609423
C      0.871379    1.313304   -0.958747
C      1.566736    2.506062   -0.764807
C      2.850909    2.484602   -0.227500
C      3.448778    1.269635    0.108197
C      2.765811    0.054606   -0.077881
S      3.621436   -1.454799    0.295006
N      2.745120   -2.381705    1.458682
O      3.796672   -2.257182   -0.963367
O      4.980846   -1.153762    0.861499
H     -2.128003   -2.068100   -1.687164
H     -3.002126   -2.798924   -0.280339
H     -3.890170   -1.825225   -1.503759
H     -4.638674    0.144778   -0.465822
H     -4.281527    2.139467    0.924497
H     -2.131019    2.476257    2.100094
H     -0.323972    0.823120    1.881997
H      0.334947   -1.439485    1.358313
H     -0.664778   -2.503198    0.360618
H     -0.023416   -1.065858   -1.698188
H      1.249196   -2.053426   -0.986187
H     -0.129132    1.355058   -1.372178
H      1.106954    3.449433   -1.029706
H      3.389360    3.411696   -0.078520
H      4.454327    1.283299    0.507073
