34

C     -2.220726   -2.062618    0.442573
C     -2.730819   -0.648106    0.365914
C     -4.044629   -0.375047    0.788221
C     -4.551698    0.924321    0.740963
C     -3.755621    1.968678    0.274755
C     -2.450890    1.717199   -0.151294
C     -1.924590    0.412569   -0.124931
C     -0.493562    0.208547   -0.574178
C      0.481514    0.419161    0.592073
C      1.913535    0.475440    0.103229
C      2.360649    1.685830   -0.460164
C      3.658260    1.808775   -0.955641
C      4.530382    0.725027   -0.901513
C      4.108417   -0.485739   -0.351981
C      2.804650   -0.632330    0.154664
S      2.345168   -2.200945    0.842236
N      1.054025   -2.889895   -0.073189
O      1.925267   -2.032319    2.275208
O      3.511712   -3.147980    0.799203
H     -1.978104   -2.433836   -0.574775
H     -1.317817   -2.103983    1.084294
H     -2.976192   -2.748200    0.882009
H     -4.680750   -1.169128    1.159467
H     -5.563485    1.122207    1.070731
H     -4.149235    2.976539    0.245386
H     -1.846112    2.544549   -0.502472
H     -0.350452   -0.798647   -1.013725
H     -0.263519    0.931521   -1.388025
H      0.243160    1.379328    1.101707
H      0.332538   -0.369208    1.352346
H      1.696725    2.540065   -0.518655
H      3.987000    2.746423   -1.384987
H      5.536924    0.822108   -1.287673
H      4.808278   -1.310305   -0.325298
