34

C      2.859988   -0.368644    1.625241
C      2.900900    0.226012    0.241434
C      4.072167    0.877303   -0.185336
C      4.152105    1.431626   -1.463911
C      3.067350    1.341018   -2.334451
C      1.900374    0.689806   -1.932641
C      1.804324    0.113684   -0.653155
C      0.506451   -0.555298   -0.260835
C     -0.483475    0.471387    0.303176
C     -1.781825   -0.195991    0.697598
C     -1.829773   -0.856485    1.939239
C     -2.986659   -1.517106    2.352333
C     -4.111632   -1.532911    1.531236
C     -4.083387   -0.890719    0.292714
C     -2.926360   -0.222811   -0.144850
S     -2.964695    0.584829   -1.722661
N     -2.875792    2.295684   -1.499510
O     -1.812691    0.122791   -2.568743
O     -4.243553    0.260586   -2.442962
H      1.948717   -0.035238    2.162874
H      2.864087   -1.476466    1.555353
H      3.737541   -0.056094    2.230370
H      4.927767    0.960021    0.473576
H      5.057212    1.934394   -1.779525
H      3.130259    1.776663   -3.323297
H      1.066822    0.634496   -2.622040
H      0.061840   -1.053077   -1.149474
H      0.685253   -1.360948    0.481753
H     -0.648743    1.282614   -0.432988
H     -0.039716    0.961078    1.197210
H     -0.963494   -0.861463    2.589972
H     -3.009933   -2.019143    3.310972
H     -5.008919   -2.044747    1.854570
H     -4.972512   -0.916851   -0.323243
