34

C      2.745611    0.464626    1.630748
C      2.892532    0.254920    0.145942
C      4.119747    0.564926   -0.467261
C      4.297784    0.374427   -1.838549
C      3.256501   -0.130496   -2.615418
C      2.034870   -0.453464   -2.023244
C      1.839477   -0.280778   -0.641134
C      0.486822   -0.620999   -0.057609
C     -0.470915    0.570705   -0.178948
C     -1.824064    0.232953    0.405504
C     -1.974350    0.312839    1.802378
C     -3.187050   -0.012548    2.409781
C     -4.266734   -0.427012    1.633561
C     -4.137299   -0.520498    0.247324
C     -2.922768   -0.201568   -0.384712
S     -2.832567   -0.328003   -2.150814
N     -2.657851    1.248371   -2.835828
O     -1.666276   -1.186710   -2.549355
O     -4.088546   -0.950565   -2.693382
H      1.828077    1.048240    1.850176
H      2.690063   -0.518796    2.142573
H      3.606832    1.026268    2.051255
H      4.943145    0.958434    0.116025
H      5.245357    0.620888   -2.300035
H      3.395674   -0.271925   -3.679463
H      1.236607   -0.839822   -2.645051
H      0.061457   -1.497411   -0.592502
H      0.580345   -0.928812    1.004927
H     -0.047144    1.443015    0.364661
H     -0.550959    0.886325   -1.237871
H     -1.144889    0.626899    2.424694
H     -3.288926    0.055595    3.485210
H     -5.207432   -0.677395    2.106890
H     -4.993131   -0.842629   -0.330961
