34

C      2.643089   -1.985962    0.089181
C      2.875638   -0.500149   -0.002945
C      4.153663    0.008411    0.290653
C      4.410795    1.377793    0.206446
C      3.398773    2.257204   -0.174597
C      2.127048    1.770346   -0.479631
C      1.851051    0.392801   -0.413126
C      0.448461   -0.076034   -0.727549
C     -0.440335   -0.001207    0.520084
C     -1.843354   -0.471149    0.208047
C     -2.079870   -1.858022    0.178584
C     -3.343778   -2.360356   -0.130693
C     -4.389688   -1.487151   -0.419834
C     -4.175306   -0.108411   -0.403662
C     -2.908290    0.418870   -0.098837
S     -2.709980    2.180577   -0.081475
N     -2.414859    2.713958    1.535045
O     -1.563374    2.581098   -0.965401
O     -3.956873    2.850221   -0.587719
H      3.501512   -2.505069    0.566265
H      1.742724   -2.199482    0.701043
H      2.506697   -2.405935   -0.929246
H      4.955654   -0.655633    0.588837
H      5.397168    1.757929    0.439193
H      3.599625    3.319152   -0.233634
H      1.352956    2.470551   -0.768829
H      0.457795   -1.111444   -1.127943
H      0.016595    0.557853   -1.531800
H     -0.436098    1.029115    0.927217
H     -0.010821   -0.643313    1.319605
H     -1.278250   -2.554322    0.394196
H     -3.511763   -3.429501   -0.147519
H     -5.370149   -1.879142   -0.657919
H     -5.006456    0.546403   -0.629582
