34

C     -1.991413    0.473655   -0.985754
C     -1.866161    0.650784    0.504852
C     -2.289941    1.863214    1.079329
C     -2.217885    2.062002    2.458647
C     -1.724720    1.054744    3.285082
C     -1.295596   -0.153397    2.734900
C     -1.354774   -0.373920    1.346002
C     -0.853251   -1.700830    0.815521
C      0.684165   -1.754523    0.729917
C      1.219065   -1.082115   -0.518797
C      0.965773   -1.708815   -1.754774
C      1.390558   -1.132144   -2.950976
C      2.084360    0.074344   -2.934879
C      2.369473    0.701041   -1.721905
C      1.954918    0.135736   -0.502807
S      2.424732    0.952859    0.998617
N      3.397041   -0.104161    1.959318
O      3.228546    2.185392    0.691673
O      1.203042    1.362086    1.768175
H     -2.422685    1.374837   -1.471178
H     -2.661370   -0.381571   -1.212142
H     -0.994867    0.300175   -1.434441
H     -2.682670    2.659629    0.459270
H     -2.547876    2.999295    2.887764
H     -1.670040    1.211569    4.354610
H     -0.906981   -0.920002    3.394279
H     -1.312218   -1.957516   -0.160422
H     -1.187667   -2.502361    1.510385
H      1.125698   -1.349599    1.660100
H      0.992097   -2.822607    0.699037
H      0.424486   -2.646374   -1.792381
H      1.178447   -1.621393   -3.892864
H      2.411988    0.521249   -3.864690
H      2.925727    1.628718   -1.740706
