34

C     -2.934729   -2.130144    0.083323
C     -2.671858   -0.656737   -0.092859
C     -3.605313    0.119333   -0.803330
C     -3.419956    1.494427   -0.953927
C     -2.308247    2.116046   -0.388737
C     -1.376676    1.365211    0.328668
C     -1.539907   -0.023771    0.485244
C     -0.480508   -0.796085    1.243879
C      0.601379   -1.380614    0.317454
C      1.521174   -0.313401   -0.240052
C      1.126371    0.346852   -1.419202
C      1.897787    1.377343   -1.954749
C      3.080467    1.760500   -1.328075
C      3.501697    1.107699   -0.169327
C      2.739157    0.066437    0.388947
S      3.380083   -0.771147    1.816220
N      2.256049   -0.694915    3.124640
O      4.663758   -0.128252    2.261638
O      3.660444   -2.206891    1.472613
H     -3.784173   -2.471440   -0.545913
H     -3.184966   -2.339231    1.144337
H     -2.046169   -2.724209   -0.209285
H     -4.483070   -0.339336   -1.241735
H     -4.143252    2.080110   -1.506551
H     -2.167284    3.182696   -0.506552
H     -0.516695    1.867457    0.755016
H     -0.950163   -1.622273    1.817568
H     -0.010193   -0.136166    2.002708
H      1.176050   -2.144481    0.876265
H      0.124147   -1.932473   -0.520278
H      0.206596    0.070298   -1.920423
H      1.575714    1.881478   -2.856767
H      3.678331    2.560220   -1.745969
H      4.433952    1.415457    0.285212
