34

C     -2.300875   -1.938328   -0.495892
C     -2.751095   -0.510240   -0.338474
C     -4.044296   -0.154126   -0.762518
C     -4.495922    1.160834   -0.641586
C     -3.664171    2.138350   -0.098978
C     -2.379181    1.803921    0.330022
C     -1.908939    0.481576    0.229897
C     -0.496158    0.187479    0.686901
C      0.507543    0.426822   -0.449130
C      1.931796    0.389648    0.063651
C      2.420507    1.541988    0.708356
C      3.713261    1.576812    1.229879
C      4.538818    0.461180    1.121015
C      4.074963   -0.693507    0.490514
C      2.775242   -0.750949   -0.043729
S      2.260959   -2.252278   -0.834909
N      0.925546   -2.939141    0.016322
O      1.873917   -1.976995   -2.260594
O      3.384817   -3.250523   -0.833925
H     -2.092629   -2.382156    0.499756
H     -1.389241   -1.979486   -1.125171
H     -3.077074   -2.561512   -0.988854
H     -4.707215   -0.894993   -1.192281
H     -5.492286    1.423004   -0.973471
H     -4.014655    3.158767   -0.012450
H     -1.745788    2.580582    0.741367
H     -0.249737    0.847898    1.547761
H     -0.404209   -0.850302    1.064633
H      0.319720    1.426268   -0.901111
H      0.338290   -0.305610   -1.259454
H      1.792987    2.419347    0.810304
H      4.074370    2.470710    1.721959
H      5.541636    0.489793    1.527478
H      4.739099   -1.544831    0.422710
