30

N     -2.917385    2.355879    1.053338
C     -3.635510    1.230322    0.552376
C     -5.011805    1.346303    0.322370
C     -5.735262    0.263048   -0.182020
C     -5.086288   -0.940633   -0.463649
C     -3.712984   -1.066112   -0.237186
C     -2.975649    0.011538    0.284227
C     -1.487913   -0.136941    0.490373
C     -0.724379    0.324072   -0.752859
C      0.720525    0.176039   -0.549939
C      1.908096    0.054075   -0.382057
C      3.325432   -0.091942   -0.180349
C      3.964259   -1.291379   -0.524159
C      5.342031   -1.431918   -0.326887
C      6.083586   -0.376560    0.213430
C      5.448267    0.820841    0.557271
C      4.070647    0.964595    0.361262
H     -5.521418    2.278703    0.531054
H     -6.798734    0.358369   -0.359373
H     -5.647193   -1.776662   -0.861099
H     -3.223476   -2.003883   -0.469727
H     -1.164351    0.453456    1.375681
H     -1.241779   -1.200899    0.705351
H     -1.025525   -0.285656   -1.631520
H     -0.946692    1.391900   -0.963669
H      3.398573   -2.114915   -0.943233
H      5.834636   -2.358318   -0.592604
H      7.149513   -0.486550    0.365596
H      6.023050    1.637050    0.975489
H      3.587728    1.896179    0.631034
