30

N      2.884136   -2.493571    0.824051
C      3.617938   -1.336656    0.428288
C      4.991166   -1.451505    0.180099
C      5.729607   -0.336452   -0.223138
C      5.098725    0.898506   -0.384990
C      3.728624    1.023099   -0.139444
C      2.976470   -0.087785    0.281346
C      1.492226    0.063404    0.509519
C      0.715922   -0.265134   -0.767414
C     -0.725520   -0.114781   -0.542750
C     -1.910238    0.008975   -0.356976
C     -3.324157    0.156991   -0.133881
C     -3.946496    1.391671   -0.364565
C     -5.320964    1.534046   -0.146637
C     -6.075651    0.445376    0.301548
C     -5.456788   -0.787227    0.532467
C     -4.082516   -0.932916    0.315508
H      5.486720   -2.407336    0.296006
H      6.790618   -0.430905   -0.415086
H      5.671158    1.759815   -0.704350
H      3.253151    1.986238   -0.278708
H      1.264088    1.105712    0.826294
H      1.163191   -0.603602    1.336484
H      0.920220   -1.311315   -1.080282
H      1.022867    0.420842   -1.585780
H     -3.370548    2.241161   -0.711673
H     -5.800836    2.487668   -0.324987
H     -7.139004    0.556821    0.469812
H     -6.041724   -1.629213    0.879439
H     -3.612386   -1.891924    0.497490
