30

N      3.463846   -0.161959    2.968157
C      3.047002    0.537087    1.797272
C      3.177170    1.930471    1.751340
C      2.764492    2.639559    0.620718
C      2.218143    1.960138   -0.469702
C      2.086787    0.569603   -0.434270
C      2.505325   -0.157564    0.694572
C      2.313777   -1.657626    0.728313
C      1.018733   -2.051529    1.449018
C     -0.161922   -1.567440    0.722657
C     -1.118287   -1.151965    0.118407
C     -2.247841   -0.640525   -0.610407
C     -2.114012    0.521674   -1.382623
C     -3.211588    1.020230   -2.092086
C     -4.443017    0.360111   -2.031860
C     -4.578421   -0.799573   -1.261976
C     -3.482715   -1.300827   -0.551223
H      3.594984    2.465720    2.594868
H      2.864779    3.716855    0.591448
H      1.892628    2.511595   -1.342319
H      1.651545    0.059752   -1.285038
H      2.305766   -2.070833   -0.304928
H      3.174305   -2.133088    1.246349
H      1.009391   -1.636759    2.479313
H      0.961690   -3.158224    1.519020
H     -1.163835    1.040148   -1.435472
H     -3.107746    1.917652   -2.688170
H     -5.291560    0.746852   -2.581271
H     -5.531922   -1.309674   -1.216088
H     -3.597499   -2.199860    0.042365
