30

N     -3.004049    2.335404    0.963937
C     -3.679350    1.176628    0.479426
C     -5.047005    1.255070    0.189752
C     -5.728302    0.138310   -0.300067
C     -5.045424   -1.061695   -0.507419
C     -3.680429   -1.149823   -0.221033
C     -2.985858   -0.037713    0.286555
C     -1.505273   -0.147232    0.558170
C     -0.700294    0.281048   -0.670541
C      0.737626    0.170886   -0.403920
C      1.919418    0.080075   -0.183682
C      3.329811   -0.028738    0.080514
C      3.992613   -1.245573   -0.131525
C      5.363580   -1.349861    0.126347
C      6.074414   -0.240874    0.595911
C      5.415136    0.973981    0.808290
C      4.044244    1.081586    0.551388
H     -5.582485    2.184111    0.340640
H     -6.785221    0.204633   -0.523752
H     -5.573455   -1.923953   -0.893708
H     -3.163952   -2.085573   -0.396337
H     -1.229700    0.483574    1.431768
H     -1.247853   -1.196739    0.824766
H     -0.934114    1.335096   -0.932134
H     -0.953426   -0.368309   -1.535852
H      3.450795   -2.110558   -0.494936
H      5.874709   -2.289722   -0.037625
H      7.135105   -0.322853    0.795077
H      5.966146    1.831714    1.171831
H      3.542594    2.027101    0.719273
