30

N     -3.112195   -1.474852   -1.702018
C     -3.730949   -0.636670   -0.728293
C     -5.096365   -0.349031   -0.844259
C     -5.722804    0.481315    0.088124
C     -4.986998    1.032455    1.138915
C     -3.623784    0.751017    1.263153
C     -2.984145   -0.095129    0.340243
C     -1.504341   -0.359001    0.476089
C     -0.700453    0.654050   -0.341611
C      0.736827    0.396249   -0.205216
C      1.918087    0.183392   -0.092523
C      3.327845   -0.071799    0.042791
C      4.049679    0.510602    1.093848
C      5.419943    0.261048    1.224326
C      6.071210   -0.569481    0.306884
C      5.352983   -1.151652   -0.742331
C      3.982625   -0.904113   -0.875617
H     -5.672675   -0.766377   -1.660538
H     -6.778236    0.701667   -0.006855
H     -5.472553    1.681319    1.856367
H     -3.065822    1.194155    2.078881
H     -1.206782   -0.293544    1.546592
H     -1.268272   -1.392298    0.139045
H     -0.974719    0.581811   -1.415706
H     -0.913421    1.684625    0.014847
H      3.554264    1.155345    1.809882
H      5.976672    0.711093    2.036110
H      7.131423   -0.761804    0.408937
H      5.857915   -1.794394   -1.451843
H      3.435042   -1.360000   -1.691801
