30

N      3.912867   -1.290933    1.978567
C      3.346482   -0.193811    1.265175
C      3.562185    1.108516    1.732071
C      3.007635    2.199264    1.058158
C      2.233270    1.994387   -0.085306
C      2.014755    0.698760   -0.560384
C      2.573505   -0.407926    0.103900
C      2.288036   -1.804099   -0.403273
C      1.115278   -2.453231    0.341698
C     -0.138198   -1.730526    0.091931
C     -1.154726   -1.117432   -0.115819
C     -2.356564   -0.368336   -0.366959
C     -2.280411    1.003221   -0.646186
C     -3.448341    1.733078   -0.890765
C     -4.692646    1.095607   -0.857053
C     -4.770581   -0.272733   -0.578676
C     -3.604448   -1.005586   -0.333610
H      4.157138    1.275884    2.621238
H      3.175156    3.203732    1.424850
H      1.798670    2.840048   -0.602514
H      1.403164    0.557525   -1.443107
H      3.191206   -2.439418   -0.278425
H      2.070720   -1.783357   -1.494481
H      1.315141   -2.471468    1.434105
H      0.995340   -3.500410   -0.007528
H     -1.320788    1.505980   -0.674482
H     -3.389008    2.792084   -1.106287
H     -5.595651    1.661423   -1.046471
H     -5.734112   -0.765089   -0.552849
H     -3.675076   -2.065157   -0.118896
