34

C     -2.675186   -1.330723   -3.025825
C     -2.107884   -0.938808   -1.693172
C     -2.651178    0.141386   -0.986293
C     -2.145964    0.497201    0.273617
C     -2.722461    1.676733    1.007658
C     -1.092651   -0.248968    0.837238
N     -0.567380    0.121256    2.112798
C     -0.556273   -1.353522    0.140399
C      0.608254   -2.147463    0.690542
C      1.943001   -1.701376    0.076296
C      2.282002   -0.279397    0.443861
C      2.871194    0.008899    1.686104
C      3.139729    1.332712    2.047653
C      2.815785    2.376482    1.176473
C      2.222022    2.098416   -0.057691
C      1.953853    0.776185   -0.424201
C     -1.072388   -1.688418   -1.121276
H     -3.500658   -2.057475   -2.876037
H     -3.068507   -0.440929   -3.562154
H     -1.893607   -1.796284   -3.663400
H     -3.465670    0.708208   -1.421890
H     -3.560140    2.141518    0.445334
H     -3.107150    1.351201    1.997097
H     -1.934093    2.444327    1.157202
H      0.659870   -2.075211    1.798127
H      0.455045   -3.224256    0.459603
H      1.905911   -1.817475   -1.029331
H      2.748134   -2.376211    0.440187
H      3.114716   -0.790232    2.375250
H      3.594137    1.549800    3.005664
H      3.021224    3.400762    1.459376
H      1.965110    2.907902   -0.728590
H      1.480297    0.575700   -1.377404
H     -0.659095   -2.531244   -1.663215
