34

C     -3.809215   -2.516377   -0.187776
C     -3.071387   -1.215573   -0.064915
C     -3.745650   -0.059614    0.349257
C     -3.070171    1.167239    0.441224
C     -3.802866    2.394344    0.910340
C     -1.705735    1.237434    0.097808
N     -1.008787    2.479289    0.208560
C     -1.030187    0.084453   -0.354480
C      0.436938    0.124892   -0.708580
C      1.298682   -0.097009    0.538074
C      2.760978   -0.052487    0.185225
C      3.454354    1.169502    0.191151
C      4.804889    1.214355   -0.168879
C      5.468669    0.043633   -0.546049
C      4.781876   -1.173451   -0.567894
C      3.431280   -1.222793   -0.208627
C     -1.720206   -1.136006   -0.425537
H     -3.124780   -3.373798   -0.013173
H     -4.242071   -2.600190   -1.206422
H     -4.628522   -2.575120    0.560134
H     -4.796941   -0.118507    0.605746
H     -3.336064    2.774156    1.843461
H     -3.751777    3.182559    0.129901
H     -4.872931    2.179996    1.117697
H      0.691465    1.100664   -1.176929
H      0.666012   -0.660857   -1.462407
H      1.051034   -1.081281    0.993794
H      1.071983    0.684136    1.296889
H      2.948882    2.085179    0.472339
H      5.335979    2.157389   -0.158859
H      6.513612    0.080294   -0.825692
H      5.295176   -2.078294   -0.866649
H      2.907958   -2.170530   -0.238793
H     -1.202479   -2.027626   -0.759940
