34

C     -3.903017   -2.346636    0.194229
C     -3.120264   -1.103887   -0.112869
C     -3.757707    0.143388   -0.131101
C     -3.026217    1.316269   -0.374264
C     -3.725002    2.648320   -0.381120
C     -1.635513    1.237518   -0.585011
N     -0.882354    2.430778   -0.806584
C     -0.987071   -0.015265   -0.565161
C      0.507608   -0.126153   -0.746948
C      1.228576    0.053360    0.592474
C      2.718549   -0.053333    0.409771
C      3.355415   -1.302940    0.492958
C      4.735329   -1.404657    0.290207
C      5.485934   -0.263508   -0.006153
C      4.857208    0.980876   -0.104426
C      3.477539    1.087082    0.097598
C     -1.735311   -1.175249   -0.309809
H     -4.948305   -2.251963   -0.169758
H     -3.915251   -2.513232    1.291567
H     -3.446940   -3.230069   -0.301398
H     -4.824983    0.199468    0.048531
H     -4.825105    2.535255   -0.276278
H     -3.353834    3.267850    0.462187
H     -3.522299    3.174845   -1.337552
H      0.862840    0.636217   -1.474178
H      0.763583   -1.120579   -1.175596
H      0.974094    1.044975    1.027574
H      0.880893   -0.721296    1.311377
H      2.783619   -2.196117    0.712654
H      5.222246   -2.368814    0.359385
H      6.553639   -0.344187   -0.164107
H      5.438426    1.862834   -0.340660
H      3.000750    2.055536    0.009285
H     -1.237076   -2.136686   -0.262011
