34

C     -3.815979   -2.288869   -1.181076
C     -3.082142   -1.155020   -0.527391
C     -3.760843    0.024424   -0.194765
C     -3.074439    1.106907    0.377017
C     -3.816981    2.369450    0.719546
C     -1.687109    1.010135    0.602021
N     -0.979232    2.118610    1.159160
C     -0.997200   -0.173893    0.266700
C      0.495752   -0.291130    0.458431
C      1.241025    0.260977   -0.760511
C      2.729113    0.147412   -0.566915
C      3.408813   -1.016797   -0.962725
C      4.786305   -1.133805   -0.751914
C      5.491633   -0.095705   -0.136836
C      4.819893    1.059622    0.272348
C      3.442480    1.180760    0.063451
C     -1.700487   -1.241109   -0.313875
H     -3.797405   -2.154047   -2.282681
H     -4.871938   -2.322656   -0.837729
H     -3.342400   -3.261096   -0.926909
H     -4.824971    0.099318   -0.385842
H     -3.447272    3.202534    0.085482
H     -4.910029    2.260502    0.554083
H     -3.653887    2.624005    1.788041
H      0.774620   -1.357324    0.612075
H      0.808668    0.256098    1.374338
H      0.935869   -0.300127   -1.671465
H      0.963890    1.326241   -0.921076
H      2.872160   -1.832216   -1.431850
H      5.306389   -2.030841   -1.062255
H      6.557504   -0.188431    0.026784
H      5.365951    1.860028    0.754678
H      2.931931    2.077041    0.393684
H     -1.169679   -2.140995   -0.602548
