34

C      3.130873    2.251150    1.702896
C      2.374160    1.167192    0.993097
C      2.696183    0.832327   -0.328203
C      2.013279   -0.199378   -0.990356
C      2.352605   -0.528415   -2.418311
C      1.005142   -0.913186   -0.313566
N      0.298900   -1.953445   -0.991143
C      0.691865   -0.596401    1.026147
C     -0.418438   -1.306581    1.769110
C     -1.721601   -0.494487    1.758459
C     -2.274289   -0.339407    0.364710
C     -3.029573   -1.371917   -0.215721
C     -3.499846   -1.248730   -1.526819
C     -3.213690   -0.099399   -2.268778
C     -2.456082    0.928677   -1.701218
C     -1.985812    0.810707   -0.389932
C      1.383111    0.443303    1.667664
H      3.467311    3.029644    0.985376
H      2.489473    2.743005    2.464997
H      4.018752    1.813275    2.204840
H      3.476973    1.380661   -0.842134
H      2.662185   -1.592029   -2.494690
H      3.183163    0.103089   -2.799513
H      1.462888   -0.360264   -3.061130
H     -0.601771   -2.319491    1.350743
H     -0.107232   -1.461967    2.825187
H     -1.547332    0.502740    2.219367
H     -2.471692   -1.012427    2.394980
H     -3.246694   -2.272965    0.344463
H     -4.081682   -2.046763   -1.969548
H     -3.575598   -0.007210   -3.284607
H     -2.229078    1.815216   -2.279055
H     -1.387698    1.608593    0.032774
H      1.141244    0.694885    2.693858
