34

C     -3.608771   -2.802163   -0.036829
C     -2.970968   -1.443994   -0.024305
C     -3.746825   -0.299279   -0.248100
C     -3.164170    0.977075   -0.211584
C     -4.006397    2.194712   -0.477499
C     -1.789700    1.106429    0.068858
N     -1.187815    2.401646    0.087625
C     -1.010488   -0.040110    0.330719
C      0.468928    0.066268    0.612659
C      1.267733    0.071567   -0.694197
C      2.741984    0.181770   -0.412714
C      3.347954    1.443686   -0.292573
C      4.711320    1.544797    0.001687
C      5.475538    0.389409    0.187423
C      4.876738   -0.869189    0.083360
C      3.513667   -0.974840   -0.210734
C     -1.609319   -1.308575    0.275099
H     -2.878587   -3.575700   -0.357110
H     -3.973085   -3.048049    0.982409
H     -4.465377   -2.827074   -0.743717
H     -4.805024   -0.404738   -0.456812
H     -3.623759    2.724738   -1.375015
H     -3.962817    2.878599    0.396217
H     -5.069714    1.927853   -0.656726
H      0.796288   -0.789582    1.243916
H      0.683225    0.990762    1.192015
H      1.061624   -0.862419   -1.262519
H      0.942759    0.923685   -1.331117
H      2.764694    2.346647   -0.424861
H      5.174647    2.519035    0.089208
H      6.530339    0.469439    0.416424
H      5.468098   -1.763086    0.234072
H      3.059605   -1.955710   -0.279323
H     -1.012326   -2.193609    0.462630
