34

C     -3.663933   -0.797807   -1.866004
C     -2.679576   -0.523389   -0.767424
C     -2.749368    0.672594   -0.041912
C     -1.807777    0.957079    0.958906
C     -1.890244    2.251753    1.720137
C     -0.773308    0.038243    1.222726
N      0.197619    0.335768    2.227123
C     -0.687745   -1.161967    0.484098
C      0.449246   -2.138778    0.689574
C      1.557524   -1.952120   -0.356827
C      2.222742   -0.604993   -0.235138
C      1.798260    0.471466   -1.032983
C      2.380890    1.733191   -0.880954
C      3.387435    1.930107    0.068320
C      3.811040    0.866063    0.869400
C      3.229397   -0.397023    0.722364
C     -1.638885   -1.425538   -0.514003
H     -3.278287   -0.380487   -2.819523
H     -4.646549   -0.332603   -1.637710
H     -3.822544   -1.890695   -1.986543
H     -3.537417    1.383682   -0.260510
H     -0.996274    2.871584    1.497368
H     -2.797042    2.832019    1.446344
H     -1.928904    2.045591    2.810567
H      0.056305   -3.175659    0.607311
H      0.876889   -2.052440    1.711481
H      2.318523   -2.750830   -0.219001
H      1.137286   -2.085787   -1.377992
H      1.009151    0.336121   -1.762394
H      2.048620    2.559530   -1.495882
H      3.836296    2.907904    0.185886
H      4.586519    1.021303    1.608272
H      3.556805   -1.210323    1.358116
H     -1.562692   -2.333558   -1.101015
