34

C     -3.667132   -2.646746   -0.494205
C     -3.001329   -1.339627   -0.178417
C     -3.743997   -0.151838   -0.181708
C     -3.135903    1.071863    0.138726
C     -3.941817    2.341597    0.107509
C     -1.769979    1.100891    0.482173
N     -1.141639    2.346178    0.789834
C     -1.025368   -0.096703    0.522391
C      0.444869   -0.093431    0.865717
C      1.290153    0.161171   -0.385945
C      2.755329    0.168415   -0.042429
C      3.494348   -1.026349   -0.063074
C      4.847890   -1.023022    0.288391
C      5.469310    0.168789    0.671643
C      4.737138    1.358763    0.708141
C      3.383404    1.359919    0.357454
C     -1.648763   -1.308251    0.184415
H     -2.942588   -3.357044   -0.946557
H     -4.498100   -2.499581   -1.216644
H     -4.073030   -3.089038    0.439419
H     -4.796008   -0.181428   -0.440290
H     -5.003375    2.148260   -0.156492
H     -3.915391    2.826844    1.105915
H     -3.515692    3.035960   -0.646915
H      0.730925   -1.070910    1.313866
H      0.657859    0.683697    1.631858
H      1.084740   -0.627764   -1.143037
H      1.006609    1.136115   -0.840332
H      3.022196   -1.958132   -0.349141
H      5.414205   -1.945141    0.267010
H      6.516650    0.169379    0.944645
H      5.217724    2.279858    1.011609
H      2.824712    2.286833    0.398987
H     -1.077949   -2.229527    0.201047
