34

C     -2.999311   -1.686048   -2.361431
C     -2.357423   -0.951059   -1.221732
C     -2.556939    0.427021   -1.071055
C     -1.927139    1.130827   -0.033188
C     -2.142786    2.612838    0.106799
C     -1.072925    0.446632    0.853481
N     -0.415297    1.165465    1.897914
C     -0.854832   -0.939553    0.697529
C      0.110460   -1.694011    1.585299
C      1.482522   -1.867429    0.917876
C      2.168751   -0.544129    0.694180
C      2.868333    0.076131    1.742645
C      3.462070    1.327332    1.549550
C      3.355439    1.970213    0.313147
C      2.654299    1.363324   -0.732376
C      2.061139    0.111378   -0.544464
C     -1.493210   -1.623608   -0.348838
H     -3.185637   -2.746727   -2.088788
H     -2.329843   -1.651765   -3.246142
H     -3.974417   -1.224547   -2.626483
H     -3.201895    0.951609   -1.766247
H     -1.185025    3.146200   -0.069882
H     -2.506715    2.845397    1.129787
H     -2.893598    2.989015   -0.620337
H      0.230491   -1.193001    2.569782
H     -0.307227   -2.701440    1.801899
H      1.366348   -2.411260   -0.045449
H      2.119311   -2.505523    1.568559
H      2.946555   -0.405927    2.709255
H      4.000315    1.801071    2.360268
H      3.812651    2.940185    0.166532
H      2.566270    1.865200   -1.687230
H      1.508409   -0.341150   -1.358564
H     -1.309144   -2.682660   -0.488184
