34

C     -3.890230   -2.396567    0.029152
C     -3.109899   -1.114981    0.043176
C     -3.754657    0.105055   -0.198092
C     -3.038295    1.311416   -0.160411
C     -3.740596    2.610803   -0.445126
C     -1.661838    1.293895    0.138933
N     -0.924091    2.516813    0.159067
C     -1.014459    0.071954    0.418318
C      0.463826    0.020293    0.720780
C      1.276255   -0.069793   -0.574531
C      2.749824   -0.117103   -0.272622
C      3.389448   -1.348675   -0.053186
C      4.751834   -1.388441    0.259766
C      5.481406   -0.200992    0.365358
C      4.848850    1.028674    0.162280
C      3.486663    1.072985   -0.150869
C     -1.745787   -1.124958    0.361245
H     -3.243452   -3.246534   -0.276372
H     -4.734864   -2.334035   -0.689714
H     -4.292723   -2.594532    1.044455
H     -4.815121    0.112762   -0.421303
H     -3.635606    3.292095    0.425390
H     -3.290703    3.090254   -1.339890
H     -4.823908    2.458787   -0.638277
H      0.688354   -0.861348    1.361427
H      0.768671    0.920400    1.297965
H      0.978373   -0.980138   -1.140515
H      1.053777    0.807842   -1.220782
H      2.833226   -2.275366   -0.122789
H      5.241235   -2.339767    0.423896
H      6.535471   -0.233473    0.608962
H      5.413310    1.947907    0.250980
H      3.006042    2.032581   -0.296513
H     -1.250334   -2.067815    0.562242
