34

C     -3.132396   -1.106054   -3.080413
C     -2.712264   -0.589059   -1.735876
C     -3.654815   -0.005183   -0.879664
C     -3.276614    0.456782    0.390553
C     -4.295841    1.102828    1.288606
C     -1.939835    0.316141    0.812201
N     -1.545485    0.802469    2.096016
C     -0.993845   -0.303614   -0.031186
C      0.450168   -0.448432    0.385148
C      1.243945    0.810997    0.024947
C      2.682267    0.667721    0.443869
C      3.622611    0.099543   -0.431897
C      4.951741   -0.063022   -0.028658
C      5.348367    0.330541    1.252456
C      4.415520    0.883566    2.134164
C      3.085397    1.047923    1.734991
C     -1.389163   -0.745786   -1.303547
H     -3.971979   -0.503430   -3.487880
H     -2.290119   -1.051202   -3.802678
H     -3.458454   -2.162658   -2.983952
H     -4.683124    0.094243   -1.207020
H     -3.995892    2.150622    1.500819
H     -4.362312    0.541711    2.244486
H     -5.304316    1.116058    0.823005
H      0.516587   -0.638936    1.478566
H      0.903278   -1.329748   -0.120918
H      1.187035    0.988221   -1.071937
H      0.793795    1.696344    0.525851
H      3.325907   -0.218137   -1.423879
H      5.673534   -0.497403   -0.708216
H      6.377165    0.202793    1.563435
H      4.722325    1.181718    3.128371
H      2.370128    1.468901    2.430836
H     -0.663317   -1.210847   -1.960602
