34

C     -2.298699   -0.823536   -2.126541
C     -1.987985   -0.388607   -0.724727
C     -2.703129    0.662715   -0.137048
C     -2.385134    1.108716    1.155182
C     -3.157308    2.245193    1.767255
C     -1.320492    0.508525    1.855811
N     -0.973418    0.978348    3.159140
C     -0.590251   -0.544118    1.265988
C      0.599880   -1.161198    1.966094
C      1.869758   -0.316854    1.784827
C      2.283471   -0.232844    0.337373
C      2.984418   -1.293206   -0.260597
C      3.321027   -1.238691   -1.616698
C      2.954066   -0.130897   -2.385767
C      2.249118    0.924199   -1.800277
C      1.912605    0.874931   -0.444232
C     -0.927047   -0.977597   -0.026415
H     -2.082422   -1.905286   -2.257328
H     -3.371721   -0.657916   -2.361521
H     -1.677457   -0.241509   -2.838970
H     -3.506050    1.136221   -0.689795
H     -4.019348    2.543607    1.133347
H     -2.490273    3.124156    1.890543
H     -3.549807    1.942596    2.760974
H      0.781650   -2.191422    1.587751
H      0.384812   -1.263757    3.051473
H      2.692586   -0.776087    2.374727
H      1.708419    0.701317    2.201815
H      3.262726   -2.162847    0.321736
H      3.861751   -2.057876   -2.072727
H      3.212339   -0.091967   -3.436086
H      1.958859    1.778196   -2.398456
H      1.352666    1.692364   -0.006847
H     -0.349607   -1.764869   -0.497297
