34

C     -3.625254   -1.672262   -2.222291
C     -2.979951   -0.849987   -1.145712
C     -3.739032    0.071078   -0.412333
C     -3.150303    0.825191    0.614610
C     -3.973564    1.827139    1.376868
C     -1.787376    0.640585    0.919401
N     -1.178614    1.419644    1.950265
C     -1.026476   -0.311304    0.208603
C      0.441111   -0.515195    0.498597
C      1.291589    0.475021   -0.302743
C      2.754058    0.274068   -0.010176
C      3.362650    0.953324    1.058605
C      4.713756    0.740616    1.349887
C      5.462657   -0.157201    0.584040
C      4.860608   -0.847107   -0.471906
C      3.509760   -0.637395   -0.766607
C     -1.630549   -1.045038   -0.824561
H     -4.453064   -1.108980   -2.703464
H     -4.031545   -2.605707   -1.779983
H     -2.887719   -1.935678   -3.010176
H     -4.788676    0.203903   -0.647009
H     -5.030442    1.835949    1.034943
H     -3.960933    1.577087    2.458669
H     -3.551831    2.844100    1.232613
H      0.637847   -0.391084    1.585867
H      0.737571   -1.555257    0.236846
H      1.102529    0.336087   -1.390288
H      0.997720    1.517048   -0.047400
H      2.790834    1.644504    1.665506
H      5.179321    1.269243    2.171637
H      6.507931   -0.321673    0.811641
H      5.439837   -1.547177   -1.060013
H      3.052655   -1.185221   -1.581423
H     -1.047104   -1.768320   -1.382511
