34

C     -3.826353   -2.492719    0.059880
C     -3.079687   -1.195103    0.161171
C     -3.756625    0.021280    0.004406
C     -3.071888    1.240578    0.124182
C     -3.808525    2.537566   -0.070452
C     -1.694732    1.238663    0.420804
N     -0.989091    2.476235    0.524205
C     -1.015032    0.017840    0.615463
C      0.464817   -0.015671    0.912791
C      1.276220    0.004419   -0.386135
C      2.751239   -0.024844   -0.089057
C      3.457081    1.173004    0.113452
C      4.820703    1.143046    0.422022
C      5.485593   -0.080652    0.540057
C      4.786986   -1.276784    0.353846
C      3.423284   -1.251376    0.045161
C     -1.715023   -1.191100    0.476993
H     -4.221121   -2.770181    1.059481
H     -3.158354   -3.302551   -0.303516
H     -4.674042   -2.403275   -0.652515
H     -4.817460    0.016473   -0.217118
H     -4.887948    2.370808   -0.272983
H     -3.719320    3.160159    0.844643
H     -3.373386    3.088791   -0.930501
H      0.713798   -0.932910    1.491420
H      0.747458    0.850493    1.550081
H      1.029382    0.918102   -0.970629
H      1.000831   -0.872538   -1.012958
H      2.951252    2.127405    0.034137
H      5.361209    2.068514    0.573118
H      6.540725   -0.102120    0.780239
H      5.301419   -2.223972    0.452167
H      2.891253   -2.185375   -0.087395
H     -1.194663   -2.132204    0.612652
