25

N      1.126884   -1.316344   -2.662866
C      1.590899   -0.717204   -1.454742
C      2.962969   -0.741204   -1.176493
C      3.453486   -0.186580    0.006031
C      2.575048    0.390693    0.922022
C      1.204237    0.421051    0.655973
C      0.689699   -0.116080   -0.543484
C     -0.813935   -0.115397   -0.813836
C     -1.536521   -1.149833    0.048079
C     -2.111054   -0.390139    1.231126
C     -2.319719    1.043551    0.760190
C     -1.485260    1.231233   -0.506511
H      3.651512   -1.196877   -1.877225
H      4.515161   -0.210120    0.215384
H      2.956266    0.813433    1.842660
H      0.548471    0.870435    1.388728
H     -1.005476   -0.350690   -1.883503
H     -2.373157   -1.594614   -0.535661
H     -0.868093   -1.973791    0.382974
H     -1.387302   -0.409961    2.074870
H     -3.066292   -0.845294    1.572243
H     -3.395545    1.211745    0.532726
H     -2.007420    1.761724    1.549466
H     -0.748645    2.054817   -0.380529
H     -2.156213    1.515447   -1.347624
