25

N      1.366570    2.658760    0.826757
C      1.761927    1.342336    0.447007
C      3.126865    1.030321    0.420746
C      3.552976   -0.244786    0.045642
C      2.617724   -1.216827   -0.308893
C      1.253657   -0.917704   -0.286441
C      0.803101    0.362257    0.097996
C     -0.689140    0.672244    0.104292
C     -1.292045    0.631341   -1.305970
C     -2.650135   -0.030583   -1.155204
C     -2.505594   -0.974869    0.023400
C     -1.501730   -0.316053    0.959230
H      3.860691    1.779795    0.690064
H      4.609644   -0.478525    0.026936
H      2.949833   -2.203929   -0.603629
H      0.545834   -1.686139   -0.571065
H     -0.874342    1.688571    0.515653
H     -1.394816    1.654115   -1.729977
H     -0.672181    0.023971   -2.002069
H     -2.943268   -0.575732   -2.078511
H     -3.417970    0.740399   -0.922792
H     -3.482082   -1.144620    0.526662
H     -2.102232   -1.949507   -0.330312
H     -2.050702    0.239381    1.752037
H     -0.872586   -1.084217    1.459997
