25

N      1.753038   -2.418413   -1.358131
C      1.908280   -1.139567   -0.746333
C      3.188182   -0.737111   -0.345770
C      3.377680    0.496642    0.277544
C      2.287908    1.334529    0.510534
C      1.006212    0.944592    0.115527
C      0.795733   -0.290225   -0.534765
C     -0.612545   -0.730332   -0.931074
C     -1.431298   -1.147535    0.289857
C     -2.293840    0.049040    0.651870
C     -2.492736    0.839798   -0.634958
C     -1.422242    0.376367   -1.622557
H      4.038918   -1.385952   -0.513135
H      4.369636    0.800609    0.586031
H      2.435394    2.287900    1.001391
H      0.181034    1.613902    0.315553
H     -0.555938   -1.592957   -1.630295
H     -0.795972   -1.461958    1.147385
H     -2.092939   -1.999153    0.015056
H     -1.766556    0.675775    1.403727
H     -3.267225   -0.275229    1.080095
H     -2.404231    1.930670   -0.438942
H     -3.504276    0.634572   -1.049806
H     -1.916254   -0.033734   -2.531511
H     -0.785964    1.227769   -1.949708
