25

N      1.925453   -1.768112   -1.743370
C      2.030494   -0.777001   -0.723489
C      3.301945   -0.429672   -0.250337
C      3.444436    0.529587    0.753501
C      2.316533    1.146804    1.293995
C      1.043178    0.808943    0.830232
C      0.879276   -0.151609   -0.189360
C     -0.519608   -0.515004   -0.673077
C     -1.348064   -1.199732    0.421828
C     -2.751784   -0.636165    0.290516
C     -2.569232    0.767256   -0.256074
C     -1.328875    0.708925   -1.136799
H      4.183281   -0.906704   -0.660740
H      4.430282    0.792441    1.114811
H      2.428293    1.887434    2.075348
H      0.181453    1.296794    1.268353
H     -0.464264   -1.215334   -1.535000
H     -1.351076   -2.304218    0.293341
H     -0.961322   -0.966172    1.438471
H     -3.280420   -0.625379    1.268287
H     -3.333016   -1.246216   -0.436125
H     -3.462352    1.096026   -0.830415
H     -2.396021    1.473074    0.586274
H     -0.759538    1.662032   -1.072699
H     -1.639050    0.572005   -2.196734
