25

N      1.488235    2.217157   -1.611740
C      1.827497    1.097477   -0.796441
C      3.179924    0.822651   -0.558724
C      3.550966   -0.259158    0.241395
C      2.572519   -1.072733    0.812353
C      1.220416   -0.808867    0.582460
C      0.825855    0.274299   -0.230045
C     -0.655087    0.552535   -0.458763
C     -1.370466    0.964089    0.834629
C     -2.723851    0.277066    0.794285
C     -2.501994   -0.996010   -0.000531
C     -1.414002   -0.666031   -1.012928
H      3.946684    1.451360   -0.994094
H      4.598222   -0.465053    0.421371
H      2.861638   -1.908767    1.436046
H      0.477988   -1.450346    1.040523
H     -0.787855    1.379831   -1.189784
H     -0.820010    0.619601    1.737961
H     -1.488375    2.068053    0.896014
H     -3.100459    0.056845    1.816674
H     -3.456186    0.924876    0.263224
H     -2.146398   -1.800564    0.680627
H     -3.437635   -1.327781   -0.500652
H     -1.886954   -0.401304   -1.984862
H     -0.760672   -1.549226   -1.185537
