25

N      1.658984    2.289803    1.366705
C      1.910219    1.101716    0.619159
C      3.234579    0.768619    0.308972
C      3.519545   -0.381543   -0.428655
C      2.482298   -1.205917   -0.864295
C      1.157423   -0.884344   -0.561059
C      0.849937    0.268828    0.190431
C     -0.603126    0.608557    0.500440
C     -1.350015   -0.540805    1.199780
C     -2.516421   -0.913353    0.295202
C     -2.763511    0.301938   -0.578691
C     -1.399907    0.942418   -0.767505
H      4.046323    1.404907    0.639052
H      4.545537   -0.632273   -0.665311
H      2.704502   -2.095256   -1.439827
H      0.367975   -1.535821   -0.914427
H     -0.661879    1.492568    1.172385
H     -1.744517   -0.188856    2.179024
H     -0.708112   -1.427839    1.394205
H     -2.231303   -1.777695   -0.344606
H     -3.421323   -1.177618    0.884211
H     -3.439044    1.010143   -0.049447
H     -3.218617    0.016376   -1.551801
H     -1.494398    2.041624   -0.906168
H     -0.925149    0.513823   -1.677775
