25

N      1.667825   -2.646875    0.275208
C      1.913912   -1.255412    0.083472
C      3.235494   -0.821160   -0.077598
C      3.515303    0.531743   -0.276432
C      2.475600    1.460447   -0.318654
C      1.153455    1.039564   -0.159131
C      0.851288   -0.321864    0.051348
C     -0.599013   -0.762334    0.211125
C     -1.333354   -0.007122    1.332886
C     -2.509493    0.704193    0.678452
C     -2.771409   -0.040724   -0.616993
C     -1.412410   -0.542865   -1.071149
H      4.049058   -1.535399   -0.050755
H      4.539162    0.859984   -0.400927
H      2.693752    2.508698   -0.477134
H      0.361952    1.777314   -0.201156
H     -0.652530   -1.845333    0.457471
H     -0.686101    0.721093    1.869013
H     -1.717010   -0.733693    2.083434
H     -2.229310    1.756435    0.450377
H     -3.406201    0.699082    1.335344
H     -3.237431    0.621201   -1.378759
H     -3.442812   -0.905830   -0.420000
H     -0.947392    0.225074   -1.728196
H     -1.512336   -1.486216   -1.651246
