25

N      1.670306   -1.447700   -2.231039
C      1.912593   -0.610203   -1.102594
C      3.236026   -0.299561   -0.766253
C      3.513316    0.509755    0.336602
C      2.469577    1.012284    1.113345
C      1.145531    0.709610    0.787847
C      0.844817   -0.099313   -0.327638
C     -0.606146   -0.427806   -0.658868
C     -1.481354    0.827331   -0.821947
C     -2.584255    0.725199    0.222437
C     -2.677781   -0.746435    0.579117
C     -1.265885   -1.284477    0.429648
H      4.053259   -0.688737   -1.360741
H      4.538721    0.745031    0.591006
H      2.686289    1.636296    1.970772
H      0.351579    1.106063    1.408317
H     -0.669186   -0.995851   -1.612696
H     -0.915124    1.776641   -0.700037
H     -1.938145    0.835046   -1.836689
H     -2.297795    1.307703    1.125963
H     -3.552152    1.108267   -0.167501
H     -3.062094   -0.890069    1.612211
H     -3.352293   -1.261885   -0.140149
H     -1.279691   -2.358888    0.143535
H     -0.740114   -1.188300    1.405351
