25

N      1.421654    2.745096   -0.698441
C      1.727158    1.361655   -0.535338
C      3.009483    0.912194   -0.873272
C      3.339835   -0.437726   -0.750151
C      2.388558   -1.349308   -0.294045
C      1.106018   -0.913424    0.046431
C      0.757634    0.450767   -0.051383
C     -0.657335    0.918132    0.285420
C     -1.653458    0.508008   -0.798380
C     -2.334627   -0.752392   -0.294171
C     -2.266964   -0.697754    1.226758
C     -1.195564    0.327510    1.596913
H      3.751522    1.611343   -1.238410
H      4.332530   -0.778427   -1.014758
H      2.643938   -2.397521   -0.206648
H      0.389188   -1.645630    0.391300
H     -0.676312    2.025614    0.382170
H     -1.169790    0.338547   -1.785904
H     -2.417707    1.308271   -0.916875
H     -3.386821   -0.806969   -0.649014
H     -1.788041   -1.646481   -0.665604
H     -2.016548   -1.698600    1.641315
H     -3.251546   -0.380315    1.635734
H     -1.657284    1.134190    2.208884
H     -0.395521   -0.136781    2.214269
