24

C      2.541891    0.057041   -1.730749
C      1.979357   -0.639793   -0.492235
C      1.734845    0.331637    0.675418
C      0.525486    1.261399    0.473083
C     -0.784407    0.504668    0.477870
C     -1.302826    0.040939    1.700222
C     -2.500872   -0.677076    1.736293
C     -3.193780   -0.941994    0.554006
C     -2.690472   -0.489490   -0.667593
C     -1.490809    0.231105   -0.714636
N     -1.002551    0.678307   -1.977199
H      1.805387    0.768858   -2.155072
H      3.476373    0.601683   -1.478223
H      2.775535   -0.702349   -2.506380
H      2.717641   -1.402309   -0.162036
H      1.045504   -1.179645   -0.756189
H      1.585549   -0.260034    1.604889
H      2.644035    0.951525    0.834780
H      0.648138    1.862078   -0.451366
H      0.509692    1.996483    1.307170
H     -0.776493    0.235524    2.626662
H     -2.891674   -1.029437    2.682140
H     -4.121405   -1.498878    0.584010
H     -3.234144   -0.700243   -1.580091
