24

C     -1.914878    1.029204    0.871330
C     -2.314536   -0.164988    0.004299
C     -1.490088   -1.429005    0.320753
C     -0.284043   -1.628700   -0.613368
C      0.775348   -0.567204   -0.434925
C      0.874907    0.479345   -1.369369
C      1.832494    1.484009   -1.207629
C      2.699764    1.455194   -0.114019
C      2.612570    0.420989    0.820741
C      1.656259   -0.590032    0.667779
N      1.590110   -1.636041    1.634631
H     -2.553606    1.900826    0.616208
H     -0.857040    1.311784    0.702501
H     -2.059743    0.789950    1.946281
H     -2.228535    0.107065   -1.070049
H     -3.387154   -0.380864    0.202226
H     -1.162997   -1.435912    1.383289
H     -2.153607   -2.311974    0.191834
H     -0.634624   -1.659122   -1.668561
H      0.164298   -2.625304   -0.410222
H      0.205100    0.522683   -2.219219
H      1.900298    2.287303   -1.929833
H      3.440165    2.234941    0.009559
H      3.289537    0.405853    1.665763
