24

C      1.705238    0.480863    1.437176
C      2.339192    0.050636    0.114169
C      1.661842   -1.193395   -0.493724
C      0.553280   -0.861308   -1.507495
C     -0.661884   -0.238673   -0.860192
C     -1.518497   -1.046871   -0.091787
C     -2.639959   -0.497002    0.534265
C     -2.919166    0.864044    0.400594
C     -2.077702    1.679109   -0.359729
C     -0.951097    1.138212   -0.991166
N     -0.104980    1.998202   -1.751151
H      2.261927    1.349595    1.847302
H      0.648664    0.781947    1.297259
H      1.753441   -0.347437    2.175616
H      3.405846   -0.190164    0.315545
H      2.325589    0.899881   -0.602492
H      1.270643   -1.863895    0.302677
H      2.439449   -1.773212   -1.037548
H      0.240104   -1.805397   -2.004535
H      0.964223   -0.216327   -2.313075
H     -1.314884   -2.104325    0.024059
H     -3.292666   -1.126996    1.124649
H     -3.787962    1.288128    0.887241
H     -2.300642    2.734388   -0.456081
