24

C     -1.998496    0.933438    0.766099
C     -2.271542   -0.502531    0.318018
C     -1.607136   -0.841714   -1.030860
C     -0.220800   -1.494018   -0.891248
C      0.823020   -0.538363   -0.361663
C      1.314146    0.475031   -1.203830
C      2.266149    1.385181   -0.737683
C      2.738520    1.294362    0.572617
C      2.260289    0.292925    1.420502
C      1.306069   -0.624182    0.963444
N      0.828890   -1.628169    1.856410
H     -0.917730    1.101348    0.940253
H     -2.537737    1.131884    1.716173
H     -2.360219    1.652077    0.000323
H     -1.946387   -1.211275    1.109826
H     -3.372153   -0.616727    0.208913
H     -1.548869    0.056580   -1.683959
H     -2.260145   -1.570959   -1.558484
H      0.103042   -1.844760   -1.895509
H     -0.298323   -2.406044   -0.261936
H      0.956324    0.560968   -2.222489
H      2.637200    2.162489   -1.393113
H      3.475328    2.001087    0.931966
H      2.630561    0.231373    2.436232
