24

C     -1.808943    1.049654   -1.054128
C     -2.319729    0.055187   -0.011201
C     -1.590975    0.188446    1.341114
C     -0.424444   -0.799784    1.513195
C      0.718857   -0.524954    0.565431
C      0.880821   -1.326365   -0.579065
C      1.917824   -1.071955   -1.480388
C      2.803051   -0.017365   -1.249767
C      2.654391    0.785494   -0.116509
C      1.618344    0.538971    0.792295
N      1.490407    1.371566    1.942830
H     -2.382231    0.923315   -1.996553
H     -1.949456    2.091013   -0.694159
H     -0.735930    0.884361   -1.274802
H     -2.235283   -0.979733   -0.407991
H     -3.401602    0.257988    0.145996
H     -1.243054    1.231516    1.505348
H     -2.324605   -0.027500    2.148373
H     -0.051858   -0.734500    2.558382
H     -0.798562   -1.839434    1.385031
H      0.198698   -2.143447   -0.778689
H      2.033452   -1.691743   -2.360133
H      3.605057    0.178238   -1.949763
H      3.345772    1.601030    0.055154
