24

C      2.132476    0.803534    0.501697
C      2.156826   -0.722955    0.419214
C      1.458579   -1.258946   -0.846788
C     -0.007319   -1.665764   -0.617342
C     -0.897716   -0.487997   -0.299565
C     -1.289819   -0.252078    1.030457
C     -2.093004    0.846529    1.347382
C     -2.513201    1.719810    0.342502
C     -2.132125    1.496521   -0.982595
C     -1.327209    0.398868   -1.310251
N     -0.954712    0.191873   -2.671027
H      1.093963    1.186611    0.547743
H      2.666339    1.132280    1.418049
H      2.643562    1.244803   -0.380246
H      1.701986   -1.154673    1.337022
H      3.221715   -1.042252    0.400572
H      1.532275   -0.528895   -1.682020
H      2.002959   -2.170037   -1.178566
H     -0.386111   -2.169217   -1.533065
H     -0.057694   -2.425316    0.193710
H     -0.966469   -0.913982    1.824241
H     -2.387696    1.022338    2.373884
H     -3.134649    2.570544    0.590546
H     -2.462956    2.178401   -1.756007
