24

C      1.836027    1.131094   -0.813834
C      2.319565    0.255299    0.342243
C      1.717619   -1.163270    0.306559
C      0.442100   -1.315845    1.153138
C     -0.733249   -0.559473    0.578897
C     -1.365202   -1.050735   -0.577267
C     -2.442767   -0.364256   -1.142574
C     -2.901589    0.818800   -0.561085
C     -2.284179    1.318673    0.587573
C     -1.203431    0.638630    1.162069
N     -0.586859    1.180186    2.328101
H      2.090726    0.660573   -1.787198
H      0.741661    1.293804   -0.764160
H      2.336478    2.120807   -0.760754
H      3.425393    0.172538    0.261100
H      2.099450    0.755511    1.309891
H      1.530037   -1.490874   -0.739554
H      2.473043   -1.864541    0.723883
H      0.650847   -1.014164    2.201588
H      0.177372   -2.395021    1.194739
H     -1.020065   -1.965974   -1.042357
H     -2.921861   -0.749703   -2.033289
H     -3.735909    1.349510   -1.001238
H     -2.645208    2.238431    1.030634
