24

C     -3.736483    0.558206    0.322596
C     -2.697558   -0.528718    0.062803
C     -1.286506    0.063563   -0.023536
C     -0.245467   -1.030385   -0.284794
C      1.139634   -0.436815   -0.369747
C      1.644376   -0.033924   -1.618627
C      2.912336    0.545492   -1.716283
C      3.684494    0.737847   -0.569064
C      3.188837    0.355724    0.679758
C      1.919518   -0.225397    0.787737
N      1.430550   -0.592429    2.076050
H     -3.730179    1.302960   -0.501655
H     -3.524449    1.072807    1.284014
H     -4.746626    0.100742    0.380026
H     -2.947053   -1.043960   -0.890413
H     -2.741937   -1.272914    0.887762
H     -1.249825    0.809501   -0.848318
H     -1.046034    0.581396    0.931269
H     -0.285304   -1.792544    0.523565
H     -0.488925   -1.555759   -1.234732
H      1.054684   -0.167431   -2.517263
H      3.295123    0.848742   -2.682221
H      4.665742    1.187963   -0.646909
H      3.791052    0.515336    1.565468
