24

C      1.915524    1.346165    0.062003
C      2.316745   -0.128614    0.021877
C      1.526601   -0.985114    1.031668
C      0.301061   -1.685932    0.420184
C     -0.774682   -0.715452   -0.006277
C     -0.919642   -0.392792   -1.367615
C     -1.892918    0.521715   -1.778584
C     -2.730800    1.122786   -0.837501
C     -2.598439    0.810405    0.517436
C     -1.626083   -0.104289    0.939278
N     -1.513684   -0.408007    2.327959
H      2.093020    1.765871    1.074965
H      2.529600    1.915769   -0.666865
H      0.848148    1.479231   -0.203285
H      2.197436   -0.520979   -1.011297
H      3.398292   -0.190305    0.272353
H      1.227357   -0.382897    1.916996
H      2.204344   -1.781595    1.409553
H      0.624730   -2.314502   -0.438537
H     -0.121542   -2.387418    1.171731
H     -0.273096   -0.842723   -2.110786
H     -1.995703    0.766554   -2.827845
H     -3.483430    1.831445   -1.158159
H     -3.252840    1.280679    1.240746
