24

C      1.857779    1.376384   -0.326032
C      2.340861   -0.065908   -0.171871
C      1.497706   -1.066394   -0.986774
C      0.352260   -1.707926   -0.184704
C     -0.740762   -0.723468    0.160901
C     -1.611255   -0.282981   -0.851833
C     -2.620230    0.640684   -0.567602
C     -2.771982    1.134549    0.729062
C     -1.915203    0.705964    1.745295
C     -0.900653   -0.219278    1.471182
N     -0.034756   -0.628874    2.527368
H      0.828794    1.499376    0.064660
H      1.880512    1.678893   -1.394522
H      2.528467    2.052671    0.244595
H      3.390633   -0.109141   -0.535738
H      2.356231   -0.343849    0.904009
H      2.169000   -1.890170   -1.314438
H      1.104793   -0.594636   -1.914096
H      0.761503   -2.201070    0.722580
H     -0.091136   -2.521970   -0.798841
H     -1.505627   -0.654423   -1.863743
H     -3.284545    0.974638   -1.354134
H     -3.553694    1.850776    0.946832
H     -2.038698    1.096151    2.747842
