24

C     -1.992705    0.587632   -1.081227
C     -2.304601   -0.080420    0.258172
C     -1.498090   -1.376505    0.475658
C     -0.214280   -1.173356    1.298804
C      0.815397   -0.335745    0.578319
C      0.984701    1.014673    0.933384
C      1.914947    1.811979    0.261499
C      2.685188    1.271427   -0.769764
C      2.528055   -0.068464   -1.131643
C      1.598389   -0.875416   -0.464829
N      1.459575   -2.240836   -0.851704
H     -2.615628    1.499959   -1.192633
H     -2.227139   -0.102535   -1.919356
H     -0.927083    0.884203   -1.143465
H     -3.388103   -0.329923    0.265825
H     -2.129180    0.640556    1.085852
H     -2.139387   -2.088461    1.039900
H     -1.263538   -1.867470   -0.493855
H      0.224663   -2.168504    1.527948
H     -0.472497   -0.718342    2.280409
H      0.390075    1.453340    1.725063
H      2.036743    2.850986    0.539147
H      3.404547    1.891195   -1.289265
H      3.129952   -0.479973   -1.932239
