27

N      1.620032   -0.758447    2.565614
C      2.371103   -0.638903    1.359310
C      3.669673   -1.160194    1.309427
C      4.420365   -1.069304    0.134908
C      3.875568   -0.461062   -0.997622
C      2.580440    0.062379   -0.957456
C      1.819736   -0.008972    0.222767
C      0.411755    0.533957    0.232593
C     -0.591632   -0.562952   -0.134929
C     -1.991788   -0.023100   -0.120452
C     -2.528981    0.605996   -1.253562
C     -3.822997    1.127818   -1.197698
C     -4.562746    1.026573   -0.018198
C     -3.992191    0.404416    1.094467
N     -2.730478   -0.098026    1.021642
H      4.096855   -1.640289    2.181003
H      5.423183   -1.475166    0.101142
H      4.456057   -0.397974   -1.908980
H      2.169414    0.522548   -1.847652
H      0.326863    1.373656   -0.492547
H      0.168617    0.949191    1.235046
H     -0.355049   -0.968798   -1.143393
H     -0.514878   -1.400803    0.592288
H     -1.951565    0.692153   -2.165722
H     -4.250308    1.612610   -2.065919
H     -5.565960    1.429237    0.034685
H     -4.551087    0.323456    2.017118
