27

N     -2.209309   -2.635377   -0.802743
C     -2.211574   -1.332196   -0.223908
C     -3.025975   -1.079899    0.886644
C     -3.037896    0.185412    1.478290
C     -2.235132    1.205232    0.963906
C     -1.420493    0.963589   -0.145176
C     -1.403767   -0.303781   -0.754506
C     -0.480143   -0.556241   -1.924300
C      0.828795   -1.226846   -1.485548
C      1.641723   -0.327679   -0.596478
C      1.575132   -0.447762    0.800166
C      2.306085    0.433865    1.598561
C      3.089389    1.423874    1.003063
C      3.126954    1.519297   -0.389756
N      2.406157    0.653588   -1.151630
H     -3.648219   -1.866605    1.294662
H     -3.667386    0.374508    2.338204
H     -2.240858    2.183280    1.427411
H     -0.794449    1.762439   -0.523398
H     -0.251333    0.396305   -2.451637
H     -0.989215   -1.208211   -2.666447
H      1.426328   -1.469069   -2.390788
H      0.611379   -2.189585   -0.973239
H      0.957295   -1.207300    1.263062
H      2.262246    0.352394    2.676889
H      3.658627    2.112297    1.614103
H      3.725641    2.284468   -0.865406
