27

N     -1.489602    1.239536   -2.363704
C     -2.314568    0.731177   -1.317487
C     -3.675705    0.515716   -1.565280
C     -4.501849    0.004187   -0.561726
C     -3.971151   -0.299193    0.693544
C     -2.613915   -0.087345    0.950429
C     -1.774513    0.441139   -0.045965
C     -0.305781    0.630664    0.244181
C      0.488285   -0.615698   -0.157208
C      1.949244   -0.424438    0.127576
C      2.475492   -0.710659    1.396205
C      3.832728   -0.490406    1.639707
C      4.646988    0.017936    0.626161
C      4.087162    0.302871   -0.621254
N      2.763187    0.081971   -0.840260
H     -4.093704    0.741193   -2.538449
H     -5.553068   -0.161896   -0.758863
H     -4.611322   -0.702239    1.467660
H     -2.216383   -0.336839    1.926578
H     -0.159039    0.831729    1.328694
H      0.080939    1.518396   -0.302468
H      0.350022   -0.815447   -1.242433
H      0.108899   -1.500869    0.399767
H      1.841702   -1.096757    2.184942
H      4.251830   -0.710234    2.613078
H      5.699749    0.193005    0.806205
H      4.704372    0.702500   -1.414695
