27

N     -1.777272    2.548590   -0.429788
C     -2.458673    1.295921   -0.438758
C     -3.852155    1.276068   -0.303369
C     -4.541528    0.061172   -0.293863
C     -3.841480   -1.140768   -0.414929
C     -2.450647   -1.131097   -0.550768
C     -1.746082    0.085285   -0.577050
C     -0.241472    0.069504   -0.691846
C      0.405076    0.060236    0.696303
C      1.901293    0.049109    0.580990
C      2.600063   -1.159086    0.438640
C      3.989317   -1.133927    0.299948
C      4.665213    0.087485    0.295730
C      3.936548    1.271664    0.427660
N      2.583855    1.227835    0.561720
H     -4.401934    2.203398   -0.201281
H     -5.618604    0.051246   -0.187479
H     -4.376611   -2.081477   -0.400113
H     -1.922018   -2.072772   -0.634103
H      0.083489   -0.830731   -1.259391
H      0.107883    0.955087   -1.266426
H      0.064720   -0.832960    1.265550
H      0.088432    0.962646    1.263860
H      2.074513   -2.105995    0.433147
H      4.540562   -2.059154    0.192671
H      5.741690    0.116706    0.187493
H      4.445824    2.226018    0.420507
