27

N      2.296372   -2.640082    0.476850
C      2.185559   -1.380585   -0.182488
C      2.729952   -1.230462   -1.463630
C      2.625096   -0.009907   -2.134785
C      1.974644    1.067010   -1.529628
C      1.429838    0.927417   -0.250647
C      1.533998   -0.293827    0.438920
C      0.896695   -0.436691    1.802251
C     -0.487043   -1.095610    1.720848
C     -1.467829   -0.235430    0.973888
C     -1.721886   -0.453487   -0.388968
C     -2.602507    0.392942   -1.065027
C     -3.215992    1.445139   -0.383250
C     -2.934882    1.637459    0.971169
N     -2.072222    0.804693    1.612863
H      3.232075   -2.062078   -1.942024
H      3.045448    0.100124   -3.126079
H      1.888793    2.010144   -2.053628
H      0.917420    1.769204    0.198759
H      0.807136    0.556490    2.295560
H      1.551729   -1.051209    2.456697
H     -0.405308   -2.097568    1.245455
H     -0.866745   -1.256480    2.752897
H     -1.236149   -1.261668   -0.921692
H     -2.805879    0.236026   -2.116393
H     -3.899322    2.106887   -0.899465
H     -3.398992    2.451553    1.511547
