34

C      4.489606   -1.186383   -0.841509
C      3.347683   -0.339605   -0.363109
C      3.380570    1.052704   -0.533250
C      2.330843    1.844072   -0.060453
C      1.248906    1.254869    0.597708
C      1.212721   -0.135035    0.795388
C      0.031671   -0.777686    1.477191
C     -0.937571   -1.424277    0.473525
C     -1.668247   -0.392456   -0.362354
C     -1.029107    0.090674   -1.520224
C     -1.619700    1.081952   -2.302765
C     -2.861021    1.602827   -1.947761
C     -3.520801    1.127981   -0.813996
C     -2.943463    0.129677   -0.009376
S     -3.874757   -0.475880    1.374335
N     -2.981711   -0.283774    2.839575
O     -4.199074   -1.928185    1.165334
O     -5.163602    0.286426    1.505877
C      2.267933   -0.927507    0.314399
H      5.241549   -1.283889   -0.030906
H      4.132641   -2.198377   -1.128740
H      4.972625   -0.728192   -1.730789
H      4.216350    1.524760   -1.034845
H      2.355596    2.916434   -0.204945
H      0.437154    1.880636    0.947609
H     -0.504127   -0.029716    2.098259
H      0.401194   -1.562492    2.172545
H     -0.375919   -2.117559   -0.190840
H     -1.650236   -2.066166    1.026593
H     -0.060550   -0.295637   -1.813691
H     -1.111827    1.448376   -3.185566
H     -3.318160    2.371763   -2.557182
H     -4.491260    1.540516   -0.572226
H      2.244092   -2.000850    0.462263
