34

C     -4.298987   -1.978227   -0.936973
C     -3.628299   -0.718322   -0.475695
C     -4.332318    0.495371   -0.469404
C     -3.693968    1.676862   -0.083644
C     -2.347863    1.657972    0.289811
C     -1.629712    0.451894    0.284831
C     -0.167310    0.438552    0.640325
C      0.692120    0.675283   -0.606576
C      2.163720    0.606548   -0.264886
C      2.762411    1.748993    0.297724
C      4.108744    1.743380    0.662351
C      4.877015    0.596635    0.475985
C      4.301488   -0.549942   -0.072832
C      2.945442   -0.567234   -0.443051
S      2.282534   -2.053105   -1.147456
N      1.889805   -1.781533   -2.807793
O      1.051902   -2.477179   -0.397698
O      3.293176   -3.162978   -1.068533
C     -2.271209   -0.731474   -0.116823
H     -4.160815   -2.089865   -2.032640
H     -5.385987   -1.950122   -0.709614
H     -3.864264   -2.862936   -0.424749
H     -5.373276    0.527572   -0.766689
H     -4.241684    2.610419   -0.081289
H     -1.863252    2.583375    0.575787
H      0.042700    1.228154    1.395192
H      0.097148   -0.534724    1.107224
H      0.459065    1.680149   -1.023673
H      0.423906   -0.052177   -1.398219
H      2.181047    2.649222    0.456799
H      4.556641    2.630258    1.091788
H      5.922037    0.595104    0.758072
H      4.922439   -1.425520   -0.208547
H     -1.714396   -1.660404   -0.151426
