34

C      4.085133    0.229834   -2.481978
C      3.538704    0.207623   -1.085239
C      4.314046    0.680294   -0.015586
C      3.787998    0.702474    1.278635
C      2.483167    0.262107    1.513831
C      1.694368   -0.209957    0.453011
C      0.272647   -0.638992    0.697574
C     -0.681056    0.552790    0.557827
C     -2.116610    0.116235    0.746736
C     -2.589486   -0.037775    2.063099
C     -3.894538   -0.465172    2.307574
C     -4.746072   -0.750228    1.242853
C     -4.295210   -0.612023   -0.070423
C     -2.982434   -0.186979   -0.339085
S     -2.479953   -0.019491   -2.031097
N     -2.224856    1.649628   -2.396714
O     -3.545807   -0.553966   -2.946375
O     -1.214428   -0.791390   -2.274100
C      2.221972   -0.217798   -0.848825
H      5.188022    0.097062   -2.474132
H      3.840673    1.202119   -2.958359
H      3.645188   -0.591218   -3.087282
H      5.323397    1.035029   -0.184051
H      4.390310    1.068755    2.099966
H      2.084943    0.295523    2.520461
H      0.181869   -1.073527    1.717544
H     -0.007624   -1.438707   -0.021526
H     -0.425486    1.315389    1.326701
H     -0.531949    1.047507   -0.422407
H     -1.941455    0.172719    2.905388
H     -4.245539   -0.576837    3.325370
H     -5.758963   -1.080090    1.434918
H     -4.978922   -0.837991   -0.877958
H      1.607948   -0.552950   -1.676351
