34

C      4.497226    0.341947   -1.396479
C      3.341781    0.164047   -0.456701
C      3.338461    0.809072    0.789298
C      2.276162    0.619531    1.676621
C      1.217922   -0.225385    1.334350
C      1.218708   -0.896055    0.100530
C      0.061741   -1.781823   -0.286133
C     -0.910383   -1.077801   -1.247089
C     -1.651614    0.062058   -0.577661
C     -1.039109    1.329665   -0.562736
C     -1.644511    2.408739    0.079878
C     -2.873741    2.242905    0.712373
C     -3.505088    0.998783    0.700180
C     -2.910789   -0.104022    0.062235
S     -3.796882   -1.640557    0.035149
N     -5.227500   -1.535821    0.999799
O     -2.941062   -2.746368    0.582968
O     -4.196028   -1.963361   -1.377063
C      2.285942   -0.698508   -0.790950
H      5.262312   -0.435741   -1.191923
H      4.160975    0.251328   -2.451363
H      4.956816    1.345147   -1.268290
H      4.155589    1.461311    1.071872
H      2.272646    1.129213    2.631431
H      0.395603   -0.352144    2.027676
H     -0.477837   -2.123732    0.621897
H      0.456582   -2.694341   -0.783482
H     -1.618720   -1.824915   -1.655976
H     -0.348069   -0.696670   -2.128056
H     -0.080281    1.481124   -1.043625
H     -1.157990    3.375567    0.088292
H     -3.342989    3.082563    1.208778
H     -4.465754    0.905100    1.187696
H      2.289882   -1.210858   -1.745924
