34

C      3.067527    1.838466    1.317097
C      2.765507    0.563042    0.588081
C      3.520827   -0.592135    0.840169
C      3.205377   -1.792696    0.198864
C      2.126820   -1.853296   -0.686887
C      1.354831   -0.708831   -0.940287
C      0.155569   -0.789482   -1.849990
C     -1.068656   -1.396346   -1.144061
C     -1.624681   -0.479683   -0.072398
C     -1.048634   -0.540325    1.211085
C     -1.467890    0.319725    2.225080
C     -2.475414    1.248371    1.978874
C     -3.074291    1.314017    0.720586
C     -2.665947    0.457866   -0.317525
S     -3.525350    0.548583   -1.867352
N     -2.425697    0.889409   -3.154148
O     -4.225653   -0.754515   -2.131103
O     -4.554860    1.643098   -1.826331
C      1.675228    0.496569   -0.292956
H      2.818708    2.717403    0.684986
H      2.466441    1.881037    2.249356
H      4.145798    1.897208    1.577656
H      4.350784   -0.564435    1.535399
H      3.792252   -2.680477    0.396087
H      1.885316   -2.793726   -1.166635
H     -0.090648    0.218294   -2.244711
H      0.410590   -1.421454   -2.728403
H     -0.789369   -2.374934   -0.694733
H     -1.838550   -1.634287   -1.903309
H     -0.258709   -1.250167    1.424647
H     -1.007887    0.267259    3.203439
H     -2.800052    1.914634    2.767751
H     -3.865981    2.034520    0.564005
H      1.066693    1.377292   -0.462333
