34

C     -4.485898   -1.679396    0.173062
C     -3.671765   -0.449784   -0.101382
C     -4.263050    0.668589   -0.708322
C     -3.511103    1.823443   -0.938803
C     -2.170105    1.877217   -0.550640
C     -1.574318    0.777970    0.087378
C     -0.122350    0.824619    0.480861
C      0.762445    0.323569   -0.666060
C      2.218021    0.313650   -0.255852
C      2.925935    1.528427   -0.313375
C      4.263114    1.594826    0.077961
C      4.912970    0.451723    0.537313
C      4.227611   -0.761562    0.610092
C      2.878490   -0.849624    0.224947
S      2.072793   -2.425489    0.329666
N      1.717804   -3.000910   -1.260170
O      0.801918   -2.305550    1.121454
O      2.966055   -3.422858    1.012880
C     -2.329508   -0.386347    0.304838
H     -5.289106   -1.795954   -0.585444
H     -3.846960   -2.587487    0.138015
H     -4.947061   -1.599500    1.179516
H     -5.303625    0.644586   -1.007707
H     -3.968592    2.678551   -1.419448
H     -1.597069    2.775697   -0.743928
H      0.041398    0.204408    1.388454
H      0.161885    1.867160    0.744916
H      0.426253   -0.679102   -0.996933
H      0.633557    0.994098   -1.544594
H      2.437354    2.430432   -0.661765
H      4.795928    2.535568    0.026068
H      5.951176    0.505211    0.838833
H      4.757940   -1.633925    0.968380
H     -1.872137   -1.242254    0.786891
