34

C      4.173081   -2.294723    0.548601
C      3.565549   -0.967863    0.201577
C      4.362437    0.186404    0.164297
C      3.801502    1.417304   -0.185664
C      2.446998    1.502786   -0.517096
C      1.645021    0.350743   -0.516160
C      0.179651    0.446268   -0.845986
C     -0.640417    0.717713    0.420167
C     -2.118725    0.757137    0.103747
C     -2.646203    1.948743   -0.427270
C     -3.995575    2.042891   -0.767759
C     -4.838138    0.948387   -0.588454
C     -4.334272   -0.245482   -0.070892
C     -2.976705   -0.363254    0.274593
S     -2.406565   -1.904550    0.940032
N     -1.968928   -1.692795    2.597843
O     -3.492601   -2.940583    0.858772
O     -1.220568   -2.397633    0.161110
C      2.209228   -0.882563   -0.150293
H      3.424488   -2.950700    1.041958
H      5.027751   -2.164887    1.246268
H      4.533486   -2.789020   -0.377565
H      5.415697    0.134435    0.411170
H      4.417843    2.306938   -0.199879
H      2.023847    2.465143   -0.777499
H     -0.159989   -0.496804   -1.326050
H      0.012904    1.263272   -1.582265
H     -0.331363    1.695926    0.851014
H     -0.410122   -0.041568    1.193670
H     -2.006671    2.809700   -0.580412
H     -4.388117    2.966630   -1.172971
H     -5.885307    1.024267   -0.851753
H     -5.011968   -1.078679    0.060059
H      1.592750   -1.773583   -0.136912
