34

C      4.253050   -1.976507    0.233374
C      3.233979   -0.878785    0.313291
C      3.270147    0.043540    1.369980
C      2.339120    1.083524    1.428032
C      1.375723    1.219904    0.425948
C      1.341766    0.318298   -0.650186
C      0.282074    0.442402   -1.715229
C     -0.869086   -0.555064   -1.505468
C     -1.685797   -0.234638   -0.269689
C     -1.252203   -0.759211    0.962801
C     -1.929548   -0.461550    2.144522
C     -3.054234    0.358691    2.115518
C     -3.509299    0.880164    0.904087
C     -2.839206    0.596847   -0.298847
S     -3.507262    1.245123   -1.808906
N     -4.833249    2.305128   -1.482820
O     -2.458374    2.020427   -2.553279
O     -4.000628    0.112864   -2.664736
C      2.276151   -0.729080   -0.701930
H      3.826613   -2.870223   -0.270094
H      4.583226   -2.280558    1.249542
H      5.133183   -1.621682   -0.342356
H      4.015924   -0.044816    2.150347
H      2.363791    1.784973    2.251931
H      0.652974    2.023822    0.491738
H     -0.111038    1.480286   -1.743998
H      0.744137    0.250113   -2.707938
H     -0.456121   -1.585153   -1.428409
H     -1.507664   -0.565371   -2.410577
H     -0.376647   -1.395349    1.010478
H     -1.580065   -0.867183    3.085188
H     -3.579861    0.586688    3.033871
H     -4.393815    1.502172    0.912136
H      2.252240   -1.429795   -1.528318
