34

C      4.317133   -1.584014    1.338320
C      3.625960   -0.450314    0.640489
C      4.267884    0.789413    0.499987
C      3.606513    1.858983   -0.108971
C      2.298349    1.702635   -0.573824
C      1.642095    0.469365   -0.436838
C      0.216420    0.314080   -0.893467
C     -0.753508    0.681349    0.235150
C     -2.186756    0.472660   -0.199973
C     -2.792398    1.479632   -0.974147
C     -4.102165    1.337458   -1.432291
C     -4.825927    0.186613   -1.129440
C     -4.242001   -0.827911   -0.369941
C     -2.921906   -0.706912    0.097957
S     -2.247172   -2.027733    1.069357
N     -2.006476   -1.487928    2.692743
O     -0.939583   -2.483036    0.486827
O     -3.192146   -3.196555    1.087242
C      2.305382   -0.599493    0.188301
H      3.969624   -2.560123    0.937678
H      5.416462   -1.524296    1.190133
H      4.095058   -1.538702    2.424905
H      5.277940    0.928946    0.865126
H      4.106236    2.813313   -0.214136
H      1.794301    2.543729   -1.033713
H      0.030969    0.967965   -1.774059
H      0.039378   -0.732240   -1.223729
H     -0.605269    1.749547    0.509046
H     -0.516109    0.097946    1.146806
H     -2.244820    2.379846   -1.226090
H     -4.556141    2.121292   -2.024820
H     -5.842782    0.079184   -1.484564
H     -4.828266   -1.709703   -0.147736
H      1.793719   -1.544995    0.323852
