34

C      4.085113   -2.468950    0.444736
C      3.521692   -1.082639    0.340953
C      4.322112    0.030003    0.641124
C      3.805016    1.322157    0.517918
C      2.492787    1.514338    0.078650
C      1.691103    0.411998   -0.256788
C      0.268481    0.616557   -0.703468
C     -0.678256    0.624352    0.501923
C     -2.115339    0.771618    0.054514
C     -2.580373    2.064422   -0.249677
C     -3.886530    2.266933   -0.695262
C     -4.747028    1.182537   -0.848972
C     -4.304078   -0.108888   -0.560723
C     -2.990373   -0.335753   -0.114708
S     -2.498149   -2.000265    0.246643
N     -2.235162   -2.170237    1.945656
O     -3.573372   -2.963856   -0.171484
O     -1.239069   -2.341085   -0.498336
C      2.209786   -0.886091   -0.118357
H      4.862734   -2.518553    1.236509
H      4.538523   -2.756603   -0.526697
H      3.286862   -3.197386    0.702172
H      5.343683   -0.102910    0.975390
H      4.422553    2.176457    0.763568
H      2.102450    2.521271   -0.003314
H     -0.022505   -0.188413   -1.412375
H      0.182306    1.579684   -1.253348
H     -0.532569   -0.292369    1.107109
H     -0.412424    1.475223    1.167801
H     -1.925344    2.920706   -0.142841
H     -4.231426    3.267272   -0.923180
H     -5.760751    1.342234   -1.193224
H     -4.994649   -0.932210   -0.686777
H      1.592196   -1.741555   -0.365137
