34

C      2.834560   -1.076189   -1.631320
C      2.414593   -0.753992   -0.228079
C      2.830007   -1.564327    0.839238
C      2.396985   -1.291631    2.139327
C      1.533192   -0.220569    2.381667
C      1.098574    0.591159    1.321770
C      0.127015    1.715067    1.574485
C     -1.333191    1.271020    1.380793
C     -1.654211    0.960534   -0.069569
C     -1.652811    2.031692   -0.983801
C     -1.885079    1.814972   -2.341450
C     -2.131244    0.527408   -2.809581
C     -2.160170   -0.546501   -1.920120
C     -1.932262   -0.351090   -0.546481
S     -2.054508   -1.754933    0.529377
N     -3.316401   -1.495408    1.680746
O     -0.752314   -1.975402    1.243032
O     -2.380177   -2.991545   -0.260667
C      1.540691    0.316108    0.016801
H      3.820529   -1.587833   -1.639875
H      2.924188   -0.147659   -2.234493
H      2.077550   -1.739918   -2.098911
H      3.485942   -2.408258    0.664816
H      2.721615   -1.919238    2.959177
H      1.192507   -0.032619    3.392283
H      0.249063    2.084793    2.616079
H      0.363141    2.575182    0.911365
H     -1.996420    2.098853    1.713448
H     -1.546153    0.423808    2.059810
H     -1.461185    3.041950   -0.643599
H     -1.871702    2.648028   -3.032377
H     -2.309932    0.361200   -3.864127
H     -2.369820   -1.533167   -2.311162
H      1.197426    0.928503   -0.808601
