34

C      4.048104   -1.951289   -1.669353
C      3.482950   -1.117249   -0.558022
C      4.338716   -0.417627    0.306237
C      3.812758    0.337078    1.357914
C      2.432008    0.385692    1.565288
C      1.565794   -0.335647    0.728798
C      0.076640   -0.261772    0.934183
C     -0.519865    0.901903    0.134569
C     -2.023401    0.945550    0.291240
C     -2.546722    1.546236    1.451173
C     -3.923229    1.594402    1.671419
C     -4.798323    1.039740    0.740526
C     -4.300496    0.432054   -0.412713
C     -2.916693    0.368650   -0.652057
S     -2.353641   -0.405494   -2.144418
N     -1.653909    0.783142   -3.184719
O     -1.336140   -1.463838   -1.826553
O     -3.504929   -1.053232   -2.861643
C      2.097262   -1.082053   -0.335934
H      5.006372   -1.523193   -2.033377
H      4.228875   -2.982733   -1.301315
H      3.342654   -1.990603   -2.526614
H      5.411673   -0.452010    0.162757
H      4.476676    0.885608    2.013547
H      2.038015    0.982161    2.378917
H     -0.147095   -0.126527    2.015413
H     -0.393794   -1.219505    0.623313
H     -0.084829    1.857367    0.503181
H     -0.223978    0.823978   -0.930433
H     -1.883130    1.978051    2.190688
H     -4.311791    2.061839    2.567020
H     -5.866223    1.079804    0.912669
H     -5.003298    0.011650   -1.119796
H      1.432989   -1.632133   -0.991903
