28

N     -2.454856   -1.500911    2.050930
C     -2.389127   -0.633793    0.920840
C     -3.267618    0.453569    0.842647
C     -3.215581    1.323912   -0.248688
C     -2.284550    1.112889   -1.267367
C     -1.405060    0.029435   -1.199158
C     -1.451109   -0.858282   -0.109375
C     -0.458284   -1.995536   -0.032339
C      0.745309   -1.645461    0.854316
C      1.548222   -0.504583    0.282919
C      2.466622   -0.735962   -0.754451
C      3.178661    0.328815   -1.315237
C      2.973855    1.631177   -0.850241
F      3.662672    2.662694   -1.397605
C      2.054984    1.870429    0.175683
C      1.342217    0.808281    0.740019
H     -3.989635    0.627137    1.630768
H     -3.895203    2.164523   -0.303006
H     -2.241269    1.791921   -2.109082
H     -0.680360   -0.111931   -1.991617
H     -0.958286   -2.899501    0.377287
H     -0.103263   -2.270695   -1.050060
H      1.396667   -2.541957    0.943773
H      0.398772   -1.400061    1.882067
H      2.625962   -1.738846   -1.130893
H      3.885881    0.143729   -2.113462
H      1.890902    2.879400    0.531509
H      0.623476    1.009607    1.524803
