28

N     -1.736025   -1.978334   -1.703258
C     -2.490690   -0.973308   -1.029441
C     -3.876226   -1.130353   -0.902514
C     -4.635702   -0.167563   -0.233520
C     -4.013890    0.955116    0.316357
C     -2.631604    1.120728    0.194583
C     -1.857646    0.166892   -0.489361
C     -0.362589    0.350217   -0.579935
C      0.338669   -0.351599    0.586950
C      1.829911   -0.171661    0.493423
C      2.448442    0.941061    1.087610
C      3.829978    1.124086    0.971639
C      4.601121    0.204513    0.254581
F      5.940172    0.384522    0.141876
C      3.990407   -0.897540   -0.351182
C      2.609160   -1.084019   -0.237463
H     -4.365244   -2.001946   -1.319408
H     -5.706252   -0.294416   -0.136885
H     -4.602999    1.696458    0.840649
H     -2.163731    1.992608    0.635101
H     -0.113695    1.434603   -0.564550
H      0.013830   -0.052246   -1.545692
H      0.090438   -1.435908    0.578528
H     -0.031098    0.064050    1.550434
H      1.861097    1.665772    1.637884
H      4.301307    1.981178    1.435184
H      4.585970   -1.606206   -0.912186
H      2.146888   -1.936704   -0.719404
