28

N     -2.068810   -2.188459   -2.011394
C     -2.138049   -0.918174   -1.367266
C     -2.819039    0.130481   -1.997180
C     -2.891444    1.387303   -1.391894
C     -2.282740    1.603256   -0.154196
C     -1.602572    0.562436    0.483059
C     -1.527661   -0.709571   -0.112067
C     -0.745781   -1.807438    0.572282
C      0.677465   -1.932323    0.010037
C      1.493450   -0.692046    0.272046
C      2.082228   -0.485646    1.530566
C      2.801429    0.685529    1.788116
C      2.931542    1.660879    0.795103
F      3.626346    2.797302    1.047872
C      2.340825    1.466578   -0.456851
C      1.622222    0.296243   -0.718758
H     -3.289920   -0.027265   -2.959446
H     -3.416879    2.195328   -1.884315
H     -2.334306    2.579442    0.310392
H     -1.124903    0.750891    1.436726
H     -1.272558   -2.777144    0.441422
H     -0.698138   -1.624804    1.668587
H      0.635496   -2.146455   -1.080360
H      1.175249   -2.804695    0.486642
H      1.979135   -1.228750    2.311618
H      3.253837    0.837996    2.759539
H      2.435379    2.224369   -1.223901
H      1.158195    0.164737   -1.688497
