28

N     -2.255999    1.393506   -2.433646
C     -2.295880    0.714257   -1.180511
C     -3.246218    1.097187   -0.226343
C     -3.298289    0.454813    1.012955
C     -2.400148   -0.573107    1.305832
C     -1.449497   -0.963571    0.359350
C     -1.390389   -0.329775   -0.894681
C     -0.322851   -0.735544   -1.884982
C      0.892284    0.201499   -1.832634
C      1.593453    0.134644   -0.499721
C      2.479542   -0.918470   -0.218782
C      3.095571   -1.005495    1.033484
C      2.826152   -0.047477    2.015282
F      3.421788   -0.135507    3.230013
C      1.938579    0.998398    1.746122
C      1.321806    1.089744    0.494755
H     -3.943457    1.896683   -0.443677
H     -4.033189    0.756451    1.748073
H     -2.437681   -1.065429    2.268979
H     -0.751877   -1.753934    0.607981
H      0.005291   -1.781445   -1.695444
H     -0.744511   -0.723659   -2.913091
H      1.604179   -0.090476   -2.635088
H      0.574979    1.244319   -2.052690
H      2.687844   -1.672984   -0.967243
H      3.778393   -1.818711    1.243282
H      1.724267    1.736629    2.508120
H      0.625860    1.897454    0.304307
