28

N     -2.684012   -2.191869   -0.902575
C     -2.489244   -0.875061   -0.391301
C     -3.302587    0.165201   -0.856643
C     -3.124202    1.465905   -0.379605
C     -2.131250    1.734273    0.564367
C     -1.315962    0.702410    1.036161
C     -1.489155   -0.612805    0.569252
C     -0.564416   -1.704475    1.057202
C      0.585448   -1.962794    0.073114
C      1.486361   -0.761661   -0.062533
C      1.314015    0.139208   -1.127297
C      2.120602    1.277018   -1.224652
C      3.100557    1.526040   -0.259374
F      3.880451    2.630957   -0.354388
C      3.272839    0.638299    0.806716
C      2.467109   -0.499982    0.908439
H     -4.071976   -0.033498   -1.592257
H     -3.753916    2.266983   -0.744564
H     -1.990138    2.743826    0.928140
H     -0.541929    0.930584    1.758639
H     -1.139387   -2.645218    1.196345
H     -0.148439   -1.443636    2.055418
H      1.181513   -2.827316    0.438192
H      0.175642   -2.254878   -0.918515
H      0.549550   -0.034359   -1.874608
H      1.982074    1.967498   -2.046603
H      4.027670    0.833599    1.557494
H      2.602781   -1.174248    1.744998
