31

N     -3.236161   -1.502929    2.285664
C     -2.857677   -0.308029    1.605736
C     -3.060113    0.927479    2.232501
C     -2.686942    2.111540    1.592194
C     -2.108398    2.067248    0.322401
C     -1.904457    0.839263   -0.312002
C     -2.281798   -0.359977    0.318379
C     -2.007330   -1.679987   -0.365881
C     -0.704100   -2.319056    0.129975
C      0.485541   -1.480007   -0.223777
C      1.122006   -0.583789    0.631504
C      2.109179   -0.022378   -0.143603
C      3.063867    0.946793    0.155507
C      3.950803    1.328670   -0.868312
C      3.860439    0.739991   -2.150205
C      2.881661   -0.234985   -2.419732
C      2.018643   -0.591898   -1.386303
O      1.040509   -1.462933   -1.422576
H     -3.503691    0.970423    3.219401
H     -2.843079    3.063865    2.082263
H     -1.813709    2.985189   -0.169525
H     -1.442459    0.822369   -1.291526
H     -1.957269   -1.542696   -1.468870
H     -2.848797   -2.380741   -0.176679
H     -0.588183   -3.316647   -0.344735
H     -0.747260   -2.473443    1.230018
H      0.881811   -0.364707    1.663787
H      3.122529    1.391925    1.140401
H      4.706317    2.078400   -0.672740
H      4.547285    1.041681   -2.930187
H      2.800832   -0.690634   -3.397913
