31

N     -2.839309   -1.423968   -1.976637
C     -3.456368   -0.591362   -0.997058
C     -4.833717   -0.706713   -0.773181
C     -5.459296    0.086823    0.191308
C     -4.710880    0.996671    0.940594
C     -3.335691    1.119113    0.724199
C     -2.696243    0.337304   -0.253853
C     -1.204985    0.463543   -0.447211
C     -0.461036   -0.547221    0.428672
C      1.016401   -0.420688    0.232014
C      1.853731    0.435719    0.942525
C      3.096794    0.222890    0.393692
C      4.334236    0.790852    0.688251
C      5.445110    0.364020   -0.063141
C      5.292080   -0.607401   -1.078461
C      4.026758   -1.160261   -1.351476
C      2.946883   -0.718044   -0.590763
O      1.694907   -1.094188   -0.679994
H     -5.420155   -1.415294   -1.344687
H     -6.524053   -0.007235    0.361474
H     -5.196081    1.605588    1.692470
H     -2.768297    1.823039    1.320598
H     -0.876723    1.494140   -0.185572
H     -0.942690    0.304010   -1.516010
H     -0.772548   -1.580383    0.162359
H     -0.707526   -0.374449    1.499233
H      1.586579    1.117683    1.739256
H      4.439416    1.534675    1.467530
H      6.422587    0.782773    0.137712
H      6.153147   -0.927950   -1.650272
H      3.896969   -1.903686   -2.127028
