31

N     -3.039561   -2.966299    0.240119
C     -2.800446   -1.620356    0.645827
C     -3.139980   -1.228780    1.946473
C     -2.904814    0.080849    2.371710
C     -2.328014    1.006045    1.499722
C     -1.987859    0.625276    0.199217
C     -2.225477   -0.688104   -0.244082
C     -1.804968   -1.091280   -1.639287
C     -0.436555   -1.784179   -1.644441
C      0.649561   -0.852999   -1.199867
C      1.182524   -0.792547    0.085472
C      2.097880    0.231469    0.022266
C      2.937408    0.766436    0.996531
C      3.772898    1.835951    0.623985
C      3.746652    2.338325   -0.696958
C      2.883925    1.776198   -1.656615
C      2.069391    0.719049   -1.257700
O      1.196105    0.062029   -1.980512
H     -3.583215   -1.941458    2.630733
H     -3.166605    0.377680    3.379093
H     -2.140344    2.018570    1.832930
H     -1.529273    1.352224   -0.459903
H     -2.561213   -1.780620   -2.072674
H     -1.773456   -0.202285   -2.307587
H     -0.459279   -2.682372   -0.989818
H     -0.209579   -2.126633   -2.676516
H      0.921581   -1.399174    0.942918
H      2.947691    0.374622    2.005479
H      4.439132    2.276803    1.353999
H      4.393027    3.161471   -0.972237
H      2.852865    2.154089   -2.670134
