31

N     -3.479864   -2.445322   -0.203975
C     -3.097953   -1.090331   -0.430869
C     -3.574778   -0.427951   -1.568490
C     -3.205626    0.895713   -1.819284
C     -2.357009    1.564313   -0.935047
C     -1.877875    0.912407    0.204014
C     -2.247124   -0.417885    0.472197
C     -1.678116   -1.119244    1.684756
C     -0.454312   -1.972288    1.327940
C      0.680623   -1.123894    0.841586
C      1.003588   -0.899699   -0.494537
C      2.068267   -0.031257   -0.442116
C      2.815160    0.559223   -1.458814
C      3.858800    1.426003   -1.084377
C      4.124651    1.678526    0.280730
C      3.348507    1.067219    1.283292
C      2.323029    0.214585    0.881331
O      1.483576   -0.444718    1.641202
H     -4.229432   -0.940821   -2.262009
H     -3.574811    1.402300   -2.701631
H     -2.066618    2.587744   -1.134330
H     -1.210022    1.441783    0.872537
H     -2.455028   -1.772468    2.137114
H     -1.399076   -0.378446    2.466604
H     -0.122349   -2.523340    2.233538
H     -0.724062   -2.725677    0.556295
H      0.515593   -1.301142   -1.373175
H      2.601297    0.359716   -2.500955
H      4.461021    1.902642   -1.846796
H      4.929297    2.347305    0.557185
H      3.540644    1.255008    2.331530
