31

N     -2.977471   -2.137843   -0.857516
C     -3.503581   -0.840486   -0.586155
C     -4.884146   -0.687066   -0.410025
C     -5.422659    0.570681   -0.128309
C     -4.583796    1.681166   -0.016463
C     -3.204640    1.538038   -0.190846
C     -2.651261    0.280587   -0.489667
C     -1.156081    0.144418   -0.641554
C     -0.509317   -0.214911    0.698169
C      0.972110   -0.351685    0.542701
C      1.894018    0.685548    0.659375
C      3.106632    0.088106    0.405709
C      4.395728    0.615330    0.376203
C      5.454491   -0.262435    0.077253
C      5.200318   -1.628408   -0.182481
C      3.885099   -2.128495   -0.145857
C      2.858752   -1.235443    0.153226
O      1.575347   -1.486385    0.235637
H     -5.540931   -1.544527   -0.487597
H     -6.490396    0.683644    0.008388
H     -5.002086    2.653653    0.208984
H     -2.567109    2.407988   -0.091441
H     -0.726596    1.099962   -1.016805
H     -0.917562   -0.634618   -1.398392
H     -0.730769    0.574523    1.449479
H     -0.922438   -1.176633    1.072065
H      1.700235    1.725018    0.889946
H      4.578426    1.663341    0.575966
H      6.469631    0.111263    0.045721
H      6.022073   -2.294259   -0.411647
H      3.677979   -3.171961   -0.344071
