31

N      2.641480    0.153072    2.721979
C      3.358948    0.147199    1.489596
C      4.719778    0.476834    1.490611
C      5.441322    0.493064    0.294617
C      4.805621    0.184444   -0.909550
C      3.447814   -0.146014   -0.920622
C      2.713497   -0.180783    0.277826
C      1.241048   -0.508542    0.237250
C      0.408546    0.768935    0.105789
C     -1.050198    0.439981    0.068951
C     -1.780815    0.143040   -1.078831
C     -3.048069   -0.118761   -0.612729
C     -4.213689   -0.474390   -1.287613
C     -5.375392   -0.682985   -0.520961
C     -5.342200   -0.533529    0.884211
C     -4.146915   -0.174460    1.535055
C     -3.014262    0.025527    0.749259
O     -1.810638    0.357966    1.146324
H      5.218607    0.724846    2.419200
H      6.492735    0.749973    0.300664
H      5.364622    0.204523   -1.836176
H      2.967831   -0.373672   -1.864510
H      0.946134   -1.059953    1.156790
H      1.027960   -1.180854   -0.623518
H      0.689070    1.309762   -0.824549
H      0.604766    1.439256    0.970396
H     -1.430339    0.117304   -2.102417
H     -4.227149   -0.586808   -2.364083
H     -6.299809   -0.959991   -1.010728
H     -6.241411   -0.696760    1.463811
H     -4.108893   -0.058224    2.610251
