31

N     -3.120124   -2.851510   -0.692801
C     -2.890253   -1.456693   -0.879841
C     -3.342836   -0.841496   -2.053296
C     -3.119586    0.521013   -2.265386
C     -2.441820    1.275946   -1.306344
C     -1.988375    0.671405   -0.131216
C     -2.212437   -0.697946    0.098163
C     -1.670539   -1.341587    1.354367
C     -0.323880   -2.032483    1.105629
C      0.735918   -1.044052    0.725862
C      1.145601   -0.762491   -0.575169
C      2.085802    0.229387   -0.424559
C      2.840897    0.921892   -1.368202
C      3.732033    1.904848   -0.898763
C      3.842783    2.168281    0.485540
C      3.062597    1.451725    1.412410
C      2.190096    0.485439    0.917236
O      1.374754   -0.283011    1.596553
H     -3.865046   -1.420825   -2.804464
H     -3.469092    0.991138   -3.175496
H     -2.263822    2.330100   -1.475241
H     -1.452953    1.269097    0.596296
H     -1.555545   -0.583540    2.160639
H     -2.397624   -2.091836    1.733039
H     -0.007715   -2.551671    2.035386
H     -0.429037   -2.802009    0.310291
H      0.790707   -1.208093   -1.495379
H      2.746386    0.712778   -2.426002
H      4.335729    2.462909   -1.602507
H      4.530869    2.926806    0.835290
H      3.136514    1.646479    2.474289
