31

N     -2.570366    0.541121   -2.631164
C     -3.321922    0.304451   -1.442587
C     -4.693716    0.042645   -1.543360
C     -5.449146   -0.207300   -0.395256
C     -4.836747   -0.201544    0.859460
C     -3.468227    0.058966    0.970161
C     -2.699267    0.326975   -0.175954
C     -1.217189    0.573381   -0.034878
C     -0.437878   -0.736276   -0.175420
C      1.030649   -0.487284   -0.037807
C      1.738874   -0.484547    1.161271
C      3.027954   -0.180957    0.790022
C      4.186432   -0.034867    1.549755
C      5.376654    0.288236    0.871671
C      5.378024    0.456081   -0.531814
C      4.189096    0.302588   -1.269461
C      3.027668   -0.017632   -0.570234
O      1.824153   -0.201139   -1.054764
H     -5.174948    0.028815   -2.513331
H     -6.508967   -0.410568   -0.478742
H     -5.422285   -0.402513    1.747309
H     -3.007030    0.050393    1.950140
H     -0.875457    1.301792   -0.802487
H     -1.003347    1.028019    0.958054
H     -0.765219   -1.457448    0.605266
H     -0.634587   -1.188776   -1.171376
H      1.360490   -0.671543    2.157804
H      4.173350   -0.164950    2.624239
H      6.296516    0.409292    1.428764
H      6.298980    0.704837   -1.042811
H      4.177459    0.429752   -2.344030
