31

N     -2.451012    0.350358   -2.898938
C     -3.253122    0.283464   -1.721777
C     -4.631544    0.071458   -1.846366
C     -5.436764   -0.013089   -0.708049
C     -4.868010    0.109158    0.561184
C     -3.493257    0.321147    0.695648
C     -2.673741    0.423258   -0.442191
C     -1.187329    0.619791   -0.271525
C     -0.466641   -0.729824   -0.233595
C      1.006480   -0.530536   -0.067150
C      1.672623   -0.421776    1.150966
C      2.986596   -0.218553    0.798977
C      4.124046   -0.037079    1.582484
C      5.350748    0.154812    0.919761
C      5.408069    0.161359   -0.492549
C      4.239116   -0.023630   -1.254493
C      3.040572   -0.211496   -0.569967
O      1.846978   -0.396789   -1.077798
H     -5.079466   -0.032024   -2.826812
H     -6.501561   -0.178517   -0.809782
H     -5.492414    0.036220    1.442274
H     -3.066741    0.404399    1.687760
H     -0.986192    1.174805    0.671795
H     -0.785447    1.240652   -1.101954
H     -0.650443   -1.283793   -1.179488
H     -0.854286   -1.342634    0.609559
H      1.251939   -0.477405    2.146532
H      4.068074   -0.043147    2.663430
H      6.255731    0.298659    1.495492
H      6.356724    0.310155   -0.991617
H      4.270275   -0.019404   -2.336166
