31

N     -3.566790   -2.179526    0.807549
C     -3.079121   -0.841377    0.877308
C     -3.366818   -0.067973    2.008401
C     -2.890607    1.241601    2.105855
C     -2.123320    1.785052    1.073876
C     -1.832901    1.021811   -0.059758
C     -2.311818   -0.295595   -0.173877
C     -1.944755   -1.119497   -1.387309
C     -0.738424   -2.027277   -1.116394
C      0.497717   -1.226642   -0.841933
C      1.001138   -0.930292    0.422400
C      2.100230   -0.143384    0.170890
C      3.004439    0.465336    1.038100
C      4.041559    1.229001    0.470746
C      4.145773    1.364294   -0.932392
C      3.213158    0.737893   -1.780377
C      2.198378   -0.010994   -1.189145
O      1.231169   -0.663432   -1.785460
H     -3.957118   -0.483491    2.815537
H     -3.113545    1.834295    2.983626
H     -1.749517    2.797630    1.153933
H     -1.225392    1.454644   -0.845111
H     -1.724034   -0.457556   -2.253942
H     -2.810482   -1.748199   -1.687584
H     -0.557992   -2.663304   -2.009076
H     -0.951987   -2.703101   -0.259982
H      0.606121   -1.233241    1.383379
H      2.913666    0.356132    2.111148
H      4.763352    1.716237    1.113209
H      4.946984    1.954437   -1.357758
H      3.280936    0.836517   -2.855859
