31

N     -2.766934    2.293392   -2.282390
C     -2.526041    1.929335   -0.924904
C     -2.631329    2.905918    0.072841
C     -2.388709    2.577069    1.408600
C     -2.038464    1.270625    1.754405
C     -1.933088    0.288726    0.766082
C     -2.181359    0.604556   -0.581715
C     -2.014108   -0.462120   -1.640114
C     -0.637230   -0.387704   -2.311954
C      0.463143   -0.676942   -1.337320
C      1.227584    0.282399   -0.677704
C      2.058835   -0.450925    0.135771
C      3.039426   -0.048094    1.039294
C      3.730985   -1.051144    1.743801
C      3.426802   -2.414966    1.530681
C      2.427682   -2.787577    0.611907
C      1.761047   -1.772243   -0.069896
O      0.801750   -1.895024   -0.953885
H     -2.897672    3.922736   -0.187392
H     -2.468739    3.336413    2.175707
H     -1.844290    1.019034    2.789030
H     -1.647637   -0.716711    1.050343
H     -2.157584   -1.473251   -1.198581
H     -2.801742   -0.345691   -2.415354
H     -0.593598   -1.138862   -3.129161
H     -0.487283    0.614669   -2.768639
H      1.167359    1.359089   -0.769443
H      3.262616    0.999464    1.195525
H      4.500077   -0.776122    2.453731
H      3.964518   -3.177875    2.078379
H      2.183982   -3.828175    0.442355
