31

N     -2.706934    1.761537   -1.963546
C     -3.386511    1.020337   -0.952423
C     -4.728346    1.311620   -0.678291
C     -5.411967    0.610218    0.317696
C     -4.756871   -0.382959    1.048332
C     -3.417790   -0.680965    0.781829
C     -2.722435    0.006967   -0.228093
C     -1.267909   -0.309437   -0.475918
C     -0.368236    0.603701    0.360172
C      1.072439    0.289400    0.108831
C      1.821843   -0.661841    0.796518
C      3.059369   -0.611968    0.198377
C      4.225571   -1.330488    0.451973
C      5.351213   -1.052851   -0.345946
C      5.282665   -0.076333   -1.365582
C      4.087762    0.630882   -1.596415
C      2.991269    0.334117   -0.790184
O      1.794446    0.865540   -0.835888
H     -5.241609    2.085627   -1.235150
H     -6.448754    0.840238    0.526674
H     -5.286112   -0.920443    1.824564
H     -2.921851   -1.447786    1.364208
H     -1.029021   -0.191237   -1.555524
H     -1.063379   -1.371815   -0.215428
H     -0.592635    0.469844    1.441114
H     -0.556472    1.666507    0.094864
H      1.501978   -1.299315    1.610478
H      4.266245   -2.076681    1.235013
H      6.274954   -1.590966   -0.177760
H      6.154289    0.128724   -1.973350
H      4.022792    1.379828   -2.374789
