28

N      2.097677    1.119514   -2.073931
C      2.669390    0.486099   -0.931321
C      4.012702    0.092991   -0.969553
C      4.591878   -0.543106    0.131019
C      3.830337   -0.793998    1.274055
C      2.488881   -0.405159    1.321713
C      1.897877    0.249419    0.226797
C      0.439148    0.630635    0.288404
C     -0.435451   -0.487731   -0.286276
C     -1.889750   -0.104925   -0.228049
C     -2.479173    0.602739   -1.289125
C     -3.822081    0.986560   -1.219363
C     -4.581670    0.675897   -0.088013
C     -3.998455   -0.015542    0.977456
C     -2.655865   -0.401248    0.911829
H      4.608226    0.276942   -1.855063
H      5.630311   -0.846300    0.095835
H      4.278835   -1.293462    2.123116
H      1.909707   -0.615782    2.212406
H      0.266687    1.573857   -0.274571
H      0.144670    0.827266    1.343249
H     -0.142984   -0.690924   -1.340120
H     -0.269599   -1.425556    0.288851
H     -1.898768    0.857775   -2.167256
H     -4.272940    1.527969   -2.040992
H     -5.620551    0.974853   -0.035051
H     -4.585825   -0.249647    1.855900
H     -2.213214   -0.928282    1.748053
