28

N     -2.576494   -2.207328   -1.172053
C     -2.440308   -0.918565   -0.577190
C     -3.277442    0.120720   -1.000640
C     -3.156244    1.394961   -0.441322
C     -2.196997    1.637769    0.543538
C     -1.358360    0.606535    0.973973
C     -1.474125   -0.682630    0.424034
C     -0.524564   -1.770930    0.870025
C      0.657655   -1.930465   -0.096532
C      1.519977   -0.694464   -0.134733
C      1.343424    0.264185   -1.147195
C      2.113117    1.431341   -1.153600
C      3.059570    1.651808   -0.149253
C      3.235709    0.706732    0.865201
C      2.466976   -0.461257    0.876311
H     -4.020936   -0.057943   -1.767365
H     -3.804123    2.195576   -0.774086
H     -2.100122    2.627265    0.971270
H     -0.610946    0.815550    1.729519
H     -1.069920   -2.736898    0.936670
H     -0.142822   -1.558040    1.892992
H      0.282981   -2.174244   -1.114752
H      1.273726   -2.795850    0.231401
H      0.604083    0.112236   -1.923910
H      1.972706    2.167041   -1.934900
H      3.653579    2.556534   -0.154877
H      3.965025    0.881250    1.645628
H      2.604877   -1.180890    1.673794
