28

N     -1.902045   -2.429668   -0.798467
C     -2.578182   -1.193851   -0.576602
C     -3.947546   -1.207852   -0.284833
C     -4.629433   -0.011839   -0.048389
C     -3.945421    1.204353   -0.097636
C     -2.578705    1.228467   -0.388285
C     -1.883691    0.033235   -0.643182
C     -0.401570    0.081015   -0.922546
C      0.397295   -0.077533    0.374607
C      1.875300   -0.033766    0.094425
C      2.560048    1.193083    0.089643
C      3.926802    1.235312   -0.203315
C      4.615936    0.056766   -0.502606
C      3.938546   -1.165716   -0.513566
C      2.571830   -1.212464   -0.221179
H     -4.483888   -2.147362   -0.237152
H     -5.687688   -0.028232    0.178181
H     -4.473910    2.129495    0.092972
H     -2.061194    2.179623   -0.413266
H     -0.122050   -0.720946   -1.640237
H     -0.139286    1.049234   -1.404039
H      0.124280    0.734894    1.083987
H      0.136387   -1.042725    0.862197
H      2.035557    2.114505    0.310702
H      4.450980    2.182259   -0.201742
H      5.673458    0.091374   -0.730426
H      4.471794   -2.076879   -0.752101
H      2.056397   -2.164782   -0.242273
