28

N     -2.528078   -1.845147   -1.759664
C     -2.420905   -0.787740   -0.809021
C     -3.296708    0.301018   -0.897285
C     -3.204694    1.354625    0.015216
C     -2.236165    1.326377    1.020309
C     -1.358983    0.243274    1.117628
C     -1.444948   -0.827176    0.209593
C     -0.454892   -1.965536    0.303912
C      0.714507   -1.789600   -0.675312
C      1.537842   -0.569272   -0.350236
C      2.494862   -0.614893    0.677108
C      3.227192    0.529278    1.008529
C      3.004456    1.726670    0.323001
C      2.047718    1.782470   -0.694168
C      1.314316    0.640464   -1.029820
H     -4.047746    0.333014   -1.676700
H     -3.882474    2.195201   -0.059016
H     -2.162070    2.146603    1.722578
H     -0.605147    0.243699    1.895379
H     -0.061943   -2.053539    1.340906
H     -0.969217   -2.925773    0.083992
H      1.362400   -2.691626   -0.624739
H      0.329649   -1.732238   -1.717028
H      2.668678   -1.533965    1.222965
H      3.964403    0.488766    1.799921
H      3.570318    2.612010    0.582580
H      1.871182    2.711972   -1.219770
H      0.566450    0.701065   -1.810859
