28

N     -1.898526    0.541059   -2.340753
C     -2.574479    0.357236   -1.098608
C     -3.951762    0.105116   -1.101841
C     -4.634087   -0.093703    0.100749
C     -3.942738   -0.046284    1.312859
C     -2.568083    0.204944    1.326233
C     -1.872098    0.421835    0.124085
C     -0.382293    0.658791    0.160753
C      0.377907   -0.663184    0.017908
C      1.863600   -0.425352    0.050584
C      2.562946   -0.147557   -1.135938
C      3.937766    0.105744   -1.099944
C      4.620781    0.093246    0.119389
C      3.929298   -0.168460    1.305480
C      2.554446   -0.422262    1.274015
H     -4.494048    0.059083   -2.038015
H     -5.698523   -0.289714    0.092694
H     -4.471790   -0.207753    2.243209
H     -2.045218    0.229011    2.274480
H     -0.086231    1.356108   -0.653157
H     -0.101259    1.146780    1.120422
H      0.088635   -1.352231    0.842122
H      0.098093   -1.157258   -0.938653
H      2.043491   -0.125628   -2.086049
H      4.473037    0.315207   -2.017050
H      5.684612    0.290797    0.145652
H      4.458035   -0.171213    2.249886
H      2.028487   -0.614359    2.201076
