28

N      2.136867    1.065686   -2.022849
C      2.683122    0.349803   -0.917071
C      4.052020    0.457673   -0.643272
C      4.608498   -0.221410    0.443238
C      3.798994   -1.008264    1.264814
C      2.431685   -1.122261    0.999409
C      1.861694   -0.456251   -0.099745
C      0.377383   -0.567703   -0.347554
C     -0.373409    0.568432    0.353469
C     -1.853221    0.458681    0.102416
C     -2.663661   -0.302221    0.961645
C     -4.032967   -0.429998    0.708074
C     -4.599790    0.191456   -0.408151
C     -3.797450    0.938414   -1.275182
C     -2.427716    1.068777   -1.025338
H      4.685458    1.071981   -1.270963
H      5.667004   -0.133532    0.651443
H      4.230629   -1.527918    2.110491
H      1.816208   -1.729107    1.652144
H      0.169417   -0.542293   -1.439551
H      0.004457   -1.546395    0.028164
H     -0.002050    1.549751   -0.016018
H     -0.173183    0.530458    1.447206
H     -2.234980   -0.796455    1.824745
H     -4.654079   -1.013773    1.375082
H     -5.659514    0.090453   -0.603688
H     -4.236281    1.413616   -2.142985
H     -1.815135    1.642400   -1.709973
