28

N     -1.923223    2.444725    0.386055
C     -2.588824    1.200873    0.177634
C     -3.956062    1.102198    0.462951
C     -4.627592   -0.109228    0.281801
C     -3.935256   -1.229891   -0.181024
C     -2.570586   -1.141129   -0.468721
C     -1.886064    0.075961   -0.305263
C     -0.405750    0.139703   -0.590950
C      0.401556   -0.145061    0.679125
C      1.877716   -0.077018    0.394099
C      2.571222   -1.222439   -0.031477
C      3.936018   -1.149627   -0.327545
C      4.614403    0.066745   -0.210557
C      3.928173    1.213487    0.198724
C      2.563372    1.145123    0.495764
H     -4.498763    1.964560    0.829590
H     -5.684238   -0.180610    0.505210
H     -4.455675   -2.169590   -0.313877
H     -2.046462   -2.022333   -0.817883
H     -0.140167   -0.604559   -1.374287
H     -0.137256    1.140493   -0.994291
H      0.137240    0.594147    1.467238
H      0.139762   -1.152907    1.070922
H      2.055036   -2.168893   -0.135161
H      4.466988   -2.035552   -0.651091
H      5.670416    0.121655   -0.441370
H      4.453059    2.156333    0.282462
H      2.040958    2.042836    0.802713
