28

N     -2.503077   -2.549597   -0.355268
C     -2.410218   -1.137087   -0.183473
C     -3.303688   -0.305711   -0.869578
C     -3.226037    1.081648   -0.726682
C     -2.254304    1.645774    0.101904
C     -1.359520    0.824238    0.792171
C     -1.430839   -0.574291    0.662516
C     -0.422316   -1.441520    1.380686
C      0.741278   -1.845131    0.463913
C      1.545791   -0.649423    0.021421
C      2.506366   -0.086900    0.878313
C      3.221142    1.048983    0.485711
C      2.977200    1.634555   -0.759643
C      2.016767    1.086211   -1.614033
C      1.300875   -0.050339   -1.226126
H     -4.057375   -0.734905   -1.517898
H     -3.917474    1.720003   -1.261360
H     -2.191415    2.721205    0.206477
H     -0.603565    1.279073    1.420520
H     -0.025020   -0.914714    2.276310
H     -0.921746   -2.360282    1.756711
H      0.352552   -2.399663   -0.418111
H      1.403754   -2.547740    1.014768
H      2.696516   -0.525054    1.850285
H      3.961182    1.477908    1.148875
H      3.529489    2.515267   -1.060858
H      1.823789    1.544489   -2.575354
H      0.549893   -0.456999   -1.892198
