28

N      2.181809    0.078569    2.045569
C      2.704795    0.091583    0.718941
C      4.040284    0.459698    0.515362
C      4.571972    0.495162   -0.775906
C      3.770472    0.167442   -1.871177
C      2.436460   -0.201417   -1.677980
C      1.893156   -0.255856   -0.382429
C      0.441362   -0.625059   -0.200783
C     -0.437857    0.629089   -0.197189
C     -1.885083    0.260117   -0.011952
C     -2.426751    0.142938    1.279154
C     -3.762995   -0.232075    1.450627
C     -4.563420   -0.501740    0.337057
C     -4.027761   -0.400927   -0.949938
C     -2.691997   -0.026244   -1.125929
H      4.666545    0.722757    1.358695
H      5.604544    0.781808   -0.928006
H      4.182152    0.202483   -2.871582
H      1.825828   -0.443459   -2.539190
H      0.118524   -1.302365   -1.022434
H      0.305804   -1.185686    0.749834
H     -0.309185    1.179135   -1.155670
H     -0.117181    1.311690    0.620513
H     -1.814361    0.340005    2.150457
H     -4.177011   -0.317037    2.447042
H     -5.597074   -0.793150    0.471561
H     -4.646695   -0.616549   -1.811274
H     -2.286336    0.039085   -2.128001
