28

N     -2.233057   -2.236456    1.727491
C     -2.228334   -0.923477    1.171271
C     -2.909044    0.102656    1.837529
C     -2.910008    1.399658    1.318877
C     -2.229760    1.678456    0.132035
C     -1.549226    0.660666   -0.541023
C     -1.545698   -0.650868   -0.033435
C     -0.763029   -1.725884   -0.752282
C      0.623611   -1.938374   -0.128259
C      1.490958   -0.712501   -0.261304
C      1.597712    0.201210    0.801236
C      2.366042    1.360511    0.658370
C      3.028486    1.617971   -0.544948
C      2.921090    0.717910   -1.608746
C      2.152472   -0.442023   -1.470701
H     -3.435243   -0.104064    2.761083
H     -3.435607    2.189874    1.839230
H     -2.226153    2.685309   -0.265051
H     -1.015791    0.897171   -1.453534
H     -1.326010   -2.683350   -0.716775
H     -0.651328   -1.470492   -1.829226
H      1.118442   -2.793247   -0.638466
H      0.516928   -2.224465    0.941017
H      1.078613    0.020699    1.734483
H      2.444313    2.061572    1.479214
H      3.621690    2.516604   -0.654386
H      3.429982    0.921221   -2.542081
H      2.067951   -1.126287   -2.305867
