      -----------------------------------------------------------      
     |                   =====================                   |     
     |                           x T B                           |     
     |                   =====================                   |     
     |                         S. Grimme                         |     
     |          Mulliken Center for Theoretical Chemistry        |     
     |                    University of Bonn                     |     
      -----------------------------------------------------------      

   * xtb version 6.7.1 (edcfbbe) compiled by 'runner@sat12-gn217-0cbadaec-b866-44ae-a866-732403219ae3-6E01A8DFFD18.local' on 2026-06-10

   xtb is free software: you can redistribute it and/or modify it under
   the terms of the GNU Lesser General Public License as published by
   the Free Software Foundation, either version 3 of the License, or
   (at your option) any later version.
   
   xtb is distributed in the hope that it will be useful,
   but WITHOUT ANY WARRANTY; without even the implied warranty of
   MERCHANTABILITY or FITNESS FOR A PARTICULAR PURPOSE.  See the
   GNU Lesser General Public License for more details.
   
   Cite this work as:
   * C. Bannwarth, E. Caldeweyher, S. Ehlert, A. Hansen, P. Pracht,
     J. Seibert, S. Spicher, S. Grimme, WIREs Comput. Mol. Sci., 2020, 11,
     e01493. DOI: 10.1002/wcms.1493
   
   for GFN2-xTB:
   * C. Bannwarth, S. Ehlert and S. Grimme., J. Chem. Theory Comput., 2019,
     15, 1652-1671. DOI: 10.1021/acs.jctc.8b01176
   for GFN1-xTB:
   * S. Grimme, C. Bannwarth, P. Shushkov, J. Chem. Theory Comput., 2017,
     13, 1989-2009. DOI: 10.1021/acs.jctc.7b00118
   for GFN0-xTB:
   * P. Pracht, E. Caldeweyher, S. Ehlert, S. Grimme, ChemRxiv, 2019, preprint.
     DOI: 10.26434/chemrxiv.8326202.v1
   for GFN-FF:
   * S. Spicher and S. Grimme, Angew. Chem. Int. Ed., 2020, 59, 15665-15673.
     DOI: 10.1002/anie.202004239
   
   for ALPB and GBSA implicit solvation:
   * S. Ehlert, M. Stahn, S. Spicher, S. Grimme, J. Chem. Theory Comput.,
     2021, 17, 4250-4261. DOI: 10.1021/acs.jctc.1c00471
   
   for ddCOSMO and CPCM-X implicit solvation:
   * M. Stahn, S. Ehlert, S. Grimme, J. Phys. Chem. A,
     2023, XX, XXXX-XXXX. DOI: 10.1021/acs.jpca.3c04382
   
   for DFT-D4:
   * E. Caldeweyher, C. Bannwarth and S. Grimme, J. Chem. Phys., 2017,
     147, 034112. DOI: 10.1063/1.4993215
   * E. Caldeweyher, S. Ehlert, A. Hansen, H. Neugebauer, S. Spicher,
     C. Bannwarth and S. Grimme, J. Chem. Phys., 2019, 150, 154122.
     DOI: 10.1063/1.5090222
   * E. Caldeweyher, J.-M. Mewes, S. Ehlert and S. Grimme, Phys. Chem. Chem. Phys.
     2020, 22, 8499-8512. DOI: 10.1039/D0CP00502A
   
   for sTDA-xTB:
   * S. Grimme and C. Bannwarth, J. Chem. Phys., 2016, 145, 054103.
     DOI: 10.1063/1.4959605
   
   in the mass-spec context:
   * V. Asgeirsson, C. Bauer and S. Grimme, Chem. Sci., 2017, 8, 4879.
     DOI: 10.1039/c7sc00601b
   * J. Koopman and S. Grimme, ACS Omega 2019, 4, 12, 15120-15133.
     DOI: 10.1021/acsomega.9b02011
   
   for metadynamics refer to:
   * S. Grimme, J. Chem. Theory Comput., 2019, 155, 2847-2862
     DOI: 10.1021/acs.jctc.9b00143
   
   for SPH calculations refer to:
   * S. Spicher and S. Grimme, J. Chem. Theory Comput., 2021, 17, 1701-1714
     DOI: 10.1021/acs.jctc.0c01306
   
   for ONIOM refer to:
   * C. Plett, A. Katbashev, S. Ehlert, S. Grimme, M. Bursch,
     Phys. Chem. Chem. Phys., 2023, 25, 17860-17868. DOI: 10.1039/D3CP02178E
   
   for DIPRO refer to:
   * J. Kohn, N. Gildemeister, S. Grimme, D. Fazzi, A. Hansen,
     J. Chem. Phys., 2023, just accepted.
   
   for PTB refer to:
   * S. Grimme, M. Mueller, A. Hansen, J. Chem. Phys., 2023, 158, 124111.
     DOI: 10.1063/5.0137838
   
   with help from (in alphabetical order)
   P. Atkinson, C. Bannwarth, F. Bohle, G. Brandenburg, E. Caldeweyher
   M. Checinski, S. Dohm, S. Ehlert, S. Ehrlich, I. Gerasimov, C. Hölzer
   A. Katbashev, J. Kohn, J. Koopman, C. Lavigne, S. Lehtola, F. März, M. Müller,
   F. Musil, H. Neugebauer, J. Pisarek, C. Plett, P. Pracht, F. Pultar,
   J. Seibert, P. Shushkov, S. Spicher, M. Stahn, M. Steiner, T. Strunk,
   J. Stückrath, T. Rose, and J. Unsleber
   
 * started run on 2026/07/31 at 15:18:36.935     
   ID    Z sym.   atoms
    1    7 N      1, 2, 24, 25, 53, 55, 110, 112, 215
    2    6 C      3-5, 7, 9-12, 14, 16-20, 22, 23, 26-28, 30, 32-35, 37,
                  39-43, 45, 46, 49-52, 54, 57, 58, 61, 65, 67, 68, 70, 71,
                  73, 77, 81, 86-89, 91, 92, 106-109, 111, 114, 115, 118,
                  122, 124, 125, 127, 128, 130, 134, 138, 143-146, 148, 149,
                  171-174, 176, 178, 182-185, 187, 189, 193-196, 198, 200,
                  204-207, 209, 211, 216, 217, 219, 221-227
    3    1 H      6, 8, 13, 15, 21, 29, 31, 36, 38, 44, 56, 59, 60, 62, 63,
                  69, 72, 74-76, 78-80, 90, 93-105, 113, 116, 117, 119, 120,
                  126, 129, 131-133, 135-137, 147, 150-166, 175, 177,
                  179-181, 186, 188, 190-192, 197, 199, 201-203, 208, 210,
                  212-214, 228-238
    4   26 Fe     47
    5   17 Cl     48
    6    8 O      64, 66, 82-85, 121, 123, 139-142, 167-170, 218, 220

           -------------------------------------------------
          |                Calculation Setup                |
           -------------------------------------------------

          program call               : /Users/haywoodau3/Documents/genaisubstrate/.chem-env/bin/xtb /Users/haywoodau3/Documents/genaisubstrate/data/jacs_2025/stage3/pilot/reference-optimizations/1ae/start-0001/input-assembly.xyz --gfn 2 --alpb ether --opt --input /Users/haywoodau3/Documents/genaisubstrate/data/jacs_2025/stage3/pilot/reference-optimizations/1ae/start-0001/xcontrol
          coordinate file            : /Users/haywoodau3/Documents/genaisubstrate/data/jacs_2025/stage3/pilot/reference-optimizations/1ae/start-0001/input-assembly.xyz
          omp threads                :                     4


           -------------------------------------------------
          |                 G F N 2 - x T B                 |
           -------------------------------------------------

        Reference                      10.1021/acs.jctc.8b01176
      * Hamiltonian:
        H0-scaling (s, p, d)           1.850000    2.230000    2.230000
        zeta-weighting                 0.500000
      * Dispersion:
        s8                             2.700000
        a1                             0.520000
        a2                             5.000000
        s9                             5.000000
      * Repulsion:
        kExp                           1.500000    1.000000
        rExp                           1.000000
      * Coulomb:
        alpha                          2.000000
        third order                    shell-resolved
        anisotropic                    true
        a3                             3.000000
        a5                             4.000000
        cn-shift                       1.200000
        cn-exp                         4.000000
        max-rad                        5.000000

      * Solvation model:               ALPB
        Solvent                        ether
        Parameter file                 internal GFN2-xTB/ALPB
        Dielectric constant                4.3300E+00
        Reference state                gsolv [1 M gas/solution]
        Free energy shift                  4.9534E-03 Eh       3.1083E+00 kcal/mol
        Temperature                        2.9815E+02 K
        Density                            7.1300E-01 kg/L
        Solvent mass                       7.4120E+01 g/mol
        Interaction kernel             P16
        Born radius scaling (c1)           1.5847E+00
        Born radii integrator          GBOBC
        Born offset                        0.0000E+00 a0       0.0000E+00 AA
        H-bond correction              true
        Ion screening                  false
        Surface tension                    1.0000E-05 Eh       1.5569E+01 dyn/cm
        Grid points                               230 per atom

          ...................................................
          :                      SETUP                      :
          :.................................................:
          :  # basis functions                 667          :
          :  # atomic orbitals                 665          :
          :  # shells                          379          :
          :  # electrons                       707          :
          :  max. iterations                   250          :
          :  Hamiltonian                  GFN2-xTB          :
          :  restarted?                      false          :
          :  GBSA solvation                   true          :
          :  PC potential                    false          :
          :  electronic temp.          300.0000000     K    :
          :  accuracy                    1.0000000          :
          :  -> integral cutoff          0.2500000E+02      :
          :  -> integral neglect         0.1000000E-07      :
          :  -> SCF convergence          0.1000000E-05 Eh   :
          :  -> wf. convergence          0.1000000E-03 e    :
          :  Broyden damping             0.4000000          :
          :  net charge                          0          :
          :  unpaired electrons                  0          :
          ...................................................

 iter      E             dE          RMSdq      gap      omega  full diag
   1   -394.0576269 -0.394058E+03  0.467E+00    0.12       0.0  T
   2   -379.6182431  0.144394E+02  0.588E+00    0.18       1.0  T
   3   -393.1679112 -0.135497E+02  0.378E+00    0.10       1.0  T
   4   -394.3303969 -0.116249E+01  0.214E+00    0.42       1.0  T
   5   -396.7887077 -0.245831E+01  0.123E+00    0.06       1.0  T
   6   -396.9748374 -0.186130E+00  0.587E-01    0.14       1.0  T
   7   -396.7335641  0.241273E+00  0.104E+00    0.06       1.0  T
   8   -396.9882092 -0.254645E+00  0.424E-01    0.09       1.0  T
   9   -396.9642698  0.239394E-01  0.426E-01    0.19       1.0  T
  10   -396.9882362 -0.239663E-01  0.251E-01    0.17       1.0  T
  11   -397.0107551 -0.225190E-01  0.929E-02    0.12       1.0  T
  12   -397.0123884 -0.163323E-02  0.576E-02    0.11       1.0  T
  13   -397.0128284 -0.440004E-03  0.340E-02    0.10       1.0  T
  14   -397.0130531 -0.224733E-03  0.184E-02    0.09       1.0  T
  15   -397.0130676 -0.145121E-04  0.154E-02    0.10       1.0  T
  16   -397.0131082 -0.405311E-04  0.113E-02    0.10       1.0  T
  17   -397.0131218 -0.136551E-04  0.686E-03    0.10       1.0  T
  18   -397.0131227 -0.839009E-06  0.454E-03    0.10       1.4  T
  19   -397.0131260 -0.334126E-05  0.290E-03    0.10       2.2  T
  20   -397.0131268 -0.809394E-06  0.187E-03    0.10       3.5  T
  21   -397.0131275 -0.719420E-06  0.702E-04    0.10       9.2  T
  22   -397.0131275  0.440094E-07  0.862E-04    0.10       7.5  T

   *** convergence criteria satisfied after 22 iterations ***

         #    Occupation            Energy/Eh            Energy/eV
      -------------------------------------------------------------
         1        2.0000           -0.9800882             -26.6696
       ...           ...                  ...                  ...
       348        2.0000           -0.3460562              -9.4167
       349        2.0000           -0.3419135              -9.3039
       350        2.0000           -0.3389381              -9.2230
       351        2.0000           -0.3259259              -8.8689
       352        2.0000           -0.3166714              -8.6171
       353        1.9723           -0.2936377              -7.9903
       354        0.8782           -0.2868365              -7.8052 (HOMO)
       355        0.1185           -0.2832656              -7.7081 (LUMO)
       356        0.0309           -0.2819011              -7.6709
       357        0.0001           -0.2758066              -7.5051
       358                         -0.2692934              -7.3278
       359                         -0.2619999              -7.1294
       ...                                ...                  ...
       665                          1.4809881              40.2997
      -------------------------------------------------------------
                  HL-Gap            0.0035709 Eh            0.0972 eV
             Fermi-level           -0.2877146 Eh           -7.8291 eV

 SCC (total)                   0 d,  0 h,  0 min,  1.855 sec
 SCC setup                      ...        0 min,  0.004 sec (  0.197%)
 Dispersion                     ...        0 min,  0.004 sec (  0.233%)
 classical contributions        ...        0 min,  0.001 sec (  0.039%)
 integral evaluation            ...        0 min,  0.023 sec (  1.236%)
 iterations                     ...        0 min,  1.483 sec ( 79.943%)
 molecular gradient             ...        0 min,  0.320 sec ( 17.270%)
 printout                       ...        0 min,  0.020 sec (  1.081%)

         :::::::::::::::::::::::::::::::::::::::::::::::::::::
         ::                     SUMMARY                     ::
         :::::::::::::::::::::::::::::::::::::::::::::::::::::
         :: total energy            -391.931500435219 Eh    ::
         :: total w/o Gsasa/hb      -391.820638974454 Eh    ::
         :: gradient norm              0.948827187369 Eh/a0 ::
         :: HOMO-LUMO gap              0.097167836407 eV    ::
         ::.................................................::
         :: SCC energy              -396.991079170538 Eh    ::
         :: -> isotropic ES            0.673330884836 Eh    ::
         :: -> anisotropic ES          0.039201744841 Eh    ::
         :: -> anisotropic XC          0.135227107619 Eh    ::
         :: -> dispersion             -0.348151355514 Eh    ::
         :: -> Gsolv                  -0.223921718331 Eh    ::
         ::    -> Gelec               -0.113060257566 Eh    ::
         ::    -> Gsasa               -0.109320287549 Eh    ::
         ::    -> Ghb                 -0.006494610794 Eh    ::
         ::    -> Gshift               0.004953437577 Eh    ::
         :: repulsion energy           5.059578735319 Eh    ::
         :: add. restraining           0.000000000000 Eh    ::
         :: total charge              -0.000000000000 e     ::
         :::::::::::::::::::::::::::::::::::::::::::::::::::::

      ----------------------------------------------------------- 
     |                   =====================                   |
     |                        A N C O P T                        |
     |                   =====================                   |
     |               Approximate Normal Coordinate               |
     |                Rational Function Optimizer                |
      ----------------------------------------------------------- 
      ----------------------------------------------------------- 
     |                   =====================                   |
     |                        A N C O P T                        |
     |                   =====================                   |
     |               Approximate Normal Coordinate               |
     |                Rational Function Optimizer                |
      ----------------------------------------------------------- 

          ...................................................
          :                      SETUP                      :
          :.................................................:
          :   optimization level            normal          :
          :   max. optcycles                   714          :
          :   ANC micro-cycles                  20          :
          :   degrees of freedom               708          :
          :.................................................:
          :   RF solver                   davidson          :
          :   write xtbopt.log                true          :
          :   linear?                        false          :
          :   energy convergence         0.5000000E-05 Eh   :
          :   grad. convergence          0.1000000E-02 Eh/α :
          :   maxmium RF displ.          1.0000000          :
          :   Hlow (freq-cutoff)         0.1000000E-01      :
          :   Hmax (freq-cutoff)         5.0000000          :
          :   S6 in model hess.         20.0000000          :
          ...................................................

generating ANC from exact Hessian ...
Using Lindh-Hessian (1995)
 Shifting diagonal of input Hessian by    9.5202306281929432E-003
 Lowest  eigenvalues of input Hessian
    0.000000    0.000000    0.000000    0.000000    0.000000    0.000000
    0.010000    0.010708    0.011769    0.012047    0.013368    0.013658
    0.016680    0.022544    0.028739    0.029421    0.030583    0.035546
 Highest eigenvalues
    3.293218    3.297030    3.349918    3.502234    3.635117    4.190978


........................................................................
.............................. CYCLE    1 ..............................
........................................................................

 iter      E             dE          RMSdq      gap      omega  full diag
   1   -397.0131276 -0.397013E+03  0.334E-04    0.10       0.0  T
   2   -397.0131268  0.815344E-06  0.154E-03    0.10       4.2  T
   3   -397.0131275 -0.745501E-06  0.563E-04    0.10      11.5  T
   4   -397.0131276 -0.857323E-07  0.188E-04    0.10      34.6  T
     SCC iter.                  ...        0 min,  0.259 sec
     gradient                   ...        0 min,  0.310 sec
 * total energy  :  -391.9315006 Eh     change       -0.1165621E-06 Eh
   gradient norm :     0.9488129 Eh/α   predicted     0.0000000E+00 (-100.00%)
   displ. norm   :     0.4779644 α      lambda       -0.3730753E+00
   maximum displ.:     0.1925159 α      in ANC's #705, #32, #31, ...

........................................................................
.............................. CYCLE    2 ..............................
........................................................................

 iter      E             dE          RMSdq      gap      omega  full diag
   1   -397.1538357 -0.397154E+03  0.674E-01    0.15       0.0  T
   2   -396.0429456  0.111089E+01  0.185E+00    0.12       1.0  T
   3   -397.2466456 -0.120370E+01  0.659E-01    0.25       1.0  T
   4   -397.3066641 -0.600185E-01  0.472E-01    0.17       1.0  T
   5   -397.3648799 -0.582158E-01  0.254E-01    0.11       1.0  T
   6   -397.3574578  0.742206E-02  0.281E-01    0.12       1.0  T
   7   -397.3545691  0.288873E-02  0.261E-01    0.11       1.0  T
   8   -397.3761382 -0.215691E-01  0.639E-02    0.10       1.0  T
   9   -397.3753582  0.780027E-03  0.778E-02    0.10       1.0  T
  10   -397.3767256 -0.136739E-02  0.464E-02    0.10       1.0  T
  11   -397.3772856 -0.560062E-03  0.127E-02    0.10       1.0  T
  12   -397.3773002 -0.146040E-04  0.824E-03    0.10       1.0  T
  13   -397.3773255 -0.252295E-04  0.335E-03    0.10       1.9  T
  14   -397.3773234  0.207099E-05  0.358E-03    0.10       1.8  T
  15   -397.3773272 -0.385360E-05  0.143E-03    0.10       4.5  T
  16   -397.3773275 -0.258401E-06  0.959E-04    0.10       6.8  T
  17   -397.3773278 -0.264757E-06  0.248E-04    0.10      26.1  T
     SCC iter.                  ...        0 min,  1.141 sec
     gradient                   ...        0 min,  0.308 sec
 * total energy  :  -392.2230363 Eh     change       -0.2915357E+00 Eh
   gradient norm :     0.5958071 Eh/α   predicted    -0.2292064E+00 ( -21.38%)
   displ. norm   :     0.5544242 α      lambda       -0.2794642E+00
   maximum displ.:     0.2859928 α      in ANC's #705, #32, #133, ...

........................................................................
.............................. CYCLE    3 ..............................
........................................................................

 iter      E             dE          RMSdq      gap      omega  full diag
   1   -397.4166220 -0.397417E+03  0.791E-01    0.17       0.0  T
   2   -396.0994485  0.131717E+01  0.197E+00    0.10       1.0  T
   3   -397.5452744 -0.144583E+01  0.753E-01    0.28       1.0  T
   4   -397.6042679 -0.589936E-01  0.542E-01    0.17       1.0  T
   5   -397.6721083 -0.678403E-01  0.326E-01    0.11       1.0  T
   6   -397.6886759 -0.165676E-01  0.243E-01    0.03       1.0  T
   7   -397.6692440  0.194318E-01  0.270E-01    0.06       1.0  T
   8   -397.6572995  0.119446E-01  0.328E-01    0.15       1.0  T
   9   -397.6988324 -0.415329E-01  0.604E-02    0.04       1.0  T
  10   -397.6978997  0.932684E-03  0.674E-02    0.04       1.0  T
  11   -397.6992879 -0.138824E-02  0.371E-02    0.03       1.0  T
  12   -397.6997354 -0.447430E-03  0.106E-02    0.03       1.0  T
  13   -397.6997695 -0.341330E-04  0.479E-03    0.03       1.4  T
  14   -397.6997356  0.339044E-04  0.998E-03    0.03       1.0  T
  15   -397.6997759 -0.403143E-04  0.193E-03    0.03       3.4  T
  16   -397.6997771 -0.123838E-05  0.596E-04    0.03      10.9  T
  17   -397.6997769  0.254961E-06  0.887E-04    0.03       7.3  T
  18   -397.6997771 -0.209006E-06  0.609E-04    0.03      10.6  T
     SCC iter.                  ...        0 min,  1.221 sec
     gradient                   ...        0 min,  0.311 sec
 * total energy  :  -392.4245223 Eh     change       -0.2014860E+00 Eh
   gradient norm :     0.3289985 Eh/α   predicted    -0.1826842E+00 (  -9.33%)
   displ. norm   :     0.5732997 α      lambda       -0.1411303E+00
   maximum displ.:     0.2292084 α      in ANC's #705, #27, #32, ...

........................................................................
.............................. CYCLE    4 ..............................
........................................................................

 iter      E             dE          RMSdq      gap      omega  full diag
   1   -397.8091610 -0.397809E+03  0.447E-01    0.09       0.0  T
   2   -397.1944397  0.614721E+00  0.137E+00    0.24       1.0  T
   3   -397.8085037 -0.614064E+00  0.492E-01    0.17       1.0  T
   4   -397.8270018 -0.184981E-01  0.381E-01    0.13       1.0  T
   5   -397.6711252  0.155877E+00  0.665E-01    0.14       1.0  T
   6   -397.8574911 -0.186366E+00  0.192E-01    0.06       1.0  T
   7   -397.8516664  0.582471E-02  0.212E-01    0.06       1.0  T
   8   -397.8696944 -0.180279E-01  0.356E-02    0.01       1.0  T
   9   -397.8698220 -0.127688E-03  0.210E-02    0.01       1.0  T
  10   -397.8696916  0.130399E-03  0.269E-02    0.01       1.0  T
  11   -397.8698527 -0.161069E-03  0.927E-03    0.01       1.0  T
  12   -397.8697508  0.101915E-03  0.179E-02    0.01       1.0  T
  13   -397.8698396 -0.887892E-04  0.994E-03    0.01       1.0  T
  14   -397.8698792 -0.395968E-04  0.220E-03    0.01       2.9  T
  15   -397.8698760  0.315311E-05  0.359E-03    0.01       1.8  T
  16   -397.8698805 -0.447099E-05  0.104E-03    0.01       6.2  T
  17   -397.8698808 -0.315063E-06  0.540E-04    0.01      12.0  T
  18   -397.8698807  0.642550E-07  0.682E-04    0.01       9.5  T
     SCC iter.                  ...        0 min,  1.230 sec
     gradient                   ...        0 min,  0.309 sec
 * total energy  :  -392.5380563 Eh     change       -0.1135341E+00 Eh
   gradient norm :     0.2970724 Eh/α   predicted    -0.9375798E-01 ( -17.42%)
   displ. norm   :     0.6880981 α      lambda       -0.1377934E+00
   maximum displ.:     0.2215334 α      in ANC's #705, #17, #27, ...

........................................................................
.............................. CYCLE    5 ..............................
........................................................................

 iter      E             dE          RMSdq      gap      omega  full diag
   1   -397.9722106 -0.397972E+03  0.436E-01    0.05       0.0  T
   2   -397.9072619  0.649487E-01  0.520E-01    0.06       1.0  T
   3   -397.9469804 -0.397185E-01  0.416E-01    0.20       1.0  T
   4   -397.9282855  0.186949E-01  0.517E-01    0.07       1.0  T
   5   -397.9692005 -0.409150E-01  0.296E-01    0.07       1.0  T
   6   -397.9910607 -0.218602E-01  0.102E-01    0.01       1.0  T
   7   -397.9892190  0.184168E-02  0.106E-01    0.04       1.0  T
   8   -397.9900487 -0.829683E-03  0.834E-02    0.01       1.0  T
   9   -397.9921214 -0.207264E-02  0.465E-02    0.03       1.0  T
  10   -397.9929081 -0.786744E-03  0.113E-02    0.02       1.0  T
  11   -397.9929212 -0.131276E-04  0.497E-03    0.02       1.3  T
  12   -397.9929246 -0.332999E-05  0.341E-03    0.02       1.9  T
  13   -397.9929267 -0.209902E-05  0.132E-03    0.02       4.9  T
  14   -397.9929266  0.737482E-07  0.107E-03    0.02       6.1  T
  15   -397.9929268 -0.206337E-06  0.701E-04    0.02       9.2  T
  16   -397.9929269 -0.120129E-06  0.362E-04    0.02      17.9  T
     SCC iter.                  ...        0 min,  1.076 sec
     gradient                   ...        0 min,  0.307 sec
 * total energy  :  -392.6574572 Eh     change       -0.1194009E+00 Eh
   gradient norm :     0.3370665 Eh/α   predicted    -0.1015179E+00 ( -14.98%)
   displ. norm   :     0.7458376 α      lambda       -0.1457077E+00
   maximum displ.:     0.1858410 α      in ANC's #17, #705, #57, ...

........................................................................
.............................. CYCLE    6 ..............................
........................................................................

 iter      E             dE          RMSdq      gap      omega  full diag
   1   -398.0400291 -0.398040E+03  0.413E-01    0.13       0.0  T
   2   -397.6720791  0.367950E+00  0.113E+00    0.38       1.0  T
   3   -398.0471606 -0.375082E+00  0.297E-01    0.04       1.0  T
   4   -398.0567058 -0.954514E-02  0.258E-01    0.15       1.0  T
   5   -398.0639424 -0.723665E-02  0.202E-01    0.12       1.0  T
   6   -398.0704567 -0.651431E-02  0.868E-02    0.08       1.0  T
   7   -398.0717486 -0.129189E-02  0.505E-02    0.10       1.0  T
   8   -398.0720240 -0.275410E-03  0.309E-02    0.07       1.0  T
   9   -398.0722418 -0.217737E-03  0.214E-02    0.09       1.0  T
  10   -398.0723201 -0.782856E-04  0.100E-02    0.09       1.0  T
  11   -398.0723340 -0.139683E-04  0.487E-03    0.08       1.3  T
  12   -398.0723374 -0.336495E-05  0.355E-03    0.08       1.8  T
  13   -398.0723395 -0.213802E-05  0.190E-03    0.08       3.4  T
  14   -398.0723402 -0.660317E-06  0.790E-04    0.08       8.2  T
  15   -398.0723402 -0.565405E-07  0.585E-04    0.08      11.1  T
     SCC iter.                  ...        0 min,  1.004 sec
     gradient                   ...        0 min,  0.310 sec
 * total energy  :  -392.7764164 Eh     change       -0.1189592E+00 Eh
   gradient norm :     0.3258024 Eh/α   predicted    -0.1133808E+00 (  -4.69%)
   displ. norm   :     0.6962387 α      lambda       -0.1192359E+00
   maximum displ.:     0.2174454 α      in ANC's #17, #9, #27, ...

........................................................................
.............................. CYCLE    7 ..............................
........................................................................

 iter      E             dE          RMSdq      gap      omega  full diag
   1   -398.0371973 -0.398037E+03  0.416E-01    0.08       0.0  T
   2   -397.4465323  0.590665E+00  0.138E+00    0.31       1.0  T
   3   -398.0690108 -0.622478E+00  0.379E-01    0.21       1.0  T
   4   -398.1015716 -0.325608E-01  0.198E-01    0.18       1.0  T
   5   -398.1095874 -0.801578E-02  0.120E-01    0.18       1.0  T
   6   -398.1109329 -0.134546E-02  0.772E-02    0.14       1.0  T
   7   -398.1104666  0.466315E-03  0.657E-02    0.15       1.0  T
   8   -398.1110359 -0.569341E-03  0.461E-02    0.15       1.0  T
   9   -398.1114021 -0.366194E-03  0.165E-02    0.15       1.0  T
  10   -398.1114809 -0.787953E-04  0.751E-03    0.15       1.0  T
  11   -398.1114907 -0.978693E-05  0.349E-03    0.15       1.9  T
  12   -398.1114929 -0.226127E-05  0.154E-03    0.15       4.2  T
  13   -398.1114932 -0.279950E-06  0.718E-04    0.15       9.0  T
  14   -398.1114933 -0.694329E-07  0.322E-04    0.15      20.1  T
     SCC iter.                  ...        0 min,  0.933 sec
     gradient                   ...        0 min,  0.320 sec
 * total energy  :  -392.8777304 Eh     change       -0.1013140E+00 Eh
   gradient norm :     0.2781465 Eh/α   predicted    -0.8851775E-01 ( -12.63%)
   displ. norm   :     0.7087352 α      lambda       -0.1129122E+00
   maximum displ.:     0.2350861 α      in ANC's #17, #31, #9, ...

........................................................................
.............................. CYCLE    8 ..............................
........................................................................

 iter      E             dE          RMSdq      gap      omega  full diag
   1   -397.8189950 -0.397819E+03  0.817E-01    0.12       0.0  T
   2   -396.4533048  0.136569E+01  0.204E+00    0.22       1.0  T
   3   -398.0064839 -0.155318E+01  0.694E-01    0.23       1.0  T
   4   -398.1159956 -0.109512E+00  0.322E-01    0.20       1.0  T
   5   -398.1427179 -0.267223E-01  0.194E-01    0.20       1.0  T
   6   -398.1427396 -0.217243E-04  0.195E-01    0.20       1.0  T
   7   -398.1491180 -0.637839E-02  0.142E-01    0.20       1.0  T
   8   -398.1525831 -0.346512E-02  0.919E-02    0.19       1.0  T
   9   -398.1516417  0.941371E-03  0.979E-02    0.13       1.0  T
  10   -398.1538248 -0.218310E-02  0.362E-02    0.13       1.0  T
  11   -398.1541348 -0.309944E-03  0.147E-02    0.14       1.0  T
  12   -398.1541658 -0.310519E-04  0.736E-03    0.14       1.0  T
  13   -398.1541763 -0.104693E-04  0.457E-03    0.14       1.4  T
  14   -398.1541794 -0.308714E-05  0.188E-03    0.14       3.4  T
  15   -398.1541801 -0.740987E-06  0.792E-04    0.14       8.2  T
  16   -398.1541801  0.407074E-07  0.714E-04    0.14       9.1  T
     SCC iter.                  ...        0 min,  1.095 sec
     gradient                   ...        0 min,  0.308 sec
 * total energy  :  -392.9733872 Eh     change       -0.9565682E-01 Eh
   gradient norm :     0.2342842 Eh/α   predicted    -0.8481437E-01 ( -11.33%)
   displ. norm   :     0.7371412 α      lambda       -0.1019558E+00
   maximum displ.:     0.2423169 α      in ANC's #17, #9, #31, ...

........................................................................
.............................. CYCLE    9 ..............................
........................................................................

 iter      E             dE          RMSdq      gap      omega  full diag
   1   -397.9708624 -0.397971E+03  0.729E-01    0.14       0.0  T
   2   -396.5624629  0.140840E+01  0.196E+00    0.22       1.0  T
   3   -398.1391738 -0.157671E+01  0.520E-01    0.22       1.0  T
   4   -398.1898142 -0.506404E-01  0.343E-01    0.21       1.0  T
   5   -398.2115108 -0.216966E-01  0.192E-01    0.19       1.0  T
   6   -398.2098702  0.164061E-02  0.212E-01    0.19       1.0  T
   7   -398.2164042 -0.653393E-02  0.130E-01    0.14       1.0  T
   8   -398.2145829  0.182130E-02  0.115E-01    0.06       1.0  T
   9   -398.2201742 -0.559131E-02  0.281E-02    0.11       1.0  T
  10   -398.2202256 -0.514242E-04  0.205E-02    0.11       1.0  T
  11   -398.2202706 -0.449629E-04  0.121E-02    0.11       1.0  T
  12   -398.2203028 -0.322753E-04  0.683E-03    0.11       1.0  T
  13   -398.2203099 -0.702745E-05  0.229E-03    0.11       2.8  T
  14   -398.2203106 -0.702942E-06  0.115E-03    0.11       5.6  T
  15   -398.2203108 -0.198616E-06  0.794E-04    0.11       8.2  T
  16   -398.2203106  0.162638E-06  0.876E-04    0.11       7.4  T
     SCC iter.                  ...        0 min,  1.074 sec
     gradient                   ...        0 min,  0.309 sec
 * total energy  :  -393.0592773 Eh     change       -0.8589002E-01 Eh
   gradient norm :     0.2499217 Eh/α   predicted    -0.7867810E-01 (  -8.40%)
   displ. norm   :     0.7166329 α      lambda       -0.9249308E-01
   maximum displ.:     0.2267140 α      in ANC's #17, #6, #9, ...

........................................................................
.............................. CYCLE   10 ..............................
........................................................................

 iter      E             dE          RMSdq      gap      omega  full diag
   1   -398.2547216 -0.398255E+03  0.448E-01    0.06       0.0  T
   2   -398.1010434  0.153678E+00  0.823E-01    0.50       1.0  T
   3   -398.2783855 -0.177342E+00  0.364E-01    0.17       1.0  T
   4   -398.3024986 -0.241130E-01  0.190E-01    0.16       1.0  T
   5   -398.3055979 -0.309928E-02  0.864E-02    0.10       1.0  T
   6   -398.3065722 -0.974395E-03  0.556E-02    0.16       1.0  T
   7   -398.3064982  0.740592E-04  0.502E-02    0.12       1.0  T
   8   -398.3073189 -0.820676E-03  0.160E-02    0.15       1.0  T
   9   -398.3073945 -0.756190E-04  0.901E-03    0.14       1.0  T
  10   -398.3073778  0.166955E-04  0.960E-03    0.14       1.0  T
  11   -398.3074011 -0.233619E-04  0.263E-03    0.14       2.5  T
  12   -398.3074029 -0.172620E-05  0.116E-03    0.14       5.6  T
  13   -398.3074030 -0.140025E-06  0.747E-04    0.14       8.7  T
  14   -398.3074031 -0.652890E-07  0.429E-04    0.14      15.1  T
     SCC iter.                  ...        0 min,  0.942 sec
     gradient                   ...        0 min,  0.308 sec
 * total energy  :  -393.1386037 Eh     change       -0.7932647E-01 Eh
   gradient norm :     0.2828628 Eh/α   predicted    -0.6999704E-01 ( -11.76%)
   displ. norm   :     0.6961992 α      lambda       -0.9518368E-01
   maximum displ.:     0.1999890 α      in ANC's #17, #6, #32, ...

........................................................................
.............................. CYCLE   11 ..............................
........................................................................

 iter      E             dE          RMSdq      gap      omega  full diag
   1   -398.4016737 -0.398402E+03  0.329E-01    0.18       0.0  T
   2   -398.3961294  0.554431E-02  0.308E-01    0.15       1.0  T
   3   -398.3917907  0.433864E-02  0.330E-01    0.28       1.0  T
   4   -398.4103272 -0.185364E-01  0.162E-01    0.16       1.0  T
   5   -398.4125753 -0.224810E-02  0.121E-01    0.22       1.0  T
   6   -398.4147469 -0.217161E-02  0.153E-02    0.18       1.0  T
   7   -398.4147416  0.532204E-05  0.107E-02    0.19       1.0  T
   8   -398.4147642 -0.226214E-04  0.615E-03    0.18       1.1  T
   9   -398.4147712 -0.702975E-05  0.304E-03    0.19       2.1  T
  10   -398.4147724 -0.116266E-05  0.173E-03    0.19       3.7  T
  11   -398.4147726 -0.255847E-06  0.113E-03    0.19       5.7  T
  12   -398.4147728 -0.193358E-06  0.564E-04    0.19      11.5  T
  13   -398.4147728 -0.241401E-07  0.377E-04    0.19      17.2  T
     SCC iter.                  ...        0 min,  0.929 sec
     gradient                   ...        0 min,  0.315 sec
 * total energy  :  -393.2138586 Eh     change       -0.7525484E-01 Eh
   gradient norm :     0.2639233 Eh/α   predicted    -0.7065937E-01 (  -6.11%)
   displ. norm   :     0.6380282 α      lambda       -0.8081859E-01
   maximum displ.:     0.2053639 α      in ANC's #32, #6, #17, ...

........................................................................
.............................. CYCLE   12 ..............................
........................................................................

 iter      E             dE          RMSdq      gap      omega  full diag
   1   -398.4956387 -0.398496E+03  0.229E-01    0.17       0.0  T
   2   -398.4782188  0.174199E-01  0.346E-01    0.14       1.0  T
   3   -398.4938751 -0.156563E-01  0.190E-01    0.23       1.0  T
   4   -398.4977475 -0.387240E-02  0.132E-01    0.14       1.0  T
   5   -398.4998634 -0.211591E-02  0.591E-02    0.19       1.0  T
   6   -398.5003842 -0.520821E-03  0.129E-02    0.17       1.0  T
   7   -398.5004057 -0.214694E-04  0.520E-03    0.17       1.2  T
   8   -398.5004095 -0.383295E-05  0.245E-03    0.17       2.7  T
   9   -398.5004101 -0.534296E-06  0.164E-03    0.17       3.9  T
  10   -398.5004103 -0.183271E-06  0.122E-03    0.17       5.3  T
  11   -398.5004104 -0.100865E-06  0.886E-04    0.17       7.3  T
  12   -398.5004105 -0.870468E-07  0.509E-04    0.17      12.7  T
     SCC iter.                  ...        0 min,  0.818 sec
     gradient                   ...        0 min,  0.309 sec
 * total energy  :  -393.2803628 Eh     change       -0.6650426E-01 Eh
   gradient norm :     0.2087520 Eh/α   predicted    -0.5685912E-01 ( -14.50%)
   displ. norm   :     0.6477332 α      lambda       -0.7537888E-01
   maximum displ.:     0.2454009 α      in ANC's #32, #7, #6, ...

........................................................................
.............................. CYCLE   13 ..............................
........................................................................

 iter      E             dE          RMSdq      gap      omega  full diag
   1   -398.5490796 -0.398549E+03  0.193E-01    0.16       0.0  T
   2   -398.5400495  0.903016E-02  0.256E-01    0.13       1.0  T
   3   -398.5466931 -0.664362E-02  0.162E-01    0.21       1.0  T
   4   -398.5482571 -0.156397E-02  0.128E-01    0.12       1.0  T
   5   -398.5507021 -0.244501E-02  0.388E-02    0.17       1.0  T
   6   -398.5509522 -0.250103E-03  0.896E-03    0.16       1.0  T
   7   -398.5509625 -0.102620E-04  0.402E-03    0.16       1.6  T
   8   -398.5509640 -0.152662E-05  0.234E-03    0.16       2.8  T
   9   -398.5509648 -0.825454E-06  0.139E-03    0.16       4.7  T
  10   -398.5509650 -0.200216E-06  0.911E-04    0.16       7.1  T
  11   -398.5509651 -0.597639E-07  0.609E-04    0.16      10.6  T
     SCC iter.                  ...        0 min,  0.726 sec
     gradient                   ...        0 min,  0.306 sec
 * total energy  :  -393.3361829 Eh     change       -0.5582013E-01 Eh
   gradient norm :     0.1508121 Eh/α   predicted    -0.5350237E-01 (  -4.15%)
   displ. norm   :     0.6355949 α      lambda       -0.4064327E-01
   maximum displ.:     0.3052146 α      in ANC's #7, #6, #32, ...

........................................................................
.............................. CYCLE   14 ..............................
........................................................................

 iter      E             dE          RMSdq      gap      omega  full diag
   1   -398.5771260 -0.398577E+03  0.117E-01    0.16       0.0  T
   2   -398.5744570  0.266896E-02  0.133E-01    0.12       1.0  T
   3   -398.5751395 -0.682487E-03  0.117E-01    0.20       1.0  T
   4   -398.5776552 -0.251571E-02  0.288E-02    0.15       1.0  T
   5   -398.5776985 -0.433312E-04  0.191E-02    0.15       1.0  T
   6   -398.5777287 -0.301795E-04  0.844E-03    0.15       1.0  T
   7   -398.5777369 -0.815547E-05  0.285E-03    0.15       2.3  T
   8   -398.5777377 -0.829068E-06  0.127E-03    0.15       5.1  T
   9   -398.5777378 -0.692876E-07  0.789E-04    0.15       8.2  T
  10   -398.5777378 -0.721906E-07  0.486E-04    0.15      13.3  T
     SCC iter.                  ...        0 min,  0.657 sec
     gradient                   ...        0 min,  0.307 sec
 * total energy  :  -393.3670368 Eh     change       -0.3085388E-01 Eh
   gradient norm :     0.1294342 Eh/α   predicted    -0.2853124E-01 (  -7.53%)
   displ. norm   :     0.6479088 α      lambda       -0.3497234E-01
   maximum displ.:     0.3410023 α      in ANC's #6, #7, #13, ...

........................................................................
.............................. CYCLE   15 ..............................
........................................................................

 iter      E             dE          RMSdq      gap      omega  full diag
   1   -398.5857406 -0.398586E+03  0.120E-01    0.17       0.0  T
   2   -398.5846050  0.113561E-02  0.112E-01    0.13       1.0  T
   3   -398.5828857  0.171926E-02  0.134E-01    0.21       1.0  T
   4   -398.5865607 -0.367501E-02  0.331E-02    0.16       1.0  T
   5   -398.5865196  0.411262E-04  0.292E-02    0.15       1.0  T
   6   -398.5865870 -0.674192E-04  0.118E-02    0.16       1.0  T
   7   -398.5866036 -0.165689E-04  0.375E-03    0.16       1.7  T
   8   -398.5866060 -0.235777E-05  0.148E-03    0.16       4.4  T
   9   -398.5866060 -0.322537E-07  0.127E-03    0.16       5.1  T
  10   -398.5866062 -0.238112E-06  0.607E-04    0.16      10.7  T
  11   -398.5866063 -0.688947E-07  0.187E-04    0.16      34.6  T
     SCC iter.                  ...        0 min,  0.724 sec
     gradient                   ...        0 min,  0.308 sec
 * total energy  :  -393.3925396 Eh     change       -0.2550277E-01 Eh
   gradient norm :     0.1093358 Eh/α   predicted    -0.2482662E-01 (  -2.65%)
   displ. norm   :     0.6573179 α      lambda       -0.2743554E-01
   maximum displ.:     0.3262244 α      in ANC's #7, #6, #13, ...

........................................................................
.............................. CYCLE   16 ..............................
........................................................................

 iter      E             dE          RMSdq      gap      omega  full diag
   1   -398.6079938 -0.398608E+03  0.116E-01    0.15       0.0  T
   2   -398.6081912 -0.197446E-03  0.750E-02    0.15       1.0  T
   3   -398.6076641  0.527165E-03  0.834E-02    0.15       1.0  T
   4   -398.6079449 -0.280867E-03  0.527E-02    0.14       1.0  T
   5   -398.6079314  0.135110E-04  0.472E-02    0.17       1.0  T
   6   -398.6084305 -0.499069E-03  0.515E-03    0.15       1.3  T
   7   -398.6084336 -0.311438E-05  0.276E-03    0.15       2.3  T
   8   -398.6084347 -0.113834E-05  0.150E-03    0.15       4.3  T
   9   -398.6084349 -0.220267E-06  0.818E-04    0.15       7.9  T
  10   -398.6084350 -0.548877E-07  0.518E-04    0.15      12.5  T
     SCC iter.                  ...        0 min,  0.665 sec
     gradient                   ...        0 min,  0.308 sec
 * total energy  :  -393.4133925 Eh     change       -0.2085294E-01 Eh
   gradient norm :     0.0790031 Eh/α   predicted    -0.1964480E-01 (  -5.79%)
   displ. norm   :     0.6375375 α      lambda       -0.1862081E-01
   maximum displ.:     0.3254481 α      in ANC's #6, #7, #13, ...

........................................................................
.............................. CYCLE   17 ..............................
........................................................................

 iter      E             dE          RMSdq      gap      omega  full diag
   1   -398.6294963 -0.398629E+03  0.923E-02    0.13       0.0  T
   2   -398.6295086 -0.122593E-04  0.570E-02    0.14       1.0  T
   3   -398.6269956  0.251301E-02  0.110E-01    0.11       1.0  T
   4   -398.6291935 -0.219792E-02  0.478E-02    0.15       1.0  T
   5   -398.6295514 -0.357882E-03  0.256E-02    0.14       1.0  T
   6   -398.6296160 -0.646198E-04  0.838E-03    0.14       1.0  T
   7   -398.6296282 -0.121602E-04  0.338E-03    0.14       1.9  T
   8   -398.6296302 -0.204765E-05  0.124E-03    0.14       5.2  T
   9   -398.6296303 -0.120616E-06  0.681E-04    0.14       9.5  T
  10   -398.6296304 -0.405546E-07  0.443E-04    0.14      14.6  T
     SCC iter.                  ...        0 min,  0.661 sec
     gradient                   ...        0 min,  0.308 sec
 * total energy  :  -393.4282688 Eh     change       -0.1487622E-01 Eh
   gradient norm :     0.0735716 Eh/α   predicted    -0.1309467E-01 ( -11.98%)
   displ. norm   :     0.6427411 α      lambda       -0.1471392E-01
   maximum displ.:     0.3361837 α      in ANC's #6, #13, #7, ...

........................................................................
.............................. CYCLE   18 ..............................
........................................................................

 iter      E             dE          RMSdq      gap      omega  full diag
   1   -398.6449017 -0.398645E+03  0.937E-02    0.12       0.0  T
   2   -398.6429503  0.195140E-02  0.111E-01    0.17       1.0  T
   3   -398.6433300 -0.379768E-03  0.100E-01    0.11       1.0  T
   4   -398.6447439 -0.141385E-02  0.604E-02    0.13       1.0  T
   5   -398.6451869 -0.442974E-03  0.171E-02    0.13       1.0  T
   6   -398.6452037 -0.168485E-04  0.714E-03    0.13       1.0  T
   7   -398.6452108 -0.708017E-05  0.300E-03    0.13       2.2  T
   8   -398.6452124 -0.165116E-05  0.110E-03    0.13       5.9  T
   9   -398.6452125 -0.264973E-07  0.762E-04    0.13       8.5  T
  10   -398.6452125 -0.763583E-07  0.452E-04    0.13      14.4  T
     SCC iter.                  ...        0 min,  0.658 sec
     gradient                   ...        0 min,  0.308 sec
 * total energy  :  -393.4400575 Eh     change       -0.1178878E-01 Eh
   gradient norm :     0.0666024 Eh/α   predicted    -0.1039627E-01 ( -11.81%)
   displ. norm   :     0.6228431 α      lambda       -0.1233906E-01
   maximum displ.:     0.3458231 α      in ANC's #6, #4, #7, ...

........................................................................
.............................. CYCLE   19 ..............................
........................................................................

 iter      E             dE          RMSdq      gap      omega  full diag
   1   -398.6639814 -0.398664E+03  0.882E-02    0.11       0.0  T
   2   -398.6596273  0.435404E-02  0.150E-01    0.18       1.0  T
   3   -398.6637666 -0.413924E-02  0.681E-02    0.11       1.0  T
   4   -398.6642963 -0.529772E-03  0.357E-02    0.12       1.0  T
   5   -398.6644143 -0.117970E-03  0.205E-02    0.12       1.0  T
   6   -398.6644573 -0.430280E-04  0.571E-03    0.12       1.1  T
   7   -398.6644615 -0.417323E-05  0.227E-03    0.12       2.9  T
   8   -398.6644621 -0.634577E-06  0.126E-03    0.12       5.1  T
   9   -398.6644624 -0.220885E-06  0.653E-04    0.12       9.9  T
  10   -398.6644624 -0.357457E-07  0.388E-04    0.12      16.7  T
     SCC iter.                  ...        0 min,  0.659 sec
     gradient                   ...        0 min,  0.309 sec
 * total energy  :  -393.4493399 Eh     change       -0.9282334E-02 Eh
   gradient norm :     0.0496847 Eh/α   predicted    -0.8562903E-02 (  -7.75%)
   displ. norm   :     0.7049042 α      lambda       -0.1066427E-01
   maximum displ.:     0.4314294 α      in ANC's #6, #13, #4, ...

........................................................................
.............................. CYCLE   20 ..............................
........................................................................

 iter      E             dE          RMSdq      gap      omega  full diag
   1   -398.6581974 -0.398658E+03  0.101E-01    0.10       0.0  T
   2   -398.6513816  0.681586E-02  0.189E-01    0.19       1.0  T
   3   -398.6584667 -0.708513E-02  0.645E-02    0.11       1.0  T
   4   -398.6584514  0.153017E-04  0.633E-02    0.11       1.0  T
   5   -398.6589007 -0.449320E-03  0.148E-02    0.11       1.0  T
   6   -398.6589220 -0.212823E-04  0.505E-03    0.11       1.3  T
   7   -398.6589249 -0.290404E-05  0.277E-03    0.11       2.3  T
   8   -398.6589260 -0.105291E-05  0.124E-03    0.11       5.2  T
   9   -398.6589262 -0.211094E-06  0.619E-04    0.11      10.5  T
  10   -398.6589262 -0.449880E-07  0.305E-04    0.11      21.3  T
     SCC iter.                  ...        0 min,  0.684 sec
     gradient                   ...        0 min,  0.314 sec
 * total energy  :  -393.4561162 Eh     change       -0.6776321E-02 Eh
   gradient norm :     0.0556674 Eh/α   predicted    -0.7981623E-02 (  17.79%)
   displ. norm   :     0.5560676 α      lambda       -0.8941440E-02
   maximum displ.:     0.3045345 α      in ANC's #6, #4, #2, ...
 * RMSD in coord.:     0.6369944 α      energy gain  -0.1524616E+01 Eh

generating ANC from exact Hessian ...
Using Lindh-Hessian (1995)
 Shifting diagonal of input Hessian by    9.4527979764745217E-003
 Lowest  eigenvalues of input Hessian
    0.000000    0.000000    0.000000    0.000000    0.000000    0.000000
    0.010000    0.010295    0.010507    0.011300    0.011651    0.013511
    0.014539    0.015196    0.017399    0.018691    0.021475    0.026948
 Highest eigenvalues
    3.127658    3.202576    3.210996    3.245721    3.329203    3.335802


........................................................................
.............................. CYCLE   21 ..............................
........................................................................

 iter      E             dE          RMSdq      gap      omega  full diag
   1   -398.6725316 -0.398673E+03  0.755E-02    0.10       0.0  T
   2   -398.6653603  0.717136E-02  0.190E-01    0.18       1.0  T
   3   -398.6731239 -0.776360E-02  0.352E-02    0.11       1.0  T
   4   -398.6729916  0.132286E-03  0.438E-02    0.11       1.0  T
   5   -398.6731745 -0.182926E-03  0.136E-02    0.11       1.0  T
   6   -398.6731855 -0.109462E-04  0.595E-03    0.11       1.1  T
   7   -398.6731919 -0.642585E-05  0.253E-03    0.11       2.6  T
   8   -398.6731928 -0.914206E-06  0.120E-03    0.11       5.4  T
   9   -398.6731929 -0.129520E-06  0.674E-04    0.11       9.6  T
  10   -398.6731930 -0.256912E-07  0.499E-04    0.11      13.0  T
     SCC iter.                  ...        0 min,  0.665 sec
     gradient                   ...        0 min,  0.310 sec
 * total energy  :  -393.4623597 Eh     change       -0.6243503E-02 Eh
   gradient norm :     0.0487826 Eh/α   predicted     0.0000000E+00 (-100.00%)
   displ. norm   :     0.5298895 α      lambda       -0.9949633E-02
   maximum displ.:     0.2896335 α      in ANC's #3, #1, #2, ...

........................................................................
.............................. CYCLE   22 ..............................
........................................................................

 iter      E             dE          RMSdq      gap      omega  full diag
   1   -398.6853476 -0.398685E+03  0.644E-02    0.11       0.0  T
   2   -398.6849995  0.348148E-03  0.578E-02    0.12       1.0  T
   3   -398.6828975  0.210201E-02  0.114E-01    0.10       1.0  T
   4   -398.6852760 -0.237853E-02  0.302E-02    0.11       1.0  T
   5   -398.6853751 -0.991404E-04  0.194E-02    0.11       1.0  T
   6   -398.6854239 -0.488006E-04  0.389E-03    0.11       1.7  T
   7   -398.6854256 -0.171168E-05  0.180E-03    0.11       3.6  T
   8   -398.6854262 -0.508407E-06  0.865E-04    0.11       7.5  T
   9   -398.6854262 -0.417228E-07  0.516E-04    0.11      12.6  T
     SCC iter.                  ...        0 min,  0.596 sec
     gradient                   ...        0 min,  0.307 sec
 * total energy  :  -393.4703692 Eh     change       -0.8009502E-02 Eh
   gradient norm :     0.0208425 Eh/α   predicted    -0.6389123E-02 ( -20.23%)
   displ. norm   :     0.7136097 α      lambda       -0.8324530E-02
   maximum displ.:     0.4091116 α      in ANC's #3, #1, #8, ...

........................................................................
.............................. CYCLE   23 ..............................
........................................................................

 iter      E             dE          RMSdq      gap      omega  full diag
   1   -398.6901988 -0.398690E+03  0.705E-02    0.10       0.0  T
   2   -398.6899156  0.283221E-03  0.572E-02    0.11       1.0  T
   3   -398.6866569  0.325873E-02  0.135E-01    0.09       1.0  T
   4   -398.6900904 -0.343356E-02  0.311E-02    0.11       1.0  T
   5   -398.6902258 -0.135341E-03  0.178E-02    0.10       1.0  T
   6   -398.6902642 -0.383955E-04  0.467E-03    0.10       1.4  T
   7   -398.6902667 -0.252432E-05  0.212E-03    0.10       3.1  T
   8   -398.6902675 -0.760696E-06  0.104E-03    0.10       6.2  T
   9   -398.6902675 -0.673272E-07  0.560E-04    0.10      11.6  T
  10   -398.6902676 -0.544919E-07  0.295E-04    0.10      22.0  T
     SCC iter.                  ...        0 min,  0.661 sec
     gradient                   ...        0 min,  0.312 sec
 * total energy  :  -393.4772054 Eh     change       -0.6836169E-02 Eh
   gradient norm :     0.0182398 Eh/α   predicted    -0.6281853E-02 (  -8.11%)
   displ. norm   :     0.7548224 α      lambda       -0.6212801E-02
   maximum displ.:     0.4439615 α      in ANC's #3, #1, #8, ...

........................................................................
.............................. CYCLE   24 ..............................
........................................................................

 iter      E             dE          RMSdq      gap      omega  full diag
   1   -398.6913173 -0.398691E+03  0.571E-02    0.10       0.0  T
   2   -398.6911802  0.137100E-03  0.422E-02    0.10       1.0  T
   3   -398.6886033  0.257694E-02  0.117E-01    0.09       1.0  T
   4   -398.6912960 -0.269272E-02  0.169E-02    0.10       1.0  T
   5   -398.6913345 -0.384798E-04  0.949E-03    0.10       1.0  T
   6   -398.6913529 -0.183941E-04  0.304E-03    0.10       2.1  T
   7   -398.6913537 -0.829822E-06  0.148E-03    0.10       4.4  T
   8   -398.6913538 -0.107542E-06  0.933E-04    0.10       6.9  T
   9   -398.6913539 -0.121896E-06  0.388E-04    0.10      16.7  T
     SCC iter.                  ...        0 min,  0.601 sec
     gradient                   ...        0 min,  0.308 sec
 * total energy  :  -393.4826259 Eh     change       -0.5420551E-02 Eh
   gradient norm :     0.0214357 Eh/α   predicted    -0.4876297E-02 ( -10.04%)
   displ. norm   :     0.7741805 α      lambda       -0.5615335E-02
   maximum displ.:     0.4625921 α      in ANC's #3, #1, #8, ...

........................................................................
.............................. CYCLE   25 ..............................
........................................................................

 iter      E             dE          RMSdq      gap      omega  full diag
   1   -398.6945457 -0.398695E+03  0.490E-02    0.10       0.0  T
   2   -398.6941760  0.369692E-03  0.508E-02    0.10       1.0  T
   3   -398.6931665  0.100947E-02  0.850E-02    0.09       1.0  T
   4   -398.6945551 -0.138863E-02  0.150E-02    0.10       1.0  T
   5   -398.6945606 -0.542900E-05  0.124E-02    0.09       1.0  T
   6   -398.6945823 -0.217730E-04  0.428E-03    0.10       1.5  T
   7   -398.6945853 -0.296894E-05  0.107E-03    0.10       6.1  T
   8   -398.6945854 -0.876313E-07  0.727E-04    0.10       8.9  T
   9   -398.6945854 -0.501109E-07  0.436E-04    0.10      14.9  T
     SCC iter.                  ...        0 min,  0.618 sec
     gradient                   ...        0 min,  0.308 sec
 * total energy  :  -393.4877150 Eh     change       -0.5089066E-02 Eh
   gradient norm :     0.0178726 Eh/α   predicted    -0.4490460E-02 ( -11.76%)
   displ. norm   :     0.8141837 α      lambda       -0.5508302E-02
   maximum displ.:     0.4842055 α      in ANC's #3, #1, #8, ...

........................................................................
.............................. CYCLE   26 ..............................
........................................................................

 iter      E             dE          RMSdq      gap      omega  full diag
   1   -398.6992705 -0.398699E+03  0.513E-02    0.09       0.0  T
   2   -398.6978364  0.143418E-02  0.892E-02    0.11       1.0  T
   3   -398.6988162 -0.979844E-03  0.555E-02    0.09       1.0  T
   4   -398.6993346 -0.518441E-03  0.162E-02    0.09       1.0  T
   5   -398.6993258  0.888427E-05  0.160E-02    0.09       1.0  T
   6   -398.6993570 -0.312130E-04  0.386E-03    0.09       1.7  T
   7   -398.6993598 -0.279099E-05  0.124E-03    0.09       5.2  T
   8   -398.6993600 -0.215135E-06  0.652E-04    0.09       9.9  T
   9   -398.6993600 -0.252170E-07  0.471E-04    0.09      13.8  T
     SCC iter.                  ...        0 min,  0.591 sec
     gradient                   ...        0 min,  0.307 sec
 * total energy  :  -393.4927521 Eh     change       -0.5037135E-02 Eh
   gradient norm :     0.0140643 Eh/α   predicted    -0.4579866E-02 (  -9.08%)
   displ. norm   :     0.8501756 α      lambda       -0.5278467E-02
   maximum displ.:     0.5096084 α      in ANC's #1, #3, #8, ...

........................................................................
.............................. CYCLE   27 ..............................
........................................................................

 iter      E             dE          RMSdq      gap      omega  full diag
   1   -398.7047799 -0.398705E+03  0.587E-02    0.09       0.0  T
   2   -398.7017861  0.299380E-02  0.127E-01    0.12       1.0  T
   3   -398.7045968 -0.281071E-02  0.480E-02    0.09       1.0  T
   4   -398.7049116 -0.314806E-03  0.203E-02    0.09       1.0  T
   5   -398.7049070  0.460377E-05  0.188E-02    0.09       1.0  T
   6   -398.7049455 -0.384691E-04  0.408E-03    0.09       1.6  T
   7   -398.7049484 -0.289802E-05  0.159E-03    0.09       4.1  T
   8   -398.7049488 -0.421870E-06  0.700E-04    0.09       9.3  T
   9   -398.7049488 -0.187852E-07  0.545E-04    0.09      11.9  T
     SCC iter.                  ...        0 min,  0.594 sec
     gradient                   ...        0 min,  0.308 sec
 * total energy  :  -393.4975366 Eh     change       -0.4784518E-02 Eh
   gradient norm :     0.0118339 Eh/α   predicted    -0.4546874E-02 (  -4.97%)
   displ. norm   :     0.8639520 α      lambda       -0.4654232E-02
   maximum displ.:     0.5221223 α      in ANC's #1, #3, #8, ...

........................................................................
.............................. CYCLE   28 ..............................
........................................................................

 iter      E             dE          RMSdq      gap      omega  full diag
   1   -398.7068898 -0.398707E+03  0.620E-02    0.09       0.0  T
   2   -398.7044013  0.248850E-02  0.118E-01    0.11       1.0  T
   3   -398.7063934 -0.199216E-02  0.624E-02    0.08       1.0  T
   4   -398.7069334 -0.539975E-03  0.323E-02    0.09       1.0  T
   5   -398.7070172 -0.837779E-04  0.156E-02    0.09       1.0  T
   6   -398.7070375 -0.203173E-04  0.400E-03    0.09       1.6  T
   7   -398.7070400 -0.247711E-05  0.166E-03    0.09       3.9  T
   8   -398.7070405 -0.488884E-06  0.638E-04    0.09      10.2  T
   9   -398.7070405 -0.904055E-08  0.515E-04    0.09      12.6  T
     SCC iter.                  ...        0 min,  0.665 sec
     gradient                   ...        0 min,  0.307 sec
 * total energy  :  -393.5016943 Eh     change       -0.4157640E-02 Eh
   gradient norm :     0.0124048 Eh/α   predicted    -0.4064118E-02 (  -2.25%)
   displ. norm   :     0.8448224 α      lambda       -0.4214894E-02
   maximum displ.:     0.5311764 α      in ANC's #1, #3, #8, ...

........................................................................
.............................. CYCLE   29 ..............................
........................................................................

 iter      E             dE          RMSdq      gap      omega  full diag
   1   -398.7168860 -0.398717E+03  0.671E-02    0.08       0.0  T
   2   -398.7153360  0.154994E-02  0.982E-02    0.10       1.0  T
   3   -398.7156671 -0.331099E-03  0.871E-02    0.08       1.0  T
   4   -398.7168448 -0.117767E-02  0.393E-02    0.09       1.0  T
   5   -398.7169838 -0.139007E-03  0.153E-02    0.09       1.0  T
   6   -398.7170041 -0.202467E-04  0.361E-03    0.09       1.8  T
   7   -398.7170058 -0.173906E-05  0.159E-03    0.09       4.1  T
   8   -398.7170062 -0.351693E-06  0.822E-04    0.09       7.9  T
   9   -398.7170062 -0.487140E-07  0.535E-04    0.09      12.1  T
     SCC iter.                  ...        0 min,  0.598 sec
     gradient                   ...        0 min,  0.306 sec
 * total energy  :  -393.5049019 Eh     change       -0.3207658E-02 Eh
   gradient norm :     0.0187424 Eh/α   predicted    -0.3611587E-02 (  12.59%)
   displ. norm   :     0.8031138 α      lambda       -0.3962292E-02
   maximum displ.:     0.4747076 α      in ANC's #1, #3, #8, ...

........................................................................
.............................. CYCLE   30 ..............................
........................................................................

 iter      E             dE          RMSdq      gap      omega  full diag
   1   -398.7102725 -0.398710E+03  0.674E-02    0.08       0.0  T
   2   -398.7101724  0.100122E-03  0.490E-02    0.08       1.0  T
   3   -398.7096150  0.557434E-03  0.710E-02    0.09       1.0  T
   4   -398.7094109  0.204087E-03  0.710E-02    0.08       1.0  T
   5   -398.7102730 -0.862100E-03  0.185E-02    0.08       1.0  T
   6   -398.7103251 -0.520938E-04  0.473E-03    0.08       1.4  T
   7   -398.7103288 -0.377008E-05  0.132E-03    0.08       4.9  T
   8   -398.7103289 -0.185147E-07  0.112E-03    0.08       5.8  T
   9   -398.7103291 -0.241441E-06  0.255E-04    0.08      25.4  T
  10   -398.7103291  0.822183E-09  0.258E-04    0.08      25.1  T
     SCC iter.                  ...        0 min,  0.660 sec
     gradient                   ...        0 min,  0.304 sec
 * total energy  :  -393.5077550 Eh     change       -0.2853081E-02 Eh
   gradient norm :     0.0162407 Eh/α   predicted    -0.3258983E-02 (  14.23%)
   displ. norm   :     0.6949531 α      lambda       -0.2519333E-02
   maximum displ.:     0.4333926 α      in ANC's #1, #3, #8, ...

........................................................................
.............................. CYCLE   31 ..............................
........................................................................

 iter      E             dE          RMSdq      gap      omega  full diag
   1   -398.7126175 -0.398713E+03  0.615E-02    0.08       0.0  T
   2   -398.7107838  0.183374E-02  0.106E-01    0.07       1.0  T
   3   -398.7119602 -0.117636E-02  0.689E-02    0.09       1.0  T
   4   -398.7125680 -0.607861E-03  0.376E-02    0.08       1.0  T
   5   -398.7126991 -0.131058E-03  0.148E-02    0.08       1.0  T
   6   -398.7127275 -0.283809E-04  0.287E-03    0.08       2.3  T
   7   -398.7127284 -0.994110E-06  0.132E-03    0.08       4.9  T
   8   -398.7127287 -0.301255E-06  0.553E-04    0.08      11.7  T
   9   -398.7127288 -0.165165E-07  0.377E-04    0.08      17.2  T
     SCC iter.                  ...        0 min,  0.593 sec
     gradient                   ...        0 min,  0.311 sec
 * total energy  :  -393.5099221 Eh     change       -0.2167044E-02 Eh
   gradient norm :     0.0143935 Eh/α   predicted    -0.1868035E-02 ( -13.80%)
   displ. norm   :     0.6752069 α      lambda       -0.2825283E-02
   maximum displ.:     0.3785039 α      in ANC's #1, #8, #4, ...

........................................................................
.............................. CYCLE   32 ..............................
........................................................................

 iter      E             dE          RMSdq      gap      omega  full diag
   1   -398.7292522 -0.398729E+03  0.867E-02    0.08       0.0  T
   2   -398.7173626  0.118897E-01  0.257E-01    0.07       1.0  T
   3   -398.7296139 -0.122513E-01  0.497E-02    0.08       1.0  T
   4   -398.7297496 -0.135708E-03  0.265E-02    0.07       1.0  T
   5   -398.7297531 -0.353338E-05  0.201E-02    0.07       1.0  T
   6   -398.7298098 -0.567240E-04  0.340E-03    0.07       1.9  T
   7   -398.7298113 -0.142163E-05  0.145E-03    0.07       4.5  T
   8   -398.7298116 -0.325332E-06  0.699E-04    0.07       9.3  T
   9   -398.7298116  0.643797E-08  0.638E-04    0.07      10.2  T
     SCC iter.                  ...        0 min,  0.642 sec
     gradient                   ...        0 min,  0.309 sec
 * total energy  :  -393.5120536 Eh     change       -0.2131536E-02 Eh
   gradient norm :     0.0098082 Eh/α   predicted    -0.2056673E-02 (  -3.51%)
   displ. norm   :     0.7974819 α      lambda       -0.2469246E-02
   maximum displ.:     0.4597747 α      in ANC's #1, #8, #4, ...

........................................................................
.............................. CYCLE   33 ..............................
........................................................................

 iter      E             dE          RMSdq      gap      omega  full diag
   1   -398.7189205 -0.398719E+03  0.111E-01    0.09       0.0  T
   2   -398.6968728  0.220477E-01  0.350E-01    0.08       1.0  T
   3   -398.7198855 -0.230127E-01  0.544E-02    0.08       1.0  T
   4   -398.7199697 -0.841623E-04  0.350E-02    0.07       1.0  T
   5   -398.7198842  0.854529E-04  0.334E-02    0.07       1.0  T
   6   -398.7200562 -0.172011E-03  0.405E-03    0.07       1.6  T
   7   -398.7200575 -0.124571E-05  0.215E-03    0.07       3.0  T
   8   -398.7200582 -0.714881E-06  0.880E-04    0.07       7.4  T
   9   -398.7200582  0.451718E-07  0.936E-04    0.07       6.9  T
     SCC iter.                  ...        0 min,  0.595 sec
     gradient                   ...        0 min,  0.306 sec
 * total energy  :  -393.5139208 Eh     change       -0.1867163E-02 Eh
   gradient norm :     0.0140854 Eh/α   predicted    -0.2019823E-02 (   8.18%)
   displ. norm   :     0.7150979 α      lambda       -0.1934609E-02
   maximum displ.:     0.3692751 α      in ANC's #1, #8, #2, ...

........................................................................
.............................. CYCLE   34 ..............................
........................................................................

 iter      E             dE          RMSdq      gap      omega  full diag
   1   -398.7169089 -0.398717E+03  0.102E-01    0.09       0.0  T
   2   -398.6978668  0.190421E-01  0.322E-01    0.05       1.0  T
   3   -398.7176269 -0.197601E-01  0.542E-02    0.08       1.0  T
   4   -398.7177519 -0.125037E-03  0.323E-02    0.07       1.0  T
   5   -398.7177218  0.301142E-04  0.265E-02    0.07       1.0  T
   6   -398.7178294 -0.107661E-03  0.369E-03    0.07       1.8  T
   7   -398.7178307 -0.125113E-05  0.165E-03    0.07       3.9  T
   8   -398.7178311 -0.448222E-06  0.716E-04    0.07       9.1  T
   9   -398.7178311  0.258494E-07  0.728E-04    0.07       8.9  T
     SCC iter.                  ...        0 min,  0.585 sec
     gradient                   ...        0 min,  0.304 sec
 * total energy  :  -393.5154394 Eh     change       -0.1518612E-02 Eh
   gradient norm :     0.0132988 Eh/α   predicted    -0.1461951E-02 (  -3.73%)
   displ. norm   :     0.6566552 α      lambda       -0.1982237E-02
   maximum displ.:     0.3551987 α      in ANC's #2, #1, #4, ...

........................................................................
.............................. CYCLE   35 ..............................
........................................................................

 iter      E             dE          RMSdq      gap      omega  full diag
   1   -398.7241550 -0.398724E+03  0.888E-02    0.10       0.0  T
   2   -398.7094923  0.146627E-01  0.278E-01    0.02       1.0  T
   3   -398.7246684 -0.151760E-01  0.493E-02    0.09       1.0  T
   4   -398.7247793 -0.110959E-03  0.282E-02    0.08       1.0  T
   5   -398.7248392 -0.599194E-04  0.743E-03    0.08       1.0  T
   6   -398.7248514 -0.121272E-04  0.176E-03    0.07       3.7  T
   7   -398.7248518 -0.406362E-06  0.116E-03    0.07       5.6  T
   8   -398.7248518 -0.703566E-07  0.961E-04    0.07       6.7  T
   9   -398.7248518  0.187651E-08  0.636E-04    0.07      10.2  T
     SCC iter.                  ...        0 min,  0.584 sec
     gradient                   ...        0 min,  0.307 sec
 * total energy  :  -393.5170214 Eh     change       -0.1581989E-02 Eh
   gradient norm :     0.0104528 Eh/α   predicted    -0.1418486E-02 ( -10.34%)
   displ. norm   :     0.7062254 α      lambda       -0.1647507E-02
   maximum displ.:     0.3980202 α      in ANC's #2, #4, #1, ...

........................................................................
.............................. CYCLE   36 ..............................
........................................................................

 iter      E             dE          RMSdq      gap      omega  full diag
   1   -398.7272071 -0.398727E+03  0.848E-02    0.10       0.0  T
   2   -398.7203105  0.689656E-02  0.192E-01    0.02       1.0  T
   3   -398.7270683 -0.675774E-02  0.633E-02    0.10       1.0  T
   4   -398.7274823 -0.413997E-03  0.347E-02    0.08       1.0  T
   5   -398.7274260  0.562985E-04  0.312E-02    0.08       1.0  T
   6   -398.7275648 -0.138880E-03  0.481E-03    0.08       1.3  T
   7   -398.7275687 -0.387639E-05  0.129E-03    0.08       5.0  T
   8   -398.7275689 -0.181834E-06  0.659E-04    0.08       9.8  T
   9   -398.7275689  0.131354E-08  0.518E-04    0.08      12.5  T
     SCC iter.                  ...        0 min,  0.591 sec
     gradient                   ...        0 min,  0.305 sec
 * total energy  :  -393.5183324 Eh     change       -0.1310998E-02 Eh
   gradient norm :     0.0104134 Eh/α   predicted    -0.1234610E-02 (  -5.83%)
   displ. norm   :     0.6983997 α      lambda       -0.1505072E-02
   maximum displ.:     0.4018627 α      in ANC's #2, #1, #4, ...

........................................................................
.............................. CYCLE   37 ..............................
........................................................................

 iter      E             dE          RMSdq      gap      omega  full diag
   1   -398.7270148 -0.398727E+03  0.674E-02    0.08       0.0  T
   2   -398.7268474  0.167349E-03  0.499E-02    0.07       1.0  T
   3   -398.7258047  0.104272E-02  0.795E-02    0.12       1.0  T
   4   -398.7268009 -0.996182E-03  0.403E-02    0.07       1.0  T
   5   -398.7269926 -0.191658E-03  0.221E-02    0.08       1.0  T
   6   -398.7270511 -0.585330E-04  0.380E-03    0.08       1.7  T
   7   -398.7270530 -0.192720E-05  0.146E-03    0.08       4.4  T
   8   -398.7270534 -0.406128E-06  0.507E-04    0.08      12.8  T
   9   -398.7270534 -0.195405E-08  0.394E-04    0.08      16.4  T
     SCC iter.                  ...        0 min,  0.587 sec
     gradient                   ...        0 min,  0.308 sec
 * total energy  :  -393.5194577 Eh     change       -0.1125381E-02 Eh
   gradient norm :     0.0107008 Eh/α   predicted    -0.1119596E-02 (  -0.51%)
   displ. norm   :     0.6406774 α      lambda       -0.1161984E-02
   maximum displ.:     0.3721722 α      in ANC's #2, #4, #1, ...

........................................................................
.............................. CYCLE   38 ..............................
........................................................................

 iter      E             dE          RMSdq      gap      omega  full diag
   1   -398.7273933 -0.398727E+03  0.665E-02    0.08       0.0  T
   2   -398.7268867  0.506573E-03  0.654E-02    0.10       1.0  T
   3   -398.7257659  0.112081E-02  0.929E-02    0.05       1.0  T
   4   -398.7272451 -0.147914E-02  0.370E-02    0.09       1.0  T
   5   -398.7273958 -0.150774E-03  0.205E-02    0.08       1.0  T
   6   -398.7274423 -0.464705E-04  0.436E-03    0.08       1.5  T
   7   -398.7274452 -0.288063E-05  0.167E-03    0.08       3.9  T
   8   -398.7274457 -0.501019E-06  0.481E-04    0.08      13.5  T
   9   -398.7274457  0.277572E-08  0.328E-04    0.08      19.7  T
     SCC iter.                  ...        0 min,  0.590 sec
     gradient                   ...        0 min,  0.306 sec
 * total energy  :  -393.5202531 Eh     change       -0.7953204E-03 Eh
   gradient norm :     0.0144908 Eh/α   predicted    -0.8194698E-03 (   3.04%)
   displ. norm   :     0.5701809 α      lambda       -0.1002652E-02
   maximum displ.:     0.3450258 α      in ANC's #2, #4, #1, ...

........................................................................
.............................. CYCLE   39 ..............................
........................................................................

 iter      E             dE          RMSdq      gap      omega  full diag
   1   -398.7300743 -0.398730E+03  0.688E-02    0.07       0.0  T
   2   -398.7270178  0.305644E-02  0.130E-01    0.13       1.0  T
   3   -398.7296695 -0.265165E-02  0.597E-02    0.06       1.0  T
   4   -398.7301930 -0.523479E-03  0.287E-02    0.09       1.0  T
   5   -398.7302672 -0.742453E-04  0.185E-02    0.08       1.0  T
   6   -398.7303102 -0.430236E-04  0.291E-03    0.08       2.2  T
   7   -398.7303107 -0.502363E-06  0.165E-03    0.08       3.9  T
   8   -398.7303112 -0.475885E-06  0.570E-04    0.08      11.4  T
   9   -398.7303112  0.130144E-07  0.628E-04    0.08      10.3  T
     SCC iter.                  ...        0 min,  0.588 sec
     gradient                   ...        0 min,  0.306 sec
 * total energy  :  -393.5208457 Eh     change       -0.5926142E-03 Eh
   gradient norm :     0.0124088 Eh/α   predicted    -0.6643161E-03 (  12.10%)
   displ. norm   :     0.4657248 α      lambda       -0.7725771E-03
   maximum displ.:     0.2504061 α      in ANC's #2, #4, #1, ...

........................................................................
.............................. CYCLE   40 ..............................
........................................................................

 iter      E             dE          RMSdq      gap      omega  full diag
   1   -398.7281934 -0.398728E+03  0.708E-02    0.06       0.0  T
   2   -398.7225428  0.565058E-02  0.173E-01    0.15       1.0  T
   3   -398.7284424 -0.589954E-02  0.381E-02    0.07       1.0  T
   4   -398.7285128 -0.704735E-04  0.302E-02    0.08       1.0  T
   5   -398.7285984 -0.856066E-04  0.169E-02    0.08       1.0  T
   6   -398.7286320 -0.335270E-04  0.649E-03    0.07       1.0  T
   7   -398.7286359 -0.396485E-05  0.316E-03    0.08       2.1  T
   8   -398.7286378 -0.182080E-05  0.808E-04    0.08       8.0  T
   9   -398.7286377  0.753090E-08  0.788E-04    0.08       8.2  T
  10   -398.7286378 -0.103489E-06  0.164E-04    0.08      39.6  T
     SCC iter.                  ...        0 min,  0.657 sec
     gradient                   ...        0 min,  0.307 sec
 * total energy  :  -393.5212450 Eh     change       -0.3993125E-03 Eh
   gradient norm :     0.0157326 Eh/α   predicted    -0.4700785E-03 (  17.72%)
   displ. norm   :     0.3471542 α      lambda       -0.8390129E-03
   maximum displ.:     0.2006340 α      in ANC's #4, #2, #5, ...

........................................................................
.............................. CYCLE   41 ..............................
........................................................................

 iter      E             dE          RMSdq      gap      omega  full diag
   1   -398.7317046 -0.398732E+03  0.929E-02    0.06       0.0  T
   2   -398.7195029  0.122017E-01  0.255E-01    0.19       1.0  T
   3   -398.7326729 -0.131701E-01  0.336E-02    0.07       1.0  T
   4   -398.7326813 -0.833518E-05  0.321E-02    0.08       1.0  T
   5   -398.7327552 -0.739237E-04  0.178E-02    0.08       1.0  T
   6   -398.7327440  0.111956E-04  0.189E-02    0.07       1.0  T
   7   -398.7327959 -0.518867E-04  0.573E-03    0.07       1.1  T
   8   -398.7328017 -0.581561E-05  0.167E-03    0.07       3.9  T
   9   -398.7328020 -0.293017E-06  0.901E-04    0.07       7.2  T
  10   -398.7328021 -0.109083E-06  0.389E-04    0.07      16.6  T
     SCC iter.                  ...        0 min,  0.663 sec
     gradient                   ...        0 min,  0.305 sec
 * total energy  :  -393.5216533 Eh     change       -0.4083500E-03 Eh
   gradient norm :     0.0170757 Eh/α   predicted    -0.4700655E-03 (  15.11%)
   displ. norm   :     0.3838618 α      lambda       -0.6776675E-03
   maximum displ.:     0.2385506 α      in ANC's #4, #2, #6, ...

........................................................................
.............................. CYCLE   42 ..............................
........................................................................

 iter      E             dE          RMSdq      gap      omega  full diag
   1   -398.7240012 -0.398724E+03  0.598E-02    0.08       0.0  T
   2   -398.7222434  0.175783E-02  0.104E-01    0.11       1.0  T
   3   -398.7232473 -0.100391E-02  0.701E-02    0.07       1.0  T
   4   -398.7240423 -0.794968E-03  0.256E-02    0.09       1.0  T
   5   -398.7240759 -0.336927E-04  0.176E-02    0.08       1.0  T
   6   -398.7241214 -0.454074E-04  0.333E-03    0.08       1.9  T
   7   -398.7241233 -0.192302E-05  0.105E-03    0.08       6.2  T
   8   -398.7241235 -0.177435E-06  0.451E-04    0.08      14.4  T
   9   -398.7241234  0.494720E-08  0.419E-04    0.08      15.5  T
     SCC iter.                  ...        0 min,  0.588 sec
     gradient                   ...        0 min,  0.306 sec
 * total energy  :  -393.5217720 Eh     change       -0.1186615E-03 Eh
   gradient norm :     0.0180806 Eh/α   predicted    -0.3887610E-03 ( 227.62%)
   displ. norm   :     0.2710430 α      lambda       -0.1125158E-02
   maximum displ.:     0.1693946 α      in ANC's #1, #5, #8, ...
 * RMSD in coord.:     0.7434297 α      energy gain  -0.6565580E-01 Eh

generating ANC from exact Hessian ...
Using Lindh-Hessian (1995)
 Shifting diagonal of input Hessian by    9.4321335024140189E-003
 Lowest  eigenvalues of input Hessian
    0.000000    0.000000    0.000000    0.000000    0.000000    0.000000
    0.010000    0.010233    0.010366    0.010888    0.011521    0.012353
    0.013364    0.014274    0.015485    0.017141    0.022631    0.026836
 Highest eigenvalues
    3.127420    3.202009    3.210398    3.245139    3.327630    3.334930


........................................................................
.............................. CYCLE   43 ..............................
........................................................................

 iter      E             dE          RMSdq      gap      omega  full diag
   1   -398.7410917 -0.398741E+03  0.712E-02    0.08       0.0  T
   2   -398.7329875  0.810424E-02  0.211E-01    0.15       1.0  T
   3   -398.7414621 -0.847460E-02  0.348E-02    0.08       1.0  T
   4   -398.7415311 -0.690409E-04  0.252E-02    0.09       1.0  T
   5   -398.7416365 -0.105408E-03  0.107E-02    0.08       1.0  T
   6   -398.7416375 -0.100735E-05  0.732E-03    0.08       1.0  T
   7   -398.7416457 -0.818640E-05  0.163E-03    0.08       4.0  T
   8   -398.7416459 -0.186637E-06  0.139E-03    0.08       4.7  T
   9   -398.7416461 -0.203533E-06  0.851E-04    0.08       7.6  T
  10   -398.7416462 -0.884790E-07  0.480E-04    0.08      13.5  T
     SCC iter.                  ...        0 min,  0.634 sec
     gradient                   ...        0 min,  0.307 sec
 * total energy  :  -393.5218834 Eh     change       -0.1114117E-03 Eh
   gradient norm :     0.0240466 Eh/α   predicted     0.0000000E+00 (-100.00%)
   displ. norm   :     0.1464018 α      lambda       -0.1075604E-02
   maximum displ.:     0.0630201 α      in ANC's #17, #4, #5, ...

........................................................................
.............................. CYCLE   44 ..............................
........................................................................

 iter      E             dE          RMSdq      gap      omega  full diag
   1   -398.7365594 -0.398737E+03  0.298E-02    0.09       0.0  T
   2   -398.7361695  0.389895E-03  0.493E-02    0.08       1.0  T
   3   -398.7364221 -0.252601E-03  0.326E-02    0.09       1.0  T
   4   -398.7365763 -0.154210E-03  0.883E-03    0.08       1.0  T
   5   -398.7365845 -0.814718E-05  0.268E-03    0.08       2.4  T
   6   -398.7365859 -0.143736E-05  0.109E-03    0.09       6.0  T
   7   -398.7365862 -0.233175E-06  0.452E-04    0.08      14.3  T
   8   -398.7365862 -0.104565E-07  0.316E-04    0.08      20.5  T
     SCC iter.                  ...        0 min,  0.555 sec
     gradient                   ...        0 min,  0.317 sec
 * total energy  :  -393.5226163 Eh     change       -0.7328780E-03 Eh
   gradient norm :     0.0064849 Eh/α   predicted    -0.5493796E-03 ( -25.04%)
   displ. norm   :     0.1961101 α      lambda       -0.4508642E-03
   maximum displ.:     0.0841713 α      in ANC's #5, #4, #3, ...

........................................................................
.............................. CYCLE   45 ..............................
........................................................................

 iter      E             dE          RMSdq      gap      omega  full diag
   1   -398.7338495 -0.398734E+03  0.319E-02    0.09       0.0  T
   2   -398.7332913  0.558182E-03  0.575E-02    0.08       1.0  T
   3   -398.7337219 -0.430617E-03  0.325E-02    0.09       1.0  T
   4   -398.7338711 -0.149225E-03  0.115E-02    0.09       1.0  T
   5   -398.7338738 -0.262712E-05  0.730E-03    0.09       1.0  T
   6   -398.7338794 -0.561872E-05  0.132E-03    0.09       4.9  T
   7   -398.7338796 -0.171440E-06  0.595E-04    0.09      10.9  T
   8   -398.7338796 -0.454236E-07  0.293E-04    0.09      22.1  T
     SCC iter.                  ...        0 min,  0.544 sec
     gradient                   ...        0 min,  0.306 sec
 * total energy  :  -393.5229251 Eh     change       -0.3087721E-03 Eh
   gradient norm :     0.0065085 Eh/α   predicted    -0.2341552E-03 ( -24.17%)
   displ. norm   :     0.2337918 α      lambda       -0.2855090E-03
   maximum displ.:     0.1100190 α      in ANC's #5, #3, #4, ...

........................................................................
.............................. CYCLE   46 ..............................
........................................................................

 iter      E             dE          RMSdq      gap      omega  full diag
   1   -398.7330323 -0.398733E+03  0.335E-02    0.10       0.0  T
   2   -398.7328397  0.192507E-03  0.370E-02    0.09       1.0  T
   3   -398.7325965  0.243265E-03  0.501E-02    0.11       1.0  T
   4   -398.7330394 -0.442935E-03  0.118E-02    0.10       1.0  T
   5   -398.7330384  0.105634E-05  0.807E-03    0.09       1.0  T
   6   -398.7330459 -0.752910E-05  0.121E-03    0.09       5.3  T
   7   -398.7330460 -0.149046E-06  0.615E-04    0.09      10.5  T
   8   -398.7330461 -0.487001E-07  0.285E-04    0.09      22.7  T
     SCC iter.                  ...        0 min,  0.519 sec
     gradient                   ...        0 min,  0.303 sec
 * total energy  :  -393.5231525 Eh     change       -0.2274036E-03 Eh
   gradient norm :     0.0084572 Eh/α   predicted    -0.1505576E-03 ( -33.79%)
   displ. norm   :     0.3538088 α      lambda       -0.3785534E-03
   maximum displ.:     0.1748080 α      in ANC's #5, #3, #2, ...

........................................................................
.............................. CYCLE   47 ..............................
........................................................................

 iter      E             dE          RMSdq      gap      omega  full diag
   1   -398.7333489 -0.398733E+03  0.485E-02    0.11       0.0  T
   2   -398.7333517 -0.280916E-05  0.284E-02    0.10       1.0  T
   3   -398.7333355  0.162065E-04  0.200E-02    0.10       1.0  T
   4   -398.7330760  0.259439E-03  0.378E-02    0.11       1.0  T
   5   -398.7333454 -0.269342E-03  0.742E-03    0.10       1.0  T
   6   -398.7333587 -0.132994E-04  0.103E-03    0.10       6.3  T
   7   -398.7333587 -0.106741E-08  0.950E-04    0.10       6.8  T
   8   -398.7333587 -0.658941E-07  0.598E-04    0.10      10.8  T
     SCC iter.                  ...        0 min,  0.518 sec
     gradient                   ...        0 min,  0.302 sec
 * total energy  :  -393.5234669 Eh     change       -0.3144570E-03 Eh
   gradient norm :     0.0074411 Eh/α   predicted    -0.2130381E-03 ( -32.25%)
   displ. norm   :     0.4547577 α      lambda       -0.4507969E-03
   maximum displ.:     0.2277511 α      in ANC's #5, #2, #3, ...

........................................................................
.............................. CYCLE   48 ..............................
........................................................................

 iter      E             dE          RMSdq      gap      omega  full diag
   1   -398.7343325 -0.398734E+03  0.635E-02    0.12       0.0  T
   2   -398.7335539  0.778661E-03  0.745E-02    0.13       1.0  T
   3   -398.7329645  0.589332E-03  0.892E-02    0.11       1.0  T
   4   -398.7342990 -0.133450E-02  0.255E-02    0.12       1.0  T
   5   -398.7343767 -0.776928E-04  0.854E-03    0.12       1.0  T
   6   -398.7343892 -0.124214E-04  0.222E-03    0.12       2.9  T
   7   -398.7343892 -0.765070E-07  0.164E-03    0.12       3.9  T
   8   -398.7343896 -0.397400E-06  0.597E-04    0.12      10.9  T
   9   -398.7343897 -0.245672E-07  0.352E-04    0.12      18.4  T
     SCC iter.                  ...        0 min,  0.585 sec
     gradient                   ...        0 min,  0.307 sec
 * total energy  :  -393.5238490 Eh     change       -0.3820736E-03 Eh
   gradient norm :     0.0063462 Eh/α   predicted    -0.2720137E-03 ( -28.81%)
   displ. norm   :     0.5340157 α      lambda       -0.5162640E-03
   maximum displ.:     0.2795646 α      in ANC's #2, #3, #5, ...

........................................................................
.............................. CYCLE   49 ..............................
........................................................................

 iter      E             dE          RMSdq      gap      omega  full diag
   1   -398.7353402 -0.398735E+03  0.787E-02    0.13       0.0  T
   2   -398.7320594  0.328082E-02  0.138E-01    0.16       1.0  T
   3   -398.7346430 -0.258354E-02  0.758E-02    0.13       1.0  T
   4   -398.7354547 -0.811696E-03  0.303E-02    0.14       1.0  T
   5   -398.7355252 -0.705323E-04  0.182E-02    0.14       1.0  T
   6   -398.7355644 -0.391593E-04  0.262E-03    0.14       2.5  T
   7   -398.7355649 -0.522650E-06  0.152E-03    0.14       4.3  T
   8   -398.7355653 -0.406804E-06  0.624E-04    0.14      10.4  T
   9   -398.7355653 -0.225824E-07  0.258E-04    0.14      25.1  T
     SCC iter.                  ...        0 min,  0.586 sec
     gradient                   ...        0 min,  0.306 sec
 * total energy  :  -393.5242749 Eh     change       -0.4259102E-03 Eh
   gradient norm :     0.0071391 Eh/α   predicted    -0.3317448E-03 ( -22.11%)
   displ. norm   :     0.5277050 α      lambda       -0.5143414E-03
   maximum displ.:     0.2875122 α      in ANC's #2, #3, #5, ...

........................................................................
.............................. CYCLE   50 ..............................
........................................................................

 iter      E             dE          RMSdq      gap      omega  full diag
   1   -398.7369283 -0.398737E+03  0.828E-02    0.15       0.0  T
   2   -398.7311912  0.573711E-02  0.178E-01    0.19       1.0  T
   3   -398.7368746 -0.568350E-02  0.590E-02    0.15       1.0  T
   4   -398.7372189 -0.344295E-03  0.341E-02    0.15       1.0  T
   5   -398.7373114 -0.924371E-04  0.154E-02    0.15       1.0  T
   6   -398.7373418 -0.304473E-04  0.193E-03    0.15       3.4  T
   7   -398.7373420 -0.211403E-06  0.126E-03    0.15       5.1  T
   8   -398.7373422 -0.205346E-06  0.688E-04    0.15       9.4  T
   9   -398.7373423 -0.577223E-07  0.234E-04    0.15      27.7  T
     SCC iter.                  ...        0 min,  0.593 sec
     gradient                   ...        0 min,  0.306 sec
 * total energy  :  -393.5247086 Eh     change       -0.4336692E-03 Eh
   gradient norm :     0.0072015 Eh/α   predicted    -0.3288072E-03 ( -24.18%)
   displ. norm   :     0.6525421 α      lambda       -0.5441442E-03
   maximum displ.:     0.3531572 α      in ANC's #2, #3, #5, ...

........................................................................
.............................. CYCLE   51 ..............................
........................................................................

 iter      E             dE          RMSdq      gap      omega  full diag
   1   -398.7350685 -0.398735E+03  0.101E-01    0.17       0.0  T
   2   -398.7271724  0.789615E-02  0.210E-01    0.21       1.0  T
   3   -398.7351119 -0.793958E-02  0.680E-02    0.17       1.0  T
   4   -398.7355556 -0.443712E-03  0.356E-02    0.17       1.0  T
   5   -398.7356441 -0.884799E-04  0.172E-02    0.17       1.0  T
   6   -398.7356781 -0.339586E-04  0.217E-03    0.17       3.0  T
   7   -398.7356783 -0.253845E-06  0.138E-03    0.17       4.7  T
   8   -398.7356786 -0.223517E-06  0.655E-04    0.17       9.9  T
   9   -398.7356786 -0.545506E-07  0.267E-04    0.17      24.3  T
     SCC iter.                  ...        0 min,  0.584 sec
     gradient                   ...        0 min,  0.306 sec
 * total energy  :  -393.5251259 Eh     change       -0.4173580E-03 Eh
   gradient norm :     0.0077198 Eh/α   predicted    -0.3879234E-03 (  -7.05%)
   displ. norm   :     0.4957269 α      lambda       -0.5506369E-03
   maximum displ.:     0.2844804 α      in ANC's #3, #2, #5, ...

........................................................................
.............................. CYCLE   52 ..............................
........................................................................

 iter      E             dE          RMSdq      gap      omega  full diag
   1   -398.7408825 -0.398741E+03  0.840E-02    0.18       0.0  T
   2   -398.7320314  0.885110E-02  0.219E-01    0.22       1.0  T
   3   -398.7414339 -0.940249E-02  0.400E-02    0.18       1.0  T
   4   -398.7414663 -0.323475E-04  0.295E-02    0.17       1.0  T
   5   -398.7415584 -0.921001E-04  0.804E-03    0.18       1.0  T
   6   -398.7415619 -0.355899E-05  0.190E-03    0.18       3.4  T
   7   -398.7415624 -0.530820E-06  0.114E-03    0.18       5.7  T
   8   -398.7415626 -0.108842E-06  0.658E-04    0.18       9.9  T
   9   -398.7415626 -0.743938E-07  0.233E-04    0.18      27.9  T
     SCC iter.                  ...        0 min,  0.587 sec
     gradient                   ...        0 min,  0.307 sec
 * total energy  :  -393.5254097 Eh     change       -0.2837949E-03 Eh
   gradient norm :     0.0082049 Eh/α   predicted    -0.3429816E-03 (  20.86%)
   displ. norm   :     0.6304023 α      lambda       -0.4729926E-03
   maximum displ.:     0.3627501 α      in ANC's #3, #5, #2, ...

........................................................................
.............................. CYCLE   53 ..............................
........................................................................

 iter      E             dE          RMSdq      gap      omega  full diag
   1   -398.7342397 -0.398734E+03  0.864E-02    0.20       0.0  T
   2   -398.7307845  0.345520E-02  0.143E-01    0.21       1.0  T
   3   -398.7337640 -0.297957E-02  0.734E-02    0.20       1.0  T
   4   -398.7345038 -0.739789E-03  0.193E-02    0.20       1.0  T
   5   -398.7345061 -0.228778E-05  0.775E-03    0.20       1.0  T
   6   -398.7345128 -0.673621E-05  0.198E-03    0.20       3.3  T
   7   -398.7345130 -0.151782E-06  0.129E-03    0.20       5.0  T
   8   -398.7345133 -0.253239E-06  0.430E-04    0.20      15.1  T
   9   -398.7345133 -0.297342E-08  0.279E-04    0.20      23.3  T
     SCC iter.                  ...        0 min,  0.592 sec
     gradient                   ...        0 min,  0.306 sec
 * total energy  :  -393.5256533 Eh     change       -0.2435881E-03 Eh
   gradient norm :     0.0104534 Eh/α   predicted    -0.3304822E-03 (  35.67%)
   displ. norm   :     0.1105273 α      lambda       -0.2539969E-03
   maximum displ.:     0.0700073 α      in ANC's #3, #7, #5, ...

........................................................................
.............................. CYCLE   54 ..............................
........................................................................

 iter      E             dE          RMSdq      gap      omega  full diag
   1   -398.7368261 -0.398737E+03  0.139E-02    0.20       0.0  T
   2   -398.7367622  0.639186E-04  0.205E-02    0.20       1.0  T
   3   -398.7368068 -0.446207E-04  0.134E-02    0.20       1.0  T
   4   -398.7368273 -0.204791E-04  0.607E-03    0.20       1.1  T
   5   -398.7368325 -0.526691E-05  0.292E-03    0.20       2.2  T
   6   -398.7368332 -0.628491E-06  0.545E-04    0.20      11.9  T
   7   -398.7368332 -0.462709E-07  0.234E-04    0.20      27.7  T
     SCC iter.                  ...        0 min,  0.493 sec
     gradient                   ...        0 min,  0.311 sec
 * total energy  :  -393.5258390 Eh     change       -0.1856637E-03 Eh
   gradient norm :     0.0072791 Eh/α   predicted    -0.1285637E-03 ( -30.75%)
   displ. norm   :     0.3564207 α      lambda       -0.4243612E-03
   maximum displ.:     0.2542449 α      in ANC's #3, #5, #2, ...

........................................................................
.............................. CYCLE   55 ..............................
........................................................................

 iter      E             dE          RMSdq      gap      omega  full diag
   1   -398.7402579 -0.398740E+03  0.368E-02    0.20       0.0  T
   2   -398.7400894  0.168461E-03  0.370E-02    0.20       1.0  T
   3   -398.7399064  0.182981E-03  0.455E-02    0.20       1.0  T
   4   -398.7402606 -0.354207E-03  0.126E-02    0.20       1.0  T
   5   -398.7402730 -0.123183E-04  0.489E-03    0.20       1.3  T
   6   -398.7402765 -0.349268E-05  0.105E-03    0.20       6.2  T
   7   -398.7402765 -0.326198E-07  0.620E-04    0.20      10.5  T
   8   -398.7402765 -0.467164E-07  0.317E-04    0.20      20.5  T
     SCC iter.                  ...        0 min,  0.544 sec
     gradient                   ...        0 min,  0.307 sec
 * total energy  :  -393.5260414 Eh     change       -0.2024249E-03 Eh
   gradient norm :     0.0068671 Eh/α   predicted    -0.2391366E-03 (  18.14%)
   displ. norm   :     0.4648111 α      lambda       -0.2543382E-03
   maximum displ.:     0.3189565 α      in ANC's #3, #2, #5, ...

........................................................................
.............................. CYCLE   56 ..............................
........................................................................

 iter      E             dE          RMSdq      gap      omega  full diag
   1   -398.7373021 -0.398737E+03  0.515E-02    0.21       0.0  T
   2   -398.7369204  0.381609E-03  0.532E-02    0.21       1.0  T
   3   -398.7366583  0.262165E-03  0.632E-02    0.21       1.0  T
   4   -398.7373339 -0.675628E-03  0.112E-02    0.21       1.0  T
   5   -398.7373361 -0.215742E-05  0.233E-03    0.21       2.8  T
   6   -398.7373373 -0.122853E-05  0.905E-04    0.21       7.2  T
   7   -398.7373373  0.191619E-07  0.798E-04    0.21       8.1  T
   8   -398.7373374 -0.107206E-06  0.228E-04    0.21      28.5  T
     SCC iter.                  ...        0 min,  0.520 sec
     gradient                   ...        0 min,  0.305 sec
 * total energy  :  -393.5261725 Eh     change       -0.1311184E-03 Eh
   gradient norm :     0.0060839 Eh/α   predicted    -0.1546441E-03 (  17.94%)
   displ. norm   :     0.1713115 α      lambda       -0.1113122E-03
   maximum displ.:     0.1277825 α      in ANC's #3, #2, #5, ...

........................................................................
.............................. CYCLE   57 ..............................
........................................................................

 iter      E             dE          RMSdq      gap      omega  full diag
   1   -398.7370970 -0.398737E+03  0.159E-02    0.21       0.0  T
   2   -398.7370983 -0.127424E-05  0.917E-03    0.21       1.0  T
   3   -398.7370951  0.316406E-05  0.619E-03    0.21       1.0  T
   4   -398.7370796  0.155286E-04  0.101E-02    0.21       1.0  T
   5   -398.7370982 -0.186310E-04  0.217E-03    0.21       3.0  T
   6   -398.7370990 -0.800280E-06  0.442E-04    0.21      14.7  T
   7   -398.7370990  0.720911E-08  0.362E-04    0.21      17.9  T
     SCC iter.                  ...        0 min,  0.453 sec
     gradient                   ...        0 min,  0.306 sec
 * total energy  :  -393.5262435 Eh     change       -0.7097228E-04 Eh
   gradient norm :     0.0051506 Eh/α   predicted    -0.5730231E-04 ( -19.26%)
   displ. norm   :     0.2211052 α      lambda       -0.9088027E-04
   maximum displ.:     0.1679826 α      in ANC's #3, #2, #5, ...

........................................................................
.............................. CYCLE   58 ..............................
........................................................................

 iter      E             dE          RMSdq      gap      omega  full diag
   1   -398.7381808 -0.398738E+03  0.191E-02    0.22       0.0  T
   2   -398.7381511  0.296612E-04  0.172E-02    0.22       1.0  T
   3   -398.7380824  0.687658E-04  0.239E-02    0.22       1.0  T
   4   -398.7381807 -0.983274E-04  0.633E-03    0.22       1.0  T
   5   -398.7381842 -0.351613E-05  0.317E-03    0.22       2.0  T
   6   -398.7381856 -0.140751E-05  0.570E-04    0.22      11.4  T
   7   -398.7381856 -0.541189E-08  0.402E-04    0.22      16.1  T
   8   -398.7381856 -0.261260E-07  0.154E-04    0.22      42.0  T
     SCC iter.                  ...        0 min,  0.521 sec
     gradient                   ...        0 min,  0.305 sec
 * total energy  :  -393.5263031 Eh     change       -0.5964070E-04 Eh
   gradient norm :     0.0029842 Eh/α   predicted    -0.4766198E-04 ( -20.08%)
   displ. norm   :     0.2173639 α      lambda       -0.4997753E-04
   maximum displ.:     0.1591996 α      in ANC's #3, #2, #5, ...

........................................................................
.............................. CYCLE   59 ..............................
........................................................................

 iter      E             dE          RMSdq      gap      omega  full diag
   1   -398.7380869 -0.398738E+03  0.197E-02    0.22       0.0  T
   2   -398.7380868  0.121702E-06  0.115E-02    0.22       1.0  T
   3   -398.7380802  0.663048E-05  0.103E-02    0.22       1.0  T
   4   -398.7380817 -0.152672E-05  0.751E-03    0.22       1.0  T
   5   -398.7380805  0.123368E-05  0.653E-03    0.22       1.0  T
   6   -398.7380888 -0.830909E-05  0.397E-04    0.22      16.3  T
   7   -398.7380888 -0.148418E-08  0.341E-04    0.22      19.0  T
   8   -398.7380888 -0.172771E-07  0.134E-04    0.22      48.5  T
     SCC iter.                  ...        0 min,  0.519 sec
     gradient                   ...        0 min,  0.306 sec
 * total energy  :  -393.5263373 Eh     change       -0.3412731E-04 Eh
   gradient norm :     0.0026568 Eh/α   predicted    -0.2617026E-04 ( -23.32%)
   displ. norm   :     0.1942814 α      lambda       -0.4437403E-04
   maximum displ.:     0.1411557 α      in ANC's #3, #1, #2, ...

........................................................................
.............................. CYCLE   60 ..............................
........................................................................

 iter      E             dE          RMSdq      gap      omega  full diag
   1   -398.7388660 -0.398739E+03  0.157E-02    0.23       0.0  T
   2   -398.7388652  0.780859E-06  0.956E-03    0.23       1.0  T
   3   -398.7388295  0.357069E-04  0.150E-02    0.22       1.0  T
   4   -398.7388566 -0.270419E-04  0.778E-03    0.23       1.0  T
   5   -398.7388660 -0.943038E-05  0.368E-03    0.23       1.8  T
   6   -398.7388678 -0.177064E-05  0.397E-04    0.23      16.3  T
   7   -398.7388678 -0.123396E-08  0.305E-04    0.23      21.3  T
   8   -398.7388678 -0.114588E-07  0.151E-04    0.23      42.9  T
     SCC iter.                  ...        0 min,  0.518 sec
     gradient                   ...        0 min,  0.307 sec
 * total energy  :  -393.5263649 Eh     change       -0.2767980E-04 Eh
   gradient norm :     0.0024681 Eh/α   predicted    -0.2302687E-04 ( -16.81%)
   displ. norm   :     0.1469329 α      lambda       -0.2463093E-04
   maximum displ.:     0.1004565 α      in ANC's #3, #2, #5, ...

........................................................................
.............................. CYCLE   61 ..............................
........................................................................

 iter      E             dE          RMSdq      gap      omega  full diag
   1   -398.7387184 -0.398739E+03  0.144E-02    0.23       0.0  T
   2   -398.7386582  0.602657E-04  0.196E-02    0.23       1.0  T
   3   -398.7386969 -0.387094E-04  0.134E-02    0.23       1.0  T
   4   -398.7387238 -0.268757E-04  0.319E-03    0.23       2.0  T
   5   -398.7387238 -0.776434E-07  0.126E-03    0.23       5.1  T
   6   -398.7387241 -0.227265E-06  0.359E-04    0.23      18.1  T
   7   -398.7387241 -0.706370E-08  0.218E-04    0.23      29.8  T
     SCC iter.                  ...        0 min,  0.457 sec
     gradient                   ...        0 min,  0.306 sec
 * total energy  :  -393.5263824 Eh     change       -0.1749352E-04 Eh
   gradient norm :     0.0022265 Eh/α   predicted    -0.1258219E-04 ( -28.08%)
   displ. norm   :     0.1458697 α      lambda       -0.2791886E-04
   maximum displ.:     0.0882753 α      in ANC's #3, #1, #5, ...

........................................................................
.............................. CYCLE   62 ..............................
........................................................................

 iter      E             dE          RMSdq      gap      omega  full diag
   1   -398.7387721 -0.398739E+03  0.163E-02    0.23       0.0  T
   2   -398.7385734  0.198698E-03  0.336E-02    0.23       1.0  T
   3   -398.7387822 -0.208737E-03  0.928E-03    0.23       1.0  T
   4   -398.7387884 -0.628263E-05  0.322E-03    0.23       2.0  T
   5   -398.7387888 -0.394880E-06  0.198E-03    0.23       3.3  T
   6   -398.7387893 -0.457714E-06  0.353E-04    0.23      18.4  T
   7   -398.7387893 -0.248320E-08  0.254E-04    0.23      25.5  T
     SCC iter.                  ...        0 min,  0.457 sec
     gradient                   ...        0 min,  0.308 sec
 * total energy  :  -393.5264005 Eh     change       -0.1810628E-04 Eh
   gradient norm :     0.0022794 Eh/α   predicted    -0.1425811E-04 ( -21.25%)
   displ. norm   :     0.0850790 α      lambda       -0.2065566E-04
   maximum displ.:     0.0361559 α      in ANC's #1, #3, #8, ...

........................................................................
.............................. CYCLE   63 ..............................
........................................................................

 iter      E             dE          RMSdq      gap      omega  full diag
   1   -398.7390902 -0.398739E+03  0.121E-02    0.23       0.0  T
   2   -398.7389289  0.161270E-03  0.300E-02    0.23       1.0  T
   3   -398.7391027 -0.173791E-03  0.539E-03    0.23       1.2  T
   4   -398.7391034 -0.701525E-06  0.242E-03    0.23       2.7  T
   5   -398.7391037 -0.333019E-06  0.121E-03    0.23       5.4  T
   6   -398.7391040 -0.267521E-06  0.303E-04    0.23      21.4  T
   7   -398.7391040 -0.476092E-08  0.169E-04    0.23      38.4  T
     SCC iter.                  ...        0 min,  0.527 sec
     gradient                   ...        0 min,  0.306 sec
 * total energy  :  -393.5264147 Eh     change       -0.1417589E-04 Eh
   gradient norm :     0.0021269 Eh/α   predicted    -0.1040382E-04 ( -26.61%)
   displ. norm   :     0.0825093 α      lambda       -0.2203372E-04
   maximum displ.:     0.0378179 α      in ANC's #8, #14, #1, ...

........................................................................
.............................. CYCLE   64 ..............................
........................................................................

 iter      E             dE          RMSdq      gap      omega  full diag
   1   -398.7391002 -0.398739E+03  0.121E-02    0.23       0.0  T
   2   -398.7389394  0.160865E-03  0.299E-02    0.23       1.0  T
   3   -398.7391130 -0.173647E-03  0.540E-03    0.23       1.2  T
   4   -398.7391128  0.170084E-06  0.275E-03    0.23       2.4  T
   5   -398.7391139 -0.104691E-05  0.108E-03    0.23       6.0  T
   6   -398.7391142 -0.298606E-06  0.251E-04    0.23      25.8  T
   7   -398.7391142 -0.470686E-08  0.180E-04    0.23      36.1  T
     SCC iter.                  ...        0 min,  0.462 sec
     gradient                   ...        0 min,  0.307 sec
 * total energy  :  -393.5264313 Eh     change       -0.1653489E-04 Eh
   gradient norm :     0.0021022 Eh/α   predicted    -0.1109386E-04 ( -32.91%)
   displ. norm   :     0.1456423 α      lambda       -0.3571037E-04
   maximum displ.:     0.0796721 α      in ANC's #8, #14, #7, ...

........................................................................
.............................. CYCLE   65 ..............................
........................................................................

 iter      E             dE          RMSdq      gap      omega  full diag
   1   -398.7392955 -0.398739E+03  0.169E-02    0.23       0.0  T
   2   -398.7390860  0.209512E-03  0.345E-02    0.23       1.0  T
   3   -398.7393079 -0.221921E-03  0.951E-03    0.23       1.0  T
   4   -398.7393106 -0.273860E-05  0.500E-03    0.23       1.3  T
   5   -398.7393137 -0.310041E-05  0.264E-03    0.23       2.5  T
   6   -398.7393146 -0.842574E-06  0.472E-04    0.23      13.7  T
   7   -398.7393146 -0.121614E-07  0.358E-04    0.23      18.1  T
     SCC iter.                  ...        0 min,  0.451 sec
     gradient                   ...        0 min,  0.305 sec
 * total energy  :  -393.5264562 Eh     change       -0.2497440E-04 Eh
   gradient norm :     0.0031419 Eh/α   predicted    -0.1823484E-04 ( -26.99%)
   displ. norm   :     0.1874055 α      lambda       -0.4767542E-04
   maximum displ.:     0.1104522 α      in ANC's #8, #7, #14, ...

........................................................................
.............................. CYCLE   66 ..............................
........................................................................

 iter      E             dE          RMSdq      gap      omega  full diag
   1   -398.7387877 -0.398739E+03  0.184E-02    0.23       0.0  T
   2   -398.7387291  0.586013E-04  0.204E-02    0.23       1.0  T
   3   -398.7387330 -0.395291E-05  0.197E-02    0.24       1.0  T
   4   -398.7387904 -0.574177E-04  0.482E-03    0.23       1.3  T
   5   -398.7387934 -0.294559E-05  0.235E-03    0.23       2.8  T
   6   -398.7387943 -0.894594E-06  0.518E-04    0.23      12.5  T
   7   -398.7387943 -0.516320E-08  0.393E-04    0.23      16.5  T
     SCC iter.                  ...        0 min,  0.457 sec
     gradient                   ...        0 min,  0.305 sec
 * total energy  :  -393.5264925 Eh     change       -0.3624172E-04 Eh
   gradient norm :     0.0045922 Eh/α   predicted    -0.2467613E-04 ( -31.91%)
   displ. norm   :     0.3298788 α      lambda       -0.1132162E-03
   maximum displ.:     0.2069259 α      in ANC's #8, #7, #14, ...
 * RMSD in coord.:     0.3908371 α      energy gain  -0.4720470E-02 Eh

generating ANC from exact Hessian ...
Using Lindh-Hessian (1995)
 Shifting diagonal of input Hessian by    9.5051246842201322E-003
 Lowest  eigenvalues of input Hessian
    0.000000    0.000000    0.000000    0.000000    0.000000    0.000000
    0.010000    0.010213    0.010480    0.010993    0.011703    0.012351
    0.013208    0.014396    0.015440    0.016936    0.022600    0.024176
 Highest eigenvalues
    3.127487    3.202128    3.210589    3.245258    3.328388    3.334950


........................................................................
.............................. CYCLE   67 ..............................
........................................................................

 iter      E             dE          RMSdq      gap      omega  full diag
   1   -398.7374732 -0.398737E+03  0.288E-02    0.24       0.0  T
   2   -398.7374715  0.168809E-05  0.179E-02    0.24       1.0  T
   3   -398.7373688  0.102701E-03  0.263E-02    0.24       1.0  T
   4   -398.7374268 -0.580226E-04  0.162E-02    0.24       1.0  T
   5   -398.7374767 -0.498314E-04  0.405E-03    0.24       1.6  T
   6   -398.7374789 -0.223532E-05  0.925E-04    0.24       7.0  T
   7   -398.7374790 -0.484908E-07  0.599E-04    0.24      10.8  T
   8   -398.7374790 -0.417876E-07  0.284E-04    0.24      22.8  T
     SCC iter.                  ...        0 min,  0.506 sec
     gradient                   ...        0 min,  0.304 sec
 * total energy  :  -393.5265343 Eh     change       -0.4177957E-04 Eh
   gradient norm :     0.0098905 Eh/α   predicted     0.0000000E+00 (-100.00%)
   displ. norm   :     0.0671330 α      lambda       -0.2493546E-03
   maximum displ.:     0.0362945 α      in ANC's #2, #5, #8, ...

........................................................................
.............................. CYCLE   68 ..............................
........................................................................

 iter      E             dE          RMSdq      gap      omega  full diag
   1   -398.7394334 -0.398739E+03  0.113E-02    0.24       0.0  T
   2   -398.7393890  0.443551E-04  0.166E-02    0.24       1.0  T
   3   -398.7394288 -0.397853E-04  0.891E-03    0.24       1.0  T
   4   -398.7394364 -0.757553E-05  0.519E-03    0.24       1.2  T
   5   -398.7394385 -0.215818E-05  0.194E-03    0.24       3.3  T
   6   -398.7394390 -0.477039E-06  0.338E-04    0.24      19.2  T
   7   -398.7394390 -0.769984E-08  0.207E-04    0.24      31.3  T
     SCC iter.                  ...        0 min,  0.456 sec
     gradient                   ...        0 min,  0.306 sec
 * total energy  :  -393.5267040 Eh     change       -0.1697863E-03 Eh
   gradient norm :     0.0034465 Eh/α   predicted    -0.1261954E-03 ( -25.67%)
   displ. norm   :     0.0911931 α      lambda       -0.1009131E-03
   maximum displ.:     0.0493750 α      in ANC's #2, #8, #5, ...

........................................................................
.............................. CYCLE   69 ..............................
........................................................................

 iter      E             dE          RMSdq      gap      omega  full diag
   1   -398.7402902 -0.398740E+03  0.952E-03    0.23       0.0  T
   2   -398.7402135  0.767835E-04  0.206E-02    0.23       1.0  T
   3   -398.7402961 -0.826760E-04  0.497E-03    0.23       1.3  T
   4   -398.7402962 -0.951941E-07  0.349E-03    0.23       1.9  T
   5   -398.7402974 -0.111707E-05  0.175E-03    0.23       3.7  T
   6   -398.7402977 -0.342797E-06  0.306E-04    0.23      21.2  T
   7   -398.7402977 -0.106828E-07  0.161E-04    0.23      40.1  T
     SCC iter.                  ...        0 min,  0.454 sec
     gradient                   ...        0 min,  0.305 sec
 * total energy  :  -393.5267778 Eh     change       -0.7374594E-04 Eh
   gradient norm :     0.0022044 Eh/α   predicted    -0.5088821E-04 ( -31.00%)
   displ. norm   :     0.1566334 α      lambda       -0.1067998E-03
   maximum displ.:     0.0794822 α      in ANC's #8, #2, #5, ...

........................................................................
.............................. CYCLE   70 ..............................
........................................................................

 iter      E             dE          RMSdq      gap      omega  full diag
   1   -398.7403214 -0.398740E+03  0.145E-02    0.23       0.0  T
   2   -398.7401379  0.183437E-03  0.318E-02    0.23       1.0  T
   3   -398.7403347 -0.196731E-03  0.760E-03    0.23       1.0  T
   4   -398.7403350 -0.347429E-06  0.476E-03    0.23       1.4  T
   5   -398.7403376 -0.258498E-05  0.240E-03    0.23       2.7  T
   6   -398.7403382 -0.592802E-06  0.415E-04    0.23      15.6  T
   7   -398.7403382 -0.180711E-07  0.229E-04    0.23      28.2  T
     SCC iter.                  ...        0 min,  0.453 sec
     gradient                   ...        0 min,  0.306 sec
 * total energy  :  -393.5268668 Eh     change       -0.8904602E-04 Eh
   gradient norm :     0.0037567 Eh/α   predicted    -0.5472365E-04 ( -38.54%)
   displ. norm   :     0.4128828 α      lambda       -0.2455231E-03
   maximum displ.:     0.2217498 α      in ANC's #8, #2, #5, ...

........................................................................
.............................. CYCLE   71 ..............................
........................................................................

 iter      E             dE          RMSdq      gap      omega  full diag
   1   -398.7378101 -0.398738E+03  0.363E-02    0.23       0.0  T
   2   -398.7368379  0.972216E-03  0.737E-02    0.23       1.0  T
   3   -398.7378674 -0.102946E-02  0.208E-02    0.23       1.0  T
   4   -398.7378824 -0.150726E-04  0.106E-02    0.23       1.0  T
   5   -398.7378977 -0.152844E-04  0.495E-03    0.23       1.3  T
   6   -398.7379000 -0.232156E-05  0.104E-03    0.23       6.2  T
   7   -398.7379001 -0.905544E-07  0.626E-04    0.23      10.4  T
   8   -398.7379002 -0.241878E-07  0.345E-04    0.23      18.8  T
     SCC iter.                  ...        0 min,  0.523 sec
     gradient                   ...        0 min,  0.310 sec
 * total energy  :  -393.5270126 Eh     change       -0.1457877E-03 Eh
   gradient norm :     0.0074092 Eh/α   predicted    -0.1436918E-03 (  -1.44%)
   displ. norm   :     0.0717513 α      lambda       -0.1005299E-03
   maximum displ.:     0.0253441 α      in ANC's #1, #14, #13, ...

........................................................................
.............................. CYCLE   72 ..............................
........................................................................

 iter      E             dE          RMSdq      gap      omega  full diag
   1   -398.7384164 -0.398738E+03  0.797E-03    0.23       0.0  T
   2   -398.7384150  0.141520E-05  0.555E-03    0.23       1.2  T
   3   -398.7383956  0.193709E-04  0.108E-02    0.23       1.0  T
   4   -398.7384145 -0.188863E-04  0.350E-03    0.23       1.9  T
   5   -398.7384171 -0.262349E-05  0.684E-04    0.23       9.5  T
   6   -398.7384172 -0.678710E-07  0.373E-04    0.23      17.4  T
   7   -398.7384172 -0.100168E-07  0.206E-04    0.23      31.5  T
     SCC iter.                  ...        0 min,  0.460 sec
     gradient                   ...        0 min,  0.309 sec
 * total energy  :  -393.5271051 Eh     change       -0.9245160E-04 Eh
   gradient norm :     0.0056616 Eh/α   predicted    -0.5052403E-04 ( -45.35%)
   displ. norm   :     0.4529285 α      lambda       -0.5297912E-03
   maximum displ.:     0.1544149 α      in ANC's #14, #13, #8, ...

........................................................................
.............................. CYCLE   73 ..............................
........................................................................

 iter      E             dE          RMSdq      gap      omega  full diag
   1   -398.7375558 -0.398738E+03  0.515E-02    0.23       0.0  T
   2   -398.7375638 -0.795724E-05  0.306E-02    0.23       1.0  T
   3   -398.7373757  0.188031E-03  0.323E-02    0.23       1.0  T
   4   -398.7374312 -0.554522E-04  0.278E-02    0.23       1.0  T
   5   -398.7375814 -0.150168E-03  0.507E-03    0.23       1.3  T
   6   -398.7375869 -0.551464E-05  0.176E-03    0.23       3.7  T
   7   -398.7375870 -0.154728E-06  0.136E-03    0.23       4.8  T
   8   -398.7375871 -0.116878E-06  0.678E-04    0.23       9.6  T
   9   -398.7375872 -0.266647E-07  0.253E-04    0.23      25.7  T
     SCC iter.                  ...        0 min,  0.595 sec
     gradient                   ...        0 min,  0.308 sec
 * total energy  :  -393.5274537 Eh     change       -0.3486364E-03 Eh
   gradient norm :     0.0115399 Eh/α   predicted    -0.3192388E-03 (  -8.43%)
   displ. norm   :     0.2000936 α      lambda       -0.3041171E-03
   maximum displ.:     0.0818680 α      in ANC's #7, #5, #14, ...

........................................................................
.............................. CYCLE   74 ..............................
........................................................................

 iter      E             dE          RMSdq      gap      omega  full diag
   1   -398.7405319 -0.398741E+03  0.304E-02    0.23       0.0  T
   2   -398.7401921  0.339750E-03  0.452E-02    0.23       1.0  T
   3   -398.7404911 -0.298947E-03  0.245E-02    0.23       1.0  T
   4   -398.7405550 -0.639619E-04  0.883E-03    0.23       1.0  T
   5   -398.7405667 -0.117172E-04  0.395E-03    0.23       1.6  T
   6   -398.7405701 -0.337065E-05  0.122E-03    0.23       5.3  T
   7   -398.7405702 -0.113709E-06  0.807E-04    0.23       8.0  T
   8   -398.7405703 -0.569619E-07  0.385E-04    0.23      16.8  T
     SCC iter.                  ...        0 min,  0.566 sec
     gradient                   ...        0 min,  0.312 sec
 * total energy  :  -393.5276096 Eh     change       -0.1559208E-03 Eh
   gradient norm :     0.0138581 Eh/α   predicted    -0.1581849E-03 (   1.45%)
   displ. norm   :     0.4550578 α      lambda       -0.5392413E-03
   maximum displ.:     0.1689008 α      in ANC's #8, #7, #14, ...

........................................................................
.............................. CYCLE   75 ..............................
........................................................................

 iter      E             dE          RMSdq      gap      omega  full diag
   1   -398.7361238 -0.398736E+03  0.509E-02    0.23       0.0  T
   2   -398.7361186  0.528081E-05  0.312E-02    0.23       1.0  T
   3   -398.7354038  0.714729E-03  0.620E-02    0.23       1.0  T
   4   -398.7361038 -0.699981E-03  0.157E-02    0.23       1.0  T
   5   -398.7361454 -0.415964E-04  0.599E-03    0.23       1.1  T
   6   -398.7361528 -0.735343E-05  0.159E-03    0.23       4.1  T
   7   -398.7361529 -0.111477E-06  0.108E-03    0.23       6.0  T
   8   -398.7361529 -0.204806E-07  0.723E-04    0.23       9.0  T
   9   -398.7361529 -0.540721E-07  0.225E-04    0.23      28.8  T
     SCC iter.                  ...        0 min,  0.614 sec
     gradient                   ...        0 min,  0.307 sec
 * total energy  :  -393.5279295 Eh     change       -0.3198912E-03 Eh
   gradient norm :     0.0211282 Eh/α   predicted    -0.3254642E-03 (   1.74%)
   displ. norm   :     0.2515929 α      lambda       -0.1101364E-02
   maximum displ.:     0.1249516 α      in ANC's #7, #12, #4, ...

........................................................................
.............................. CYCLE   76 ..............................
........................................................................

 iter      E             dE          RMSdq      gap      omega  full diag
   1   -398.7391712 -0.398739E+03  0.356E-02    0.23       0.0  T
   2   -398.7389371  0.234121E-03  0.429E-02    0.23       1.0  T
   3   -398.7390280 -0.908491E-04  0.362E-02    0.23       1.0  T
   4   -398.7392219 -0.193965E-03  0.979E-03    0.23       1.0  T
   5   -398.7392232 -0.125900E-05  0.828E-03    0.23       1.0  T
   6   -398.7392308 -0.766130E-05  0.128E-03    0.23       5.1  T
   7   -398.7392309 -0.342870E-07  0.842E-04    0.23       7.7  T
   8   -398.7392309 -0.340725E-07  0.485E-04    0.23      13.4  T
     SCC iter.                  ...        0 min,  0.530 sec
     gradient                   ...        0 min,  0.307 sec
 * total energy  :  -393.5284011 Eh     change       -0.4716213E-03 Eh
   gradient norm :     0.0173943 Eh/α   predicted    -0.5855486E-03 (  24.16%)
   displ. norm   :     0.4552303 α      lambda       -0.1487499E-02
   maximum displ.:     0.1651597 α      in ANC's #12, #16, #7, ...

........................................................................
.............................. CYCLE   77 ..............................
........................................................................

 iter      E             dE          RMSdq      gap      omega  full diag
   1   -398.7350872 -0.398735E+03  0.747E-02    0.23       0.0  T
   2   -398.7346356  0.451538E-03  0.680E-02    0.23       1.0  T
   3   -398.7336084  0.102727E-02  0.963E-02    0.23       1.0  T
   4   -398.7351727 -0.156436E-02  0.174E-02    0.23       1.0  T
   5   -398.7352129 -0.401502E-04  0.786E-03    0.23       1.0  T
   6   -398.7352274 -0.145053E-04  0.293E-03    0.23       2.2  T
   7   -398.7352289 -0.148758E-05  0.130E-03    0.23       5.0  T
   8   -398.7352289  0.109779E-07  0.959E-04    0.23       6.8  T
   9   -398.7352290 -0.100567E-06  0.565E-04    0.23      11.5  T
     SCC iter.                  ...        0 min,  0.588 sec
     gradient                   ...        0 min,  0.304 sec
 * total energy  :  -393.5291948 Eh     change       -0.7936988E-03 Eh
   gradient norm :     0.0349327 Eh/α   predicted    -0.8978865E-03 (  13.13%)
   displ. norm   :     0.1728798 α      lambda       -0.1073463E-02
   maximum displ.:     0.0671568 α      in ANC's #7, #12, #4, ...

........................................................................
.............................. CYCLE   78 ..............................
........................................................................

 iter      E             dE          RMSdq      gap      omega  full diag
   1   -398.7401496 -0.398740E+03  0.288E-02    0.23       0.0  T
   2   -398.7401580 -0.844759E-05  0.226E-02    0.23       1.0  T
   3   -398.7399501  0.207887E-03  0.381E-02    0.23       1.0  T
   4   -398.7402186 -0.268498E-03  0.775E-03    0.23       1.0  T
   5   -398.7402174  0.125279E-05  0.484E-03    0.23       1.3  T
   6   -398.7402214 -0.401249E-05  0.174E-03    0.23       3.7  T
   7   -398.7402217 -0.285157E-06  0.634E-04    0.23      10.2  T
   8   -398.7402217 -0.105447E-07  0.444E-04    0.23      14.6  T
     SCC iter.                  ...        0 min,  0.520 sec
     gradient                   ...        0 min,  0.305 sec
 * total energy  :  -393.5298052 Eh     change       -0.6103222E-03 Eh
   gradient norm :     0.0209986 Eh/α   predicted    -0.5527810E-03 (  -9.43%)
   displ. norm   :     0.4717617 α      lambda       -0.1129200E-02
   maximum displ.:     0.2123247 α      in ANC's #7, #12, #14, ...

........................................................................
.............................. CYCLE   79 ..............................
........................................................................

 iter      E             dE          RMSdq      gap      omega  full diag
   1   -398.7338244 -0.398734E+03  0.586E-02    0.22       0.0  T
   2   -398.7336578  0.166621E-03  0.472E-02    0.22       1.0  T
   3   -398.7326455  0.101229E-02  0.820E-02    0.23       1.0  T
   4   -398.7338679 -0.122236E-02  0.123E-02    0.22       1.0  T
   5   -398.7338888 -0.209562E-04  0.387E-03    0.22       1.7  T
   6   -398.7338908 -0.192488E-05  0.247E-03    0.22       2.6  T
   7   -398.7338915 -0.736713E-06  0.118E-03    0.22       5.5  T
   8   -398.7338915 -0.264419E-07  0.775E-04    0.22       8.4  T
   9   -398.7338916 -0.514300E-07  0.361E-04    0.22      18.0  T
     SCC iter.                  ...        0 min,  0.609 sec
     gradient                   ...        0 min,  0.307 sec
 * total energy  :  -393.5303508 Eh     change       -0.5456489E-03 Eh
   gradient norm :     0.0274422 Eh/α   predicted    -0.6902644E-03 (  26.50%)
   displ. norm   :     0.3343171 α      lambda       -0.2228526E-02
   maximum displ.:     0.1830731 α      in ANC's #4, #1, #3, ...

........................................................................
.............................. CYCLE   80 ..............................
........................................................................

 iter      E             dE          RMSdq      gap      omega  full diag
   1   -398.7438105 -0.398744E+03  0.559E-02    0.22       0.0  T
   2   -398.7418062  0.200429E-02  0.111E-01    0.23       1.0  T
   3   -398.7440041 -0.219793E-02  0.353E-02    0.23       1.0  T
   4   -398.7441221 -0.117997E-03  0.143E-02    0.22       1.0  T
   5   -398.7441163  0.586827E-05  0.116E-02    0.23       1.0  T
   6   -398.7441315 -0.152158E-04  0.241E-03    0.22       2.7  T
   7   -398.7441317 -0.210595E-06  0.148E-03    0.22       4.4  T
   8   -398.7441319 -0.187796E-06  0.855E-04    0.22       7.6  T
   9   -398.7441319 -0.539597E-07  0.530E-04    0.22      12.2  T
     SCC iter.                  ...        0 min,  0.652 sec
     gradient                   ...        0 min,  0.314 sec
 * total energy  :  -393.5309898 Eh     change       -0.6389822E-03 Eh
   gradient norm :     0.0274538 Eh/α   predicted    -0.1238802E-02 (  93.87%)
   displ. norm   :     0.4826740 α      lambda       -0.2597891E-02
   maximum displ.:     0.1775884 α      in ANC's #4, #12, #16, ...

........................................................................
.............................. CYCLE   81 ..............................
........................................................................

 iter      E             dE          RMSdq      gap      omega  full diag
   1   -398.7409044 -0.398741E+03  0.804E-02    0.22       0.0  T
   2   -398.7410452 -0.140822E-03  0.486E-02    0.22       1.0  T
   3   -398.7402275  0.817689E-03  0.712E-02    0.23       1.0  T
   4   -398.7407865 -0.559003E-03  0.394E-02    0.22       1.0  T
   5   -398.7410551 -0.268601E-03  0.164E-02    0.23       1.0  T
   6   -398.7410944 -0.393243E-04  0.391E-03    0.22       1.7  T
   7   -398.7410956 -0.116473E-05  0.164E-03    0.22       4.0  T
   8   -398.7410957 -0.684561E-07  0.116E-03    0.22       5.6  T
   9   -398.7410958 -0.162475E-06  0.486E-04    0.22      13.3  T
  10   -398.7410959 -0.332870E-07  0.240E-04    0.22      27.0  T
     SCC iter.                  ...        0 min,  0.671 sec
     gradient                   ...        0 min,  0.306 sec
 * total energy  :  -393.5318589 Eh     change       -0.8690769E-03 Eh
   gradient norm :     0.0421926 Eh/α   predicted    -0.1601570E-02 (  84.28%)
   displ. norm   :     0.1273400 α      lambda       -0.1274524E-02
   maximum displ.:     0.0672230 α      in ANC's #7, #8, #1, ...

........................................................................
.............................. CYCLE   82 ..............................
........................................................................

 iter      E             dE          RMSdq      gap      omega  full diag
   1   -398.7408350 -0.398741E+03  0.267E-02    0.22       0.0  T
   2   -398.7408699 -0.349113E-04  0.192E-02    0.22       1.0  T
   3   -398.7406792  0.190765E-03  0.352E-02    0.23       1.0  T
   4   -398.7409170 -0.237828E-03  0.780E-03    0.23       1.0  T
   5   -398.7409124  0.459253E-05  0.875E-03    0.22       1.0  T
   6   -398.7409198 -0.738369E-05  0.149E-03    0.22       4.3  T
   7   -398.7409202 -0.387514E-06  0.561E-04    0.22      11.6  T
   8   -398.7409202 -0.305386E-07  0.342E-04    0.22      18.9  T
     SCC iter.                  ...        0 min,  0.526 sec
     gradient                   ...        0 min,  0.307 sec
 * total energy  :  -393.5326299 Eh     change       -0.7710728E-03 Eh
   gradient norm :     0.0161193 Eh/α   predicted    -0.6475986E-03 ( -16.01%)
   displ. norm   :     0.3578832 α      lambda       -0.7000350E-03
   maximum displ.:     0.1610550 α      in ANC's #1, #4, #7, ...

........................................................................
.............................. CYCLE   83 ..............................
........................................................................

 iter      E             dE          RMSdq      gap      omega  full diag
   1   -398.7401567 -0.398740E+03  0.431E-02    0.23       0.0  T
   2   -398.7398965  0.260227E-03  0.449E-02    0.23       1.0  T
   3   -398.7397666  0.129936E-03  0.494E-02    0.23       1.0  T
   4   -398.7401817 -0.415108E-03  0.780E-03    0.23       1.0  T
   5   -398.7401869 -0.520385E-05  0.521E-03    0.23       1.2  T
   6   -398.7401897 -0.280627E-05  0.124E-03    0.23       5.2  T
   7   -398.7401898 -0.626656E-07  0.786E-04    0.23       8.3  T
   8   -398.7401898 -0.378104E-07  0.426E-04    0.23      15.2  T
     SCC iter.                  ...        0 min,  0.532 sec
     gradient                   ...        0 min,  0.308 sec
 * total energy  :  -393.5331884 Eh     change       -0.5584267E-03 Eh
   gradient norm :     0.0140334 Eh/α   predicted    -0.3948497E-03 ( -29.29%)
   displ. norm   :     0.4793122 α      lambda       -0.1315031E-02
   maximum displ.:     0.2910274 α      in ANC's #1, #4, #7, ...

........................................................................
.............................. CYCLE   84 ..............................
........................................................................

 iter      E             dE          RMSdq      gap      omega  full diag
   1   -398.7491376 -0.398749E+03  0.615E-02    0.23       0.0  T
   2   -398.7487522  0.385377E-03  0.580E-02    0.23       1.0  T
   3   -398.7481246  0.627585E-03  0.769E-02    0.23       1.0  T
   4   -398.7491430 -0.101845E-02  0.217E-02    0.23       1.0  T
   5   -398.7491938 -0.507187E-04  0.743E-03    0.23       1.0  T
   6   -398.7491984 -0.461267E-05  0.162E-03    0.23       4.0  T
   7   -398.7491984 -0.685461E-07  0.111E-03    0.23       5.8  T
   8   -398.7491986 -0.134950E-06  0.530E-04    0.23      12.2  T
   9   -398.7491986 -0.147439E-07  0.304E-04    0.23      21.3  T
     SCC iter.                  ...        0 min,  0.628 sec
     gradient                   ...        0 min,  0.318 sec
 * total energy  :  -393.5338666 Eh     change       -0.6782637E-03 Eh
   gradient norm :     0.0151197 Eh/α   predicted    -0.8085792E-03 (  19.21%)
   displ. norm   :     0.6303519 α      lambda       -0.1268274E-02
   maximum displ.:     0.2871562 α      in ANC's #1, #4, #7, ...

........................................................................
.............................. CYCLE   85 ..............................
........................................................................

 iter      E             dE          RMSdq      gap      omega  full diag
   1   -398.7382292 -0.398738E+03  0.911E-02    0.23       0.0  T
   2   -398.7380147  0.214451E-03  0.669E-02    0.23       1.0  T
   3   -398.7350691  0.294565E-02  0.130E-01    0.24       1.0  T
   4   -398.7382985 -0.322941E-02  0.212E-02    0.23       1.0  T
   5   -398.7383666 -0.681201E-04  0.604E-03    0.23       1.1  T
   6   -398.7383681 -0.152868E-05  0.407E-03    0.23       1.6  T
   7   -398.7383699 -0.180443E-05  0.173E-03    0.23       3.7  T
   8   -398.7383700 -0.103343E-06  0.101E-03    0.23       6.4  T
   9   -398.7383701 -0.905861E-07  0.454E-04    0.23      14.3  T
  10   -398.7383702 -0.442662E-07  0.212E-04    0.23      30.6  T
     SCC iter.                  ...        0 min,  0.770 sec
     gradient                   ...        0 min,  0.329 sec
 * total energy  :  -393.5340152 Eh     change       -0.1485365E-03 Eh
   gradient norm :     0.0359962 Eh/α   predicted    -0.8861189E-03 ( 496.57%)
   displ. norm   :     0.1582547 α      lambda       -0.1189364E-02
   maximum displ.:     0.0710622 α      in ANC's #16, #7, #5, ...

........................................................................
.............................. CYCLE   86 ..............................
........................................................................

 iter      E             dE          RMSdq      gap      omega  full diag
   1   -398.7443282 -0.398744E+03  0.335E-02    0.23       0.0  T
   2   -398.7441007  0.227552E-03  0.422E-02    0.23       1.0  T
   3   -398.7442209 -0.120198E-03  0.329E-02    0.23       1.0  T
   4   -398.7443849 -0.163986E-03  0.885E-03    0.23       1.0  T
   5   -398.7443918 -0.690383E-05  0.397E-03    0.23       1.6  T
   6   -398.7443931 -0.129781E-05  0.153E-03    0.23       4.2  T
   7   -398.7443932 -0.116149E-06  0.795E-04    0.23       8.2  T
   8   -398.7443933 -0.561041E-07  0.408E-04    0.23      15.9  T
     SCC iter.                  ...        0 min,  0.575 sec
     gradient                   ...        0 min,  0.313 sec
 * total energy  :  -393.5345633 Eh     change       -0.5481271E-03 Eh
   gradient norm :     0.0072956 Eh/α   predicted    -0.6095685E-03 (  11.21%)
   displ. norm   :     0.2138311 α      lambda       -0.2541926E-03
   maximum displ.:     0.1281101 α      in ANC's #1, #4, #2, ...

........................................................................
.............................. CYCLE   87 ..............................
........................................................................

 iter      E             dE          RMSdq      gap      omega  full diag
   1   -398.7452545 -0.398745E+03  0.286E-02    0.23       0.0  T
   2   -398.7451836  0.708777E-04  0.263E-02    0.23       1.0  T
   3   -398.7450329  0.150696E-03  0.366E-02    0.23       1.0  T
   4   -398.7452703 -0.237363E-03  0.495E-03    0.23       1.3  T
   5   -398.7452720 -0.179603E-05  0.223E-03    0.23       2.9  T
   6   -398.7452730 -0.936464E-06  0.110E-03    0.23       5.9  T
   7   -398.7452731 -0.114464E-06  0.585E-04    0.23      11.1  T
   8   -398.7452731 -0.360715E-07  0.311E-04    0.23      20.8  T
     SCC iter.                  ...        0 min,  0.533 sec
     gradient                   ...        0 min,  0.308 sec
 * total energy  :  -393.5347610 Eh     change       -0.1977422E-03 Eh
   gradient norm :     0.0054958 Eh/α   predicted    -0.1329102E-03 ( -32.79%)
   displ. norm   :     0.4958289 α      lambda       -0.4674866E-03
   maximum displ.:     0.2871835 α      in ANC's #1, #2, #4, ...

........................................................................
.............................. CYCLE   88 ..............................
........................................................................

 iter      E             dE          RMSdq      gap      omega  full diag
   1   -398.7434449 -0.398743E+03  0.693E-02    0.23       0.0  T
   2   -398.7426057  0.839195E-03  0.776E-02    0.24       1.0  T
   3   -398.7426857 -0.799585E-04  0.725E-02    0.24       1.0  T
   4   -398.7435197 -0.833995E-03  0.109E-02    0.23       1.0  T
   5   -398.7435349 -0.151991E-04  0.498E-03    0.23       1.3  T
   6   -398.7435374 -0.249873E-05  0.179E-03    0.23       3.6  T
   7   -398.7435373  0.256779E-07  0.132E-03    0.23       4.9  T
   8   -398.7435375 -0.187306E-06  0.536E-04    0.23      12.1  T
   9   -398.7435376 -0.231158E-07  0.325E-04    0.23      20.0  T
     SCC iter.                  ...        0 min,  0.599 sec
     gradient                   ...        0 min,  0.308 sec
 * total energy  :  -393.5350091 Eh     change       -0.2481027E-03 Eh
   gradient norm :     0.0109923 Eh/α   predicted    -0.2912166E-03 (  17.38%)
   displ. norm   :     0.1081162 α      lambda       -0.1468600E-03
   maximum displ.:     0.0658718 α      in ANC's #1, #2, #8, ...

........................................................................
.............................. CYCLE   89 ..............................
........................................................................

 iter      E             dE          RMSdq      gap      omega  full diag
   1   -398.7456699 -0.398746E+03  0.187E-02    0.24       0.0  T
   2   -398.7452800  0.389915E-03  0.461E-02    0.24       1.0  T
   3   -398.7456997 -0.419727E-03  0.877E-03    0.24       1.0  T
   4   -398.7457020 -0.230322E-05  0.424E-03    0.24       1.5  T
   5   -398.7457036 -0.158890E-05  0.302E-03    0.24       2.1  T
   6   -398.7457043 -0.739992E-06  0.395E-04    0.24      16.4  T
   7   -398.7457044 -0.600392E-08  0.311E-04    0.24      20.9  T
     SCC iter.                  ...        0 min,  0.459 sec
     gradient                   ...        0 min,  0.306 sec
 * total energy  :  -393.5351084 Eh     change       -0.9921258E-04 Eh
   gradient norm :     0.0046369 Eh/α   predicted    -0.7429051E-04 ( -25.12%)
   displ. norm   :     0.2012351 α      lambda       -0.9321645E-04
   maximum displ.:     0.1201879 α      in ANC's #1, #2, #4, ...

........................................................................
.............................. CYCLE   90 ..............................
........................................................................

 iter      E             dE          RMSdq      gap      omega  full diag
   1   -398.7467516 -0.398747E+03  0.282E-02    0.24       0.0  T
   2   -398.7462302  0.521357E-03  0.542E-02    0.24       1.0  T
   3   -398.7467685 -0.538258E-03  0.175E-02    0.24       1.0  T
   4   -398.7467932 -0.247645E-04  0.516E-03    0.24       1.3  T
   5   -398.7467967 -0.347371E-05  0.331E-03    0.24       2.0  T
   6   -398.7467976 -0.930973E-06  0.630E-04    0.24      10.3  T
   7   -398.7467976  0.539700E-08  0.502E-04    0.24      12.9  T
     SCC iter.                  ...        0 min,  0.472 sec
     gradient                   ...        0 min,  0.309 sec
 * total energy  :  -393.5351672 Eh     change       -0.5882698E-04 Eh
   gradient norm :     0.0037190 Eh/α   predicted    -0.4849456E-04 ( -17.56%)
   displ. norm   :     0.1130984 α      lambda       -0.4327138E-04
   maximum displ.:     0.0695982 α      in ANC's #2, #1, #260, ...

........................................................................
.............................. CYCLE   91 ..............................
........................................................................

 iter      E             dE          RMSdq      gap      omega  full diag
   1   -398.7475912 -0.398748E+03  0.151E-02    0.24       0.0  T
   2   -398.7474452  0.146023E-03  0.287E-02    0.24       1.0  T
   3   -398.7475955 -0.150335E-03  0.957E-03    0.24       1.0  T
   4   -398.7476022 -0.667155E-05  0.362E-03    0.24       1.8  T
   5   -398.7476040 -0.183066E-05  0.198E-03    0.24       3.3  T
   6   -398.7476043 -0.315195E-06  0.382E-04    0.24      17.0  T
   7   -398.7476043  0.329254E-08  0.307E-04    0.24      21.1  T
     SCC iter.                  ...        0 min,  0.457 sec
     gradient                   ...        0 min,  0.307 sec
 * total energy  :  -393.5351941 Eh     change       -0.2689513E-04 Eh
   gradient norm :     0.0030981 Eh/α   predicted    -0.2191303E-04 ( -18.52%)
   displ. norm   :     0.0778529 α      lambda       -0.2585431E-04
   maximum displ.:     0.0501403 α      in ANC's #2, #1, #12, ...

........................................................................
.............................. CYCLE   92 ..............................
........................................................................

 iter      E             dE          RMSdq      gap      omega  full diag
   1   -398.7480072 -0.398748E+03  0.934E-03    0.24       0.0  T
   2   -398.7479779  0.292301E-04  0.133E-02    0.24       1.0  T
   3   -398.7480016 -0.236395E-04  0.800E-03    0.24       1.0  T
   4   -398.7480096 -0.804617E-05  0.254E-03    0.24       2.5  T
   5   -398.7480103 -0.644603E-06  0.146E-03    0.24       4.4  T
   6   -398.7480104 -0.181043E-06  0.285E-04    0.24      22.8  T
   7   -398.7480104 -0.501029E-08  0.166E-04    0.24      39.0  T
     SCC iter.                  ...        0 min,  0.459 sec
     gradient                   ...        0 min,  0.307 sec
 * total energy  :  -393.5352110 Eh     change       -0.1689859E-04 Eh
   gradient norm :     0.0023681 Eh/α   predicted    -0.1300932E-04 ( -23.02%)
   displ. norm   :     0.0630577 α      lambda       -0.2154907E-04
   maximum displ.:     0.0453514 α      in ANC's #2, #5, #4, ...
 * RMSD in coord.:     0.3157075 α      energy gain  -0.8718501E-02 Eh

generating ANC from exact Hessian ...
Using Lindh-Hessian (1995)
 Shifting diagonal of input Hessian by    9.6356424333165613E-003
 Lowest  eigenvalues of input Hessian
    0.000000    0.000000    0.000000    0.000000    0.000000    0.000000
    0.010000    0.010373    0.010815    0.011035    0.011578    0.012773
    0.013335    0.014597    0.016116    0.019451    0.021418    0.023287
 Highest eigenvalues
    3.129554    3.202391    3.210753    3.245391    3.328741    3.334949


........................................................................
.............................. CYCLE   93 ..............................
........................................................................

 iter      E             dE          RMSdq      gap      omega  full diag
   1   -398.7483110 -0.398748E+03  0.661E-03    0.24       0.0  T
   2   -398.7483111 -0.397620E-07  0.390E-03    0.24       1.7  T
   3   -398.7483087  0.237648E-05  0.434E-03    0.24       1.5  T
   4   -398.7483087 -0.240282E-07  0.357E-03    0.24       1.8  T
   5   -398.7483110 -0.230036E-05  0.120E-03    0.24       5.4  T
   6   -398.7483112 -0.214080E-06  0.165E-04    0.24      39.2  T
   7   -398.7483112 -0.337934E-09  0.112E-04    0.24      57.7  T
     SCC iter.                  ...        0 min,  0.444 sec
     gradient                   ...        0 min,  0.309 sec
 * total energy  :  -393.5352257 Eh     change       -0.1473750E-04 Eh
   gradient norm :     0.0020730 Eh/α   predicted     0.0000000E+00 (-100.00%)
   displ. norm   :     0.0322499 α      lambda       -0.1933743E-04
   maximum displ.:     0.0158655 α      in ANC's #5, #8, #3, ...

........................................................................
.............................. CYCLE   94 ..............................
........................................................................

 iter      E             dE          RMSdq      gap      omega  full diag
   1   -398.7477455 -0.398748E+03  0.349E-03    0.24       0.0  T
   2   -398.7477427  0.284373E-05  0.439E-03    0.24       1.5  T
   3   -398.7477442 -0.156772E-05  0.323E-03    0.24       2.0  T
   4   -398.7477458 -0.152980E-05  0.834E-04    0.24       7.8  T
   5   -398.7477458 -0.291469E-07  0.547E-04    0.24      11.9  T
   6   -398.7477458 -0.284856E-07  0.103E-04    0.24      63.1  T
     SCC iter.                  ...        0 min,  0.398 sec
     gradient                   ...        0 min,  0.323 sec
 * total energy  :  -393.5352422 Eh     change       -0.1647592E-04 Eh
   gradient norm :     0.0009507 Eh/α   predicted    -0.1006808E-04 ( -38.89%)
   displ. norm   :     0.1493469 α      lambda       -0.3903948E-04
   maximum displ.:     0.0726584 α      in ANC's #5, #8, #3, ...

........................................................................
.............................. CYCLE   95 ..............................
........................................................................

 iter      E             dE          RMSdq      gap      omega  full diag
   1   -398.7461443 -0.398746E+03  0.147E-02    0.24       0.0  T
   2   -398.7460846  0.596366E-04  0.197E-02    0.24       1.0  T
   3   -398.7461255 -0.408626E-04  0.129E-02    0.24       1.0  T
   4   -398.7461495 -0.240361E-04  0.309E-03    0.24       2.1  T
   5   -398.7461499 -0.403835E-06  0.160E-03    0.24       4.1  T
   6   -398.7461502 -0.262854E-06  0.407E-04    0.24      15.9  T
   7   -398.7461502 -0.892248E-08  0.236E-04    0.24      27.4  T
     SCC iter.                  ...        0 min,  0.496 sec
     gradient                   ...        0 min,  0.313 sec
 * total energy  :  -393.5352680 Eh     change       -0.2579268E-04 Eh
   gradient norm :     0.0029343 Eh/α   predicted    -0.1971462E-04 ( -23.57%)
   displ. norm   :     0.0218201 α      lambda       -0.1159723E-04
   maximum displ.:     0.0105135 α      in ANC's #3, #8, #5, ...

........................................................................
.............................. CYCLE   96 ..............................
........................................................................

 iter      E             dE          RMSdq      gap      omega  full diag
   1   -398.7466220 -0.398747E+03  0.211E-03    0.24       0.0  T
   2   -398.7466216  0.413458E-06  0.198E-03    0.24       3.3  T
   3   -398.7466209  0.610732E-06  0.251E-03    0.24       2.6  T
   4   -398.7466220 -0.103350E-05  0.601E-04    0.24      10.8  T
   5   -398.7466220 -0.494480E-07  0.267E-04    0.24      24.3  T
   6   -398.7466220 -0.840180E-08  0.728E-05    0.24      89.0  T
     SCC iter.                  ...        0 min,  0.401 sec
     gradient                   ...        0 min,  0.308 sec
 * total energy  :  -393.5352779 Eh     change       -0.9897293E-05 Eh
   gradient norm :     0.0019043 Eh/α   predicted    -0.5803756E-05 ( -41.36%)
   displ. norm   :     0.1244933 α      lambda       -0.2535593E-04
   maximum displ.:     0.0613515 α      in ANC's #8, #3, #5, ...

........................................................................
.............................. CYCLE   97 ..............................
........................................................................

 iter      E             dE          RMSdq      gap      omega  full diag
   1   -398.7478704 -0.398748E+03  0.105E-02    0.24       0.0  T
   2   -398.7478633  0.701887E-05  0.890E-03    0.24       1.0  T
   3   -398.7478396  0.236985E-04  0.134E-02    0.24       1.0  T
   4   -398.7478697 -0.300477E-04  0.329E-03    0.24       2.0  T
   5   -398.7478711 -0.144301E-05  0.154E-03    0.24       4.2  T
   6   -398.7478714 -0.269630E-06  0.259E-04    0.24      25.0  T
   7   -398.7478714 -0.397341E-08  0.147E-04    0.24      44.2  T
     SCC iter.                  ...        0 min,  0.466 sec
     gradient                   ...        0 min,  0.341 sec
 * total energy  :  -393.5352940 Eh     change       -0.1616819E-04 Eh
   gradient norm :     0.0016274 Eh/α   predicted    -0.1276802E-04 ( -21.03%)
   displ. norm   :     0.0321384 α      lambda       -0.4672214E-05
   maximum displ.:     0.0192864 α      in ANC's #8, #3, #5, ...

........................................................................
.............................. CYCLE   98 ..............................
........................................................................

 iter      E             dE          RMSdq      gap      omega  full diag
   1   -398.7475059 -0.398748E+03  0.295E-03    0.24       0.0  T
   2   -398.7475056  0.324700E-06  0.219E-03    0.24       3.0  T
   3   -398.7475026  0.294849E-05  0.424E-03    0.24       1.5  T
   4   -398.7475059 -0.330784E-05  0.619E-04    0.24      10.5  T
   5   -398.7475059 -0.247148E-07  0.227E-04    0.24      28.5  T
   6   -398.7475059 -0.798974E-08  0.719E-05    0.24      90.2  T
     SCC iter.                  ...        0 min,  0.414 sec
     gradient                   ...        0 min,  0.310 sec
 * total energy  :  -393.5352995 Eh     change       -0.5445512E-05 Eh
   gradient norm :     0.0007828 Eh/α   predicted    -0.2351021E-05 ( -56.83%)
   displ. norm   :     0.0658420 α      lambda       -0.6674279E-05
   maximum displ.:     0.0394801 α      in ANC's #8, #3, #2, ...

........................................................................
.............................. CYCLE   99 ..............................
........................................................................

 iter      E             dE          RMSdq      gap      omega  full diag
   1   -398.7470957 -0.398747E+03  0.626E-03    0.24       0.0  T
   2   -398.7470857  0.992583E-05  0.805E-03    0.24       1.0  T
   3   -398.7470916 -0.589289E-05  0.583E-03    0.24       1.1  T
   4   -398.7470966 -0.501613E-05  0.112E-03    0.24       5.8  T
   5   -398.7470967 -0.317756E-07  0.199E-04    0.24      32.6  T
   6   -398.7470967 -0.516815E-08  0.137E-04    0.24      47.4  T
     SCC iter.                  ...        0 min,  0.392 sec
     gradient                   ...        0 min,  0.308 sec
 * total energy  :  -393.5353061 Eh     change       -0.6615422E-05 Eh
   gradient norm :     0.0007905 Eh/α   predicted    -0.3349149E-05 ( -49.37%)
   displ. norm   :     0.0558552 α      lambda       -0.4063329E-05
   maximum displ.:     0.0329836 α      in ANC's #8, #3, #2, ...

........................................................................
.............................. CYCLE  100 ..............................
........................................................................

 iter      E             dE          RMSdq      gap      omega  full diag
   1   -398.7470459 -0.398747E+03  0.562E-03    0.24       0.0  T
   2   -398.7470341  0.118008E-04  0.848E-03    0.24       1.0  T
   3   -398.7470445 -0.103943E-04  0.442E-03    0.24       1.5  T
   4   -398.7470469 -0.247324E-05  0.949E-04    0.24       6.8  T
   5   -398.7470470 -0.387258E-07  0.266E-04    0.24      24.3  T
   6   -398.7470470 -0.782592E-08  0.131E-04    0.24      49.6  T
     SCC iter.                  ...        0 min,  0.389 sec
     gradient                   ...        0 min,  0.307 sec
 * total energy  :  -393.5353107 Eh     change       -0.4573106E-05 Eh
   gradient norm :     0.0010552 Eh/α   predicted    -0.2043884E-05 ( -55.31%)
   displ. norm   :     0.0726935 α      lambda       -0.5237713E-05
   maximum displ.:     0.0406936 α      in ANC's #8, #2, #13, ...

........................................................................
.............................. CYCLE  101 ..............................
........................................................................

 iter      E             dE          RMSdq      gap      omega  full diag
   1   -398.7472095 -0.398747E+03  0.731E-03    0.24       0.0  T
   2   -398.7471881  0.214545E-04  0.114E-02    0.24       1.0  T
   3   -398.7472077 -0.196684E-04  0.555E-03    0.24       1.2  T
   4   -398.7472114 -0.369077E-05  0.132E-03    0.24       4.9  T
   5   -398.7472115 -0.886004E-07  0.675E-04    0.24       9.6  T
   6   -398.7472116 -0.479170E-07  0.183E-04    0.24      35.5  T
     SCC iter.                  ...        0 min,  0.391 sec
     gradient                   ...        0 min,  0.304 sec
 * total energy  :  -393.5353157 Eh     change       -0.4987351E-05 Eh
   gradient norm :     0.0009477 Eh/α   predicted    -0.2627998E-05 ( -47.31%)
   displ. norm   :     0.0326957 α      lambda       -0.2243760E-05
   maximum displ.:     0.0200674 α      in ANC's #8, #1, #13, ...

   *** GEOMETRY OPTIMIZATION CONVERGED AFTER 101 ITERATIONS ***

------------------------------------------------------------------------
 total energy gain   :        -1.6038152 Eh    -1006.4093 kcal/mol
 total RMSD          :         1.4141050 a0        0.7483 Å
 total power (kW/mol):       -41.6912507 (step)  -42.7091 (real)
------------------------------------------------------------------------

 ANCopt (total)                0 d,  0 h,  1 min, 38.593 sec
 optimizer setup                ...        0 min,  0.001 sec (  0.001%)
 model hessian                  ...        0 min,  0.472 sec (  0.479%)
 ANC generation                 ...        0 min,  0.182 sec (  0.184%)
 coordinate transformation      ...        0 min,  0.018 sec (  0.019%)
 single point calculation       ...        1 min, 37.784 sec ( 99.179%)
 optimization log               ...        0 min,  0.034 sec (  0.035%)
 hessian update                 ...        0 min,  0.014 sec (  0.014%)
 rational function              ...        0 min,  0.074 sec (  0.075%)

================
 final structure:
================
238
 xtb: 6.7.1 (edcfbbe)
N            0.16252697669600       -1.69079004298848       -1.02202609497270
N           -0.05381256048972       -0.95825295632484        1.72250156748156
C           -0.45074283816205       -0.98192618217141       -3.32045731828781
C           -0.00249437179213       -1.91433085781402       -2.36493870036419
C            0.41488210803843       -3.26920369678439       -2.69124340792681
H            0.37741107999873       -3.70364828823074       -3.69104711023144
C            0.85552079384140       -3.83515037172097       -1.53133708784673
H            1.25738066374299       -4.83723442216064       -1.37499935306388
C            0.66296890093729       -2.85102185673526       -0.47937897254357
C            0.86516191738014       -3.11146529689290        0.88793682949529
C            0.45960621981220       -2.21761528856417        1.90329224505969
C            0.40558850363782       -2.56740699911335        3.30894281898029
H            0.75189260572035       -3.51468065504069        3.72508526456137
C           -0.18975819242260       -1.52115108135787        3.95658803194958
H           -0.42559300576004       -1.42057450402910        5.01678004798304
C           -0.45953649617290       -0.51055791264750        2.95280340450671
C            1.42469380628511       -4.44787496895807        1.29893923734070
C            2.77163582027277       -4.57640076769065        1.71314498331717
C            3.30326521175434       -5.81964572367444        2.10101789111688
C            2.48334286206778       -6.95144061017374        2.06769166138806
H            2.89698235478250       -7.92587065442132        2.35919844985582
C            1.14781458568605       -6.86463189466584        1.66640977183991
C            0.62062108036508       -5.61328492295278        1.29439100542137
N           -0.83267980849476        1.69098199200810        0.94436609697623
N           -0.57023866043108        0.95042577974502       -1.78645240437860
C           -1.02870145615841        0.75226777764258        3.23564521823778
C           -1.13614314646686        1.78206342561376        2.27797987437014
C           -1.52188292468897        3.14559053463325        2.60144912082712
H           -1.82958990542407        3.47958150309251        3.59314041441053
C           -1.39873259647488        3.87572975305677        1.45825885845093
H           -1.59330113467716        4.93655156131286        1.30193379618404
C           -1.00847427938024        2.95462880058647        0.40562051716143
C           -0.92151851508109        3.30531310572719       -0.92773365651348
C           -0.74200314909546        2.32297875021664       -1.97090670504216
C           -1.01723962289137        2.58966998105954       -3.38602661647643
H           -1.19628071852971        3.58328296587141       -3.78651961355012
C           -0.98202259939962        1.39067636798394       -4.01944460829047
H           -1.14072370356070        1.18264574720128       -5.07736030906113
C           -0.67682510213504        0.38431167775401       -3.01454783496820
C           -0.99757814462982        4.73455322454081       -1.37023438397440
C            0.17618633729511        5.42954576990034       -1.75243310080220
C            0.12167496223821        6.76069089461095       -2.20194268085839
C           -1.11378326615503        7.41463732062782       -2.24319125297784
H           -1.16072230437790        8.45721342211947       -2.58406216021180
C           -2.29073186274369        6.76363941896445       -1.86226735250200
C           -2.23251200241208        5.42118720437415       -1.44312677523112
Fe          -0.22831497786736        0.03737590199758       -0.02988294635824
Cl          -2.45079629807634       -0.61605541389817       -0.01976028500876
C           -1.59903528108944        0.98770561703456        4.61271584202698
C           -0.82600836712687        1.55925898786217        5.65857177273547
C           -2.95155585264188        0.62299442607155        4.86373806821133
C           -1.39274203152210        1.76915205866463        6.93186822099656
N            0.51609170139615        1.91709139279309        5.36699688036213
C           -3.51456425659290        0.85760753752636        6.13682388390695
N           -3.68431531857180        0.00381163746582        3.82341470682084
H           -0.77615798057914        2.19695443863476        7.72704564334661
C           -2.72974916644290        1.42080241267330        7.14646758287462
C            1.49728583981379        2.35631988861919        6.22585089702953
H            0.77709197796551        1.79916681091327        4.38621634618869
H           -4.56122170679342        0.59226167612595        6.30595150285358
C           -5.01010701523543       -0.38237303285617        3.82632931076223
H           -3.16210806005497       -0.18491655560979        2.96224029687802
H           -3.17357767248081        1.59223673721392        8.13565648809026
O            1.36455519833489        2.49168119735467        7.43780650382371
C            2.81379756258467        2.67717146409132        5.54917330738771
O           -5.80188258995178       -0.13488741770646        4.73113537724523
C           -5.42934100772088       -1.16559332039734        2.60536378025339
C            4.08278362783955        2.32051479867715        6.27913346468136
H            2.85537814070359        2.65435556950348        4.45524445558196
C            3.65039520171365        3.76623128293785        6.23105532101952
C           -6.79169426002153       -0.89169685549060        2.01849706376591
H           -4.65132571817803       -1.48623843979528        1.90305178685247
C           -6.59131036505769       -2.13874217053825        2.84655359325375
H            3.97881141225312        1.81837633855158        7.24399747572441
H            4.94155185604766        2.03543489715143        5.66813601666643
H            3.22250546294838        4.18306444102639        7.14613594170754
C            4.41065927415517        4.72054449402062        5.36458927327269
H           -7.38398568256957       -0.10142484754875        2.48841632878593
H           -6.88947945637303       -1.00458714937311        0.93527563693152
H           -7.00029804744627       -2.12507909701264        3.86166237316258
C           -6.56515456668154       -3.47351353485551        2.18102366179159
O            4.50054465784498        5.92984462090110        5.94426575729709
O            4.90138019320642        4.43844070742434        4.28835746275163
O           -7.15922974474877       -4.40733678478334        2.95702355018872
O           -6.09049007594807       -3.70929100280312        1.08830675005404
C            5.22600733576144        6.98766856318731        5.24899267034096
C           -7.24229979916527       -5.76881271874437        2.45014535492343
C            4.22844146230573        7.83899227247950        4.45186102588587
C            5.99005834346686        7.77413759566351        6.31312525384702
H            5.92299170517993        6.49107034749952        4.55092825869913
C           -7.21623246081679       -6.69259407627534        3.66893498553633
C           -8.50558774365944       -5.91457878294703        1.59427774952189
H           -6.34993045043794       -5.93405635734311        1.81688069503335
H            3.71548794830816        7.22200054618494        3.69555971339524
H            3.47928283644307        8.28040301324846        5.12258047117156
H            4.75849041415609        8.65278541858476        3.93805818634455
H            6.67736848047781        7.11939098739082        6.86400474820896
H            6.58141821454561        8.57454372796947        5.84847012106901
H            5.30136866154641        8.22956366829234        7.03613566695495
H           -6.29756692526471       -6.53697555580409        4.24931289657734
H           -8.08082724881315       -6.50153784495588        4.32234084982715
H           -7.25824419660560       -7.74375587587354        3.35209628573209
H           -8.46583309613288       -5.22919478288236        0.73672801255013
H           -8.59387492997895       -6.94237937723830        1.21555546676605
H           -9.40549182073742       -5.69330114786544        2.18819274617932
C           -0.69945602389745       -1.47789184416222       -4.72166816353535
C            0.24964901111343       -1.28282661797459       -5.76146264544851
C           -1.89836794648633       -2.19084035048392       -4.99946378560477
C            0.03703174130428       -1.84588949046081       -7.03522973869542
N            1.38724499680799       -0.48776050341028       -5.46828314185004
C           -2.09939436933226       -2.75832477190796       -6.27567291910763
N           -2.87498301843568       -2.26124451856776       -3.97900198301554
H            0.78423983589897       -1.68935977616057       -7.81841372731880
C           -1.12835918325506       -2.58474841809801       -7.26637994721581
C            2.31856541583118        0.04247320951636       -6.33351588594199
H            1.41050767353964       -0.14005768626572       -4.50822255565379
H           -3.01589471880889       -3.32445132797727       -6.46239497156868
C           -4.09837798959213       -2.90016911256114       -4.00065142581138
H           -2.65884977869762       -1.72927246917104       -3.13129494665191
H           -1.28984342077930       -3.03046377743563       -8.25653674630097
O            2.41778298877267       -0.23838777189017       -7.52210728671801
C            3.21552243782664        1.08028370551381       -5.69185124213069
O           -4.47865714316340       -3.64182227209158       -4.90140754277392
C           -4.96859011146008       -2.59069890296841       -2.80678416166448
C            3.51317756372384        2.31498729238739       -6.50642170542690
H            3.16231303483359        1.21157933518806       -4.60550099189770
C            4.59758132187493        1.28093429578511       -6.31345002835448
C           -5.85485019862766       -3.68140375219760       -2.26253123750425
H           -4.60909585409275       -1.85003126081329       -2.08281815482690
C           -6.47728898535541       -2.58852942695824       -3.09732434863729
H            3.06867979098719        2.36821391642605       -7.50373057179609
H            3.61745690524581        3.25833692694034       -5.96529978452146
H            4.83954373312032        0.64427176192170       -7.16851738499656
C            5.72765624357024        1.61872905556600       -5.39174160038947
H           -5.78446939852346       -4.66004314847267       -2.74464913616067
H           -6.02770612913030       -3.67124580254452       -1.18308827119244
H           -6.75133686401642       -2.84773579233856       -4.12459480838753
C           -7.32436340191750       -1.54368921161055       -2.45031055886657
O            6.89580888628419        1.16158416985838       -5.87171113953650
O            5.60792729799590        2.24367841824229       -4.35429516093194
O           -8.33087188423571       -1.16616824130492       -3.26835181034369
O           -7.15539807789322       -1.08881457969858       -1.33703420356896
C            8.11304431033157        1.42488400697323       -5.11281487227601
C           -9.26084036679446       -0.15447602958493       -2.78807066460304
C            9.03127305377209        0.21937668162018       -5.32096668535102
C            8.71716834914361        2.75101539177944       -5.58354913292428
H            7.81692078543462        1.51144607529054       -4.04987000642399
C           -8.70897323184013        1.24099094020258       -3.10679711895665
C          -10.60732216464418       -0.44869838286480       -3.44840324414017
H           -9.32850666450572       -0.27456259515917       -1.69152347029927
H            8.53537079381400       -0.70071536721806       -4.98493018475140
H            9.29568565544377        0.10949262932892       -6.38372662920775
H            9.96250277983175        0.34951610391755       -4.75305980779683
H            8.01478510336014        3.57614011224523       -5.40958182873231
H            9.64394439747035        2.96569436523525       -5.03392531850993
H            8.96126940526136        2.70845586816817       -6.65621008397774
H           -7.74358520193359        1.39603922305345       -2.59829727064845
H           -8.56653964973860        1.36065196194041       -4.18971225989554
H           -9.41166907407477        2.01280377137748       -2.76327347942583
H          -10.94947522567849       -1.46341756962429       -3.20061140890845
H          -11.36869334711826        0.26360311969794       -3.10327547959212
H          -10.53425675765128       -0.36852663746703       -4.54095216440440
H            4.34921764135597       -5.89521693817964        2.42078798926980
H            0.51334022035797       -7.75803137516014        1.63684692217649
H            1.03618781470923        7.27300897733405       -2.52159266960756
H           -3.25383710880074        7.28655942524652       -1.89099458590585
O            3.51002273228656       -3.41352511765703        1.71408520137176
O           -0.67339248586692       -5.44165899574961        0.86185670305338
O            1.33435534283272        4.68311512679685       -1.72458947204974
O           -3.33414136768389        4.71255934123886       -1.02906128584129
C            4.84854038426023       -3.43617224789019        2.10270739455982
C            5.84701057796920       -3.72613768037356        1.16109350441577
C            5.18538768475995       -3.08704255955712        3.41712456191797
C            7.19255896938508       -3.67313749816614        1.54786585079931
H            5.55953777649064       -3.98365968954650        0.13650963804849
C            6.53469336262536       -3.03635005978639        3.79187149842562
H            4.38338872059231       -2.85502656037044        4.12512047850950
C            7.53988421277519       -3.33068613574532        2.86149588307173
H            7.97629784803196       -3.89839585691492        0.81568378396582
H            6.80333762694291       -2.76417669383897        4.81879119746401
H            8.59615573034741       -3.29155189911367        3.15940162369137
C           -1.63742727325471       -6.42564858544036        1.05489567805931
C           -2.00380172043799       -6.85016980096055        2.34029794887980
C           -2.29653974337244       -6.92662626434560       -0.07626009763822
C           -3.02287845331325       -7.79936026005966        2.48564048415665
H           -1.49175360144438       -6.43118457787586        3.21314958783254
C           -3.32000432047628       -7.86901652352752        0.08353639831712
H           -1.99972243782146       -6.56090397828339       -1.06454341240972
C           -3.68182344424194       -8.31344650366740        1.36149805952534
H           -3.30914780210924       -8.13647727182863        3.48806279819511
H           -3.83735654754185       -8.26069870377626       -0.79899636359323
H           -4.47920590868128       -9.05853996528954        1.48253097314495
C            2.60321200305406        5.24260895192584       -1.63744706683496
C            2.91215165848246        6.31959737759255       -0.79333362520277
C            3.61573107158295        4.60456152636682       -2.37241547536899
C            4.23707787611772        6.76758682169467       -0.70789041158428
H            2.12312509496911        6.79847384028712       -0.20437588703701
C            4.93637683086889        5.05308007411665       -2.26949881512333
H            3.36242356842866        3.75036220294695       -3.00903280705386
C            5.25215738451527        6.14172094964128       -1.44354093818952
H            4.47834116255250        7.61296288302534       -0.05150258355359
H            5.71139979757197        4.53457556502227       -2.84445598924965
H            6.28687072394255        6.50112553670658       -1.36834635220727
C           -4.62441678478142        5.09630738045498       -1.37841090130050
C           -5.00445035544438        5.28033425619434       -2.71566463840745
C           -5.56893166784659        5.20848260015733       -0.34817800102299
C           -6.33532608054845        5.59772748354209       -3.01406049878059
H           -4.25984302433562        5.16740482390432       -3.51062156214154
C           -6.89810341448561        5.51878127299472       -0.66120693276362
H           -5.24519067824600        5.04134584566750        0.68389003650758
C           -7.28510827146911        5.72062828674223       -1.99195659362211
H           -6.63546774662202        5.74198866682011       -4.05759837014738
H           -7.63762563505310        5.60511262880034        0.14216110001888
H           -8.32730102408431        5.96821660543712       -2.23337457358853
N            1.42074326481302        0.46360948640479        0.12810049438077
C            2.58728377711912        0.57007316125108        0.58963049160617
C            1.04322500516006        5.11054381002783        4.03897578385273
O            1.23534949586791        4.02846747964794        3.13134156794912
C            2.22346621014807        4.13829010446925        2.22793214246184
O            2.99511056800446        5.06750507671669        2.19832554765909
C            2.15387451349074        3.02537948119776        1.25061310832615
C            3.14051456861415        2.97493114588800        0.13548101689753
C            3.13106348584242        1.85821952991987        1.15955782033571
C            4.31311391383984        1.77411460661098        2.01935556074709
C            5.10735049445141        0.69647081655455        1.96077900069121
C            4.76230841816397       -0.41027191607669        1.11490656051064
C            3.57597318414492       -0.48632182127335        0.48290096920839
H            2.00376160824714        5.53230515188605        4.33859886371262
H            0.52156279025463        4.70406235495324        4.90133798666753
H            0.43917462963203        5.88334833326205        3.56109254051524
H            1.13965235927682        2.72378266246496        1.04382278705884
H            0.36273457136675        2.63537102267692       -2.08144136322122
H            2.78778076215216        2.72532718380295       -0.84962336662102
H            3.96019672557088        3.67554844683423        0.18024300602370
H            4.55813190723839        2.64183333185537        2.61497892611682
H            6.01432649131555        0.63732126166691        2.54139669827715
H            5.47752098871586       -1.21137076512444        1.02250270123551
H            3.28690225560586       -1.35722593845734       -0.08365926372725

 Bond Distances (Angstroems)
 ---------------------------
N1-C4=1.3714         N1-C9=1.3752         N1-Fe47=2.0307       N2-C11=1.3720        N2-C16=1.3707        N2-Fe47=2.0230       
C3-C4=1.4083         C3-C39=1.4182        C3-C106=1.5071       C4-N1=1.3714         C4-C3=1.4083         C4-C5=1.4548         
C5-C4=1.4548         C5-H6=1.0908         C5-C7=1.3638         H6-C5=1.0908         C7-C5=1.3638         C7-H8=1.0909         
C7-C9=1.4533         H8-C7=1.0909         C9-N1=1.3752         C9-C7=1.4533         C9-C10=1.4065        C10-C9=1.4065        
C10-C11=1.4122       C10-C17=1.5060       C11-N2=1.3720        C11-C10=1.4122       C11-C12=1.4495       C12-C11=1.4495       
C12-H13=1.0911       C12-C14=1.3669       H13-C12=1.0911       C14-C12=1.3669       C14-H15=1.0908       C14-C16=1.4497       
H15-C14=1.0908       C16-N2=1.3707        C16-C14=1.4497       C16-C26=1.4137       C17-C10=1.5060       C17-C18=1.4150       
C17-C23=1.4159       C18-C17=1.4150       C18-C19=1.4067       C18-O167=1.3775      C19-C18=1.4067       C19-C20=1.3980       
C19-H163=1.0963      C20-C19=1.3980       C20-H21=1.0980       C20-C22=1.3972       H21-C20=1.0980       C22-C20=1.3972       
C22-C23=1.4079       C22-H164=1.0962      C23-C17=1.4159       C23-C22=1.4079       C23-O168=1.3751      N24-C27=1.3707       
N24-C32=1.3849       N24-Fe47=2.0122      N25-C34=1.3955       N25-C39=1.3565       N25-Fe47=2.0090      C26-C16=1.4137       
C26-C27=1.4104       C26-C49=1.5090       C27-N24=1.3707       C27-C26=1.4104       C27-C28=1.4535       C28-C27=1.4535       
C28-H29=1.0907       C28-C30=1.3620       H29-C28=1.0907       C30-C28=1.3620       C30-H31=1.0898       C30-C32=1.4522       
H31-C30=1.0898       C32-N24=1.3849       C32-C30=1.4522       C32-C33=1.3814       C33-C32=1.3814       C33-C34=1.4441       
C33-C40=1.4981       C34-N25=1.3955       C34-C33=1.4441       C34-C35=1.4661       C34-H232=1.1534      C35-C34=1.4661       
C35-H36=1.0861       C35-C37=1.3565       H36-C35=1.0861       C37-C35=1.3565       C37-H38=1.0898       C37-C39=1.4546       
H38-C37=1.0898       C39-C3=1.4182        C39-N25=1.3565       C39-C37=1.4546       C40-C33=1.4981       C40-C41=1.4166       
C40-C46=1.4149       C41-C40=1.4166       C41-C42=1.4061       C41-O169=1.3781      C42-C41=1.4061       C42-C43=1.3985       
C42-H165=1.0959      C43-C42=1.3985       C43-H44=1.0979       C43-C45=1.3979       H44-C43=1.0979       C45-C43=1.3979       
C45-C46=1.4076       C45-H166=1.0963      C46-C40=1.4149       C46-C45=1.4076       C46-O170=1.3738      Fe47-N1=2.0307       
Fe47-N2=2.0230       Fe47-N24=2.0122      Fe47-N25=2.0090      Fe47-Cl48=2.3166     Fe47-N215=1.7106     Cl48-Fe47=2.3166     
C49-C26=1.5090       C49-C50=1.4206       C49-C51=1.4231       C50-C49=1.4206       C50-C52=1.4094       C50-N53=1.4193       
C51-C49=1.4231       C51-C54=1.4117       C51-N55=1.4151       C52-C50=1.4094       C52-H56=1.0934       C52-C57=1.3982       
N53-C50=1.4193       N53-C58=1.3760       N53-H59=1.0217       C54-C51=1.4117       C54-C57=1.3973       C54-H60=1.0929       
N55-C51=1.4151       N55-C61=1.3809       N55-H62=1.0247       H56-C52=1.0934       C57-C52=1.3982       C57-C54=1.3973       
C57-H63=1.0977       C58-N53=1.3760       C58-O64=1.2267       C58-C65=1.5146       H59-N53=1.0217       H60-C54=1.0929       
C61-N55=1.3809       C61-O66=1.2275       C61-C67=1.5099       H62-N55=1.0247       H63-C57=1.0977       O64-C58=1.2267       
C65-C58=1.5146       C65-C68=1.5068       C65-H69=1.0950       C65-C70=1.5333       O66-C61=1.2275       C67-C61=1.5099       
C67-C71=1.5085       C67-H72=1.0961       C67-C73=1.5347       C68-C65=1.5068       C68-C70=1.5098       C68-H74=1.0927       
C68-H75=1.0918       H69-C65=1.0950       C70-C65=1.5333       C70-C68=1.5098       C70-H76=1.0928       C70-C77=1.4965       
C71-C67=1.5085       C71-C73=1.5103       C71-H78=1.0937       C71-H79=1.0935       H72-C67=1.0961       C73-C67=1.5347       
C73-C71=1.5103       C73-H80=1.0945       C73-C81=1.4917       H74-C68=1.0927       H75-C68=1.0918       H76-C70=1.0928       
C77-C70=1.4965       C77-O82=1.3441       C77-O83=1.2160       H78-C71=1.0937       H79-C71=1.0935       H80-C73=1.0945       
C81-C73=1.4917       C81-O84=1.3517       C81-O85=1.2145       O82-C77=1.3441       O82-C86=1.4590       O83-C77=1.2160       
O84-C81=1.3517       O84-C87=1.4551       O85-C81=1.2145       C86-O82=1.4590       C86-C88=1.5347       C86-C89=1.5280       
C86-H90=1.1044       C87-O84=1.4551       C87-C91=1.5295       C87-C92=1.5329       C87-H93=1.1066       C88-C86=1.5347       
C88-H94=1.1026       C88-H95=1.0982       C88-H96=1.0987       C89-C86=1.5280       C89-H97=1.0975       C89-H98=1.0983       
C89-H99=1.0975       H90-C86=1.1044       C91-C87=1.5295       C91-H100=1.0977      C91-H101=1.1004      C91-H102=1.0987      
C92-C87=1.5329       C92-H103=1.0985      C92-H104=1.0989      C92-H105=1.1007      H93-C87=1.1066       H94-C88=1.1026       
H95-C88=1.0982       H96-C88=1.0987       H97-C89=1.0975       H98-C89=1.0983       H99-C89=1.0975       H100-C91=1.0977      
H101-C91=1.1004      H102-C91=1.0987      H103-C92=1.0985      H104-C92=1.0989      H105-C92=1.1007      C106-C3=1.5071       
C106-C107=1.4213     C106-C108=1.4223     C107-C106=1.4213     C107-C109=1.4088     C107-N110=1.4185     C108-C106=1.4223     
C108-C111=1.4111     C108-N112=1.4142     C109-C107=1.4088     C109-H113=1.0937     C109-C114=1.3991     N110-C107=1.4185     
N110-C115=1.3774     N110-H116=1.0213     C111-C108=1.4111     C111-C114=1.3980     C111-H117=1.0933     N112-C108=1.4142     
N112-C118=1.3804     N112-H119=1.0239     H113-C109=1.0937     C114-C109=1.3991     C114-C111=1.3980     C114-H120=1.0978     
C115-N110=1.3774     C115-O121=1.2253     C115-C122=1.5144     H116-N110=1.0213     H117-C111=1.0933     C118-N112=1.3804     
C118-O123=1.2272     C118-C124=1.5094     H119-N112=1.0239     H120-C114=1.0978     O121-C115=1.2253     C122-C115=1.5144     
C122-C125=1.5088     C122-H126=1.0955     C122-C127=1.5286     O123-C118=1.2272     C124-C118=1.5094     C124-C128=1.5071     
C124-H129=1.0963     C124-C130=1.5364     C125-C122=1.5088     C125-C127=1.5108     C125-H131=1.0932     C125-H132=1.0925     
H126-C122=1.0955     C127-C122=1.5286     C127-C125=1.5108     C127-H133=1.0932     C127-C134=1.4969     C128-C124=1.5071     
C128-C130=1.5095     C128-H135=1.0932     C128-H136=1.0932     H129-C124=1.0963     C130-C124=1.5364     C130-C128=1.5095     
C130-H137=1.0943     C130-C138=1.4926     H131-C125=1.0932     H132-C125=1.0925     H133-C127=1.0932     C134-C127=1.4969     
C134-O139=1.3431     C134-O140=1.2170     H135-C128=1.0932     H136-C128=1.0932     H137-C130=1.0943     C138-C130=1.4926     
C138-O141=1.3508     C138-O142=1.2144     O139-C134=1.3431     O139-C143=1.4584     O140-C134=1.2170     O141-C138=1.3508     
O141-C144=1.4557     O142-C138=1.2144     C143-O139=1.4584     C143-C145=1.5296     C143-C146=1.5314     C143-H147=1.1068     
C144-O141=1.4557     C144-C148=1.5341     C144-C149=1.5283     C144-H150=1.1052     C145-C143=1.5296     C145-H151=1.0979     
C145-H152=1.1007     C145-H153=1.0985     C146-C143=1.5314     C146-H154=1.0975     C146-H155=1.0987     C146-H156=1.1009     
H147-C143=1.1068     C148-C144=1.5341     C148-H157=1.1021     C148-H158=1.0988     C148-H159=1.0989     C149-C144=1.5283     
C149-H160=1.0991     C149-H161=1.0983     C149-H162=1.0979     H150-C144=1.1052     H151-C145=1.0979     H152-C145=1.1007     
H153-C145=1.0985     H154-C146=1.0975     H155-C146=1.0987     H156-C146=1.1009     H157-C148=1.1021     H158-C148=1.0988     
H159-C148=1.0989     H160-C149=1.0991     H161-C149=1.0983     H162-C149=1.0979     H163-C19=1.0963      H164-C22=1.0962      
H165-C42=1.0959      H166-C45=1.0963      O167-C18=1.3775      O167-C171=1.3940     O168-C23=1.3751      O168-C182=1.3910     
O169-C41=1.3781      O169-C193=1.3895     O170-C46=1.3738      O170-C204=1.3907     C171-O167=1.3940     C171-C172=1.4027     
C171-C173=1.4011     C172-C171=1.4027     C172-C174=1.4010     C172-H175=1.0949     C173-C171=1.4011     C173-C176=1.4013     
C173-H177=1.0947     C174-C172=1.4010     C174-C178=1.4013     C174-H179=1.0959     H175-C172=1.0949     C176-C173=1.4013     
C176-C178=1.4009     C176-H180=1.0958     H177-C173=1.0947     C178-C174=1.4013     C178-C176=1.4009     C178-H181=1.0982     
H179-C174=1.0959     H180-C176=1.0958     H181-C178=1.0982     C182-O168=1.3910     C182-C183=1.4024     C182-C184=1.4018     
C183-C182=1.4024     C183-C185=1.4002     C183-H186=1.0953     C184-C182=1.4018     C184-C187=1.4004     C184-H188=1.0948     
C185-C183=1.4002     C185-C189=1.4008     C185-H190=1.0956     H186-C183=1.0953     C187-C184=1.4004     C187-C189=1.4006     
C187-H191=1.0954     H188-C184=1.0948     C189-C185=1.4008     C189-C187=1.4006     C189-H192=1.0980     H190-C185=1.0956     
H191-C187=1.0954     H192-C189=1.0980     C193-O169=1.3895     C193-C194=1.4028     C193-C195=1.4044     C194-C193=1.4028     
C194-C196=1.4012     C194-H197=1.0949     C195-C193=1.4044     C195-C198=1.3985     C195-H199=1.0950     C196-C194=1.4012     
C196-C200=1.4012     C196-H201=1.0971     H197-C194=1.0949     C198-C195=1.3985     C198-C200=1.4025     C198-H202=1.0955     
H199-C195=1.0950     C200-C196=1.4012     C200-C198=1.4025     C200-H203=1.0979     H201-C196=1.0971     H202-C198=1.0955     
H203-C200=1.0979     C204-O170=1.3907     C204-C205=1.4023     C204-C206=1.4022     C205-C204=1.4023     C205-C207=1.4004     
C205-H208=1.0951     C206-C204=1.4022     C206-C209=1.4003     C206-H210=1.0945     C207-C205=1.4004     C207-C211=1.4007     
C207-H212=1.0954     H208-C205=1.0951     C209-C206=1.4003     C209-C211=1.4005     C209-H213=1.0953     H210-C206=1.0945     
C211-C207=1.4007     C211-C209=1.4005     C211-H214=1.0981     H212-C207=1.0954     H213-C209=1.0953     H214-C211=1.0981     
N215-Fe47=1.7106     N215-C216=1.2590     C216-N215=1.2590     C216-C223=1.5099     C216-C227=1.4508     C217-O218=1.4253     
C217-H228=1.0910     C217-H229=1.0868     C217-H230=1.0911     O218-C217=1.4253     O218-C219=1.3433     C219-O218=1.3433     
C219-O220=1.2082     C219-C221=1.4828     O220-C219=1.2082     C221-C219=1.4828     C221-C222=1.4898     C221-C223=1.5249     
C221-H231=1.0781     C222-C221=1.4898     C222-C223=1.5152     C222-H233=1.0757     C222-H234=1.0792     C223-C216=1.5099     
C223-C221=1.5249     C223-C222=1.5152     C223-C224=1.4641     C224-C223=1.4641     C224-C225=1.3400     C224-H235=1.0806     
C225-C224=1.3400     C225-C226=1.4351     C225-H236=1.0785     C226-C225=1.4351     C226-C227=1.3463     C226-H237=1.0779     
C227-C216=1.4508     C227-C226=1.3463     C227-H238=1.0784     H228-C217=1.0910     H229-C217=1.0868     H230-C217=1.0911     
H231-C221=1.0781     H232-C34=1.1534      H233-C222=1.0757     H234-C222=1.0792     H235-C224=1.0806     H236-C225=1.0785     
H237-C226=1.0779     H238-C227=1.0784     
 C  H  Rav=1.0954 sigma=0.0084  Rmin=1.0757  Rmax=1.1534    95
 C  C  Rav=1.4443 sigma=0.0543  Rmin=1.3400  Rmax=1.5364   110
 N  H  Rav=1.0229 sigma=0.0014  Rmin=1.0213  Rmax=1.0247     4
 N  C  Rav=1.3787 sigma=0.0353  Rmin=1.2590  Rmax=1.4193    17
 O  C  Rav=1.3346 sigma=0.0878  Rmin=1.2082  Rmax=1.4590    27
 Fe N  Rav=1.9571 sigma=0.1235  Rmin=1.7106  Rmax=2.0307     5
 Fe Cl Rav=2.3166 sigma=0.0000  Rmin=2.3166  Rmax=2.3166     1

 selected bond angles (degree)
 --------------------
C9-N1-C4=107.02                Fe47-N1-C4=126.44              Fe47-N1-C9=126.53              C16-N2-C11=107.00              
Fe47-N2-C11=126.74             Fe47-N2-C16=126.25             C39-C3-C4=122.83               C106-C3-C4=117.74              
C106-C3-C39=119.42             C3-C4-N1=126.50                C5-C4-N1=109.69                C5-C4-C3=123.76                
H6-C5-C4=124.52                C7-C5-C4=106.76                C7-C5-H6=128.71                H8-C7-C5=128.47                
C9-C7-C5=106.97                C9-C7-H8=124.55                C7-C9-N1=109.51                C10-C9-N1=126.31               
C10-C9-C7=124.00               C11-C10-C9=122.71              C17-C10-C9=118.88              C17-C10-C11=118.17             

 selected dihedral angles (degree)
 ---------------------------------
C3-C4-N1-C9=182.25            C3-C4-N1-Fe47=  1.29          C5-C4-N1-C9=359.75            C5-C4-N1-Fe47=178.79          
N1-C4-C3-C39=  6.14           N1-C4-C3-C106=186.35          C5-C4-C3-C39=188.97           C5-C4-C3-C106=  9.18          
H6-C5-C4-N1=179.47            H6-C5-C4-C3=357.06            C7-C5-C4-N1=358.73            C7-C5-C4-C3=176.31            
H8-C7-C5-C4=180.71            H8-C7-C5-H6=359.93            C9-C7-C5-C4=  2.17            C9-C7-C5-H6=181.38            
C7-C9-N1-C4=  1.61            C7-C9-N1-Fe47=182.57          C10-C9-N1-C4=186.37           C10-C9-N1-Fe47=  7.33         
N1-C9-C7-C5=357.58            N1-C9-C7-H8=178.96            C10-C9-C7-C5=172.94           C10-C9-C7-H8=354.32           
C11-C10-C9-N1=  5.53          C11-C10-C9-C7=190.95          C17-C10-C9-N1=179.94          C17-C10-C9-C7=  5.37          
           -------------------------------------------------
          |                Final Singlepoint                |
           -------------------------------------------------

          ...................................................
          :                      SETUP                      :
          :.................................................:
          :  # basis functions                 667          :
          :  # atomic orbitals                 665          :
          :  # shells                          379          :
          :  # electrons                       707          :
          :  max. iterations                   250          :
          :  Hamiltonian                  GFN2-xTB          :
          :  restarted?                      false          :
          :  GBSA solvation                   true          :
          :  PC potential                    false          :
          :  electronic temp.          300.0000000     K    :
          :  accuracy                    1.0000000          :
          :  -> integral cutoff          0.2500000E+02      :
          :  -> integral neglect         0.1000000E-07      :
          :  -> SCF convergence          0.1000000E-05 Eh   :
          :  -> wf. convergence          0.1000000E-03 e    :
          :  Broyden damping             0.4000000          :
          :  net charge                          0          :
          :  unpaired electrons                  0          :
          ...................................................

 iter      E             dE          RMSdq      gap      omega  full diag
   1   -398.7472116 -0.398747E+03  0.133E-04    0.24       0.0  T
   2   -398.7472115  0.146082E-07  0.287E-04    0.24      22.6  T
   3   -398.7472116 -0.158770E-07  0.940E-05    0.24      69.0  T

   *** convergence criteria satisfied after 3 iterations ***

         #    Occupation            Energy/Eh            Energy/eV
      -------------------------------------------------------------
         1        2.0000           -1.0009499             -27.2372
       ...           ...                  ...                  ...
       348        2.0000           -0.3769025             -10.2560
       349        2.0000           -0.3740383             -10.1781
       350        2.0000           -0.3701103             -10.0712
       351        2.0000           -0.3609101              -9.8209
       352        2.0000           -0.3521722              -9.5831
       353        2.0000           -0.3439174              -9.3585
       354        0.9912           -0.3214321              -8.7466 (HOMO)
       355        0.0088           -0.3124617              -8.5025 (LUMO)
       356                         -0.3015631              -8.2060
       357                         -0.2791630              -7.5964
       358                         -0.2682274              -7.2988
       359                         -0.2591996              -7.0532
       ...                                ...                  ...
       665                          1.5009935              40.8441
      -------------------------------------------------------------
                  HL-Gap            0.0089704 Eh            0.2441 eV
             Fermi-level           -0.3248108 Eh           -8.8386 eV

 SCC (total)                   0 d,  0 h,  0 min,  0.551 sec
 SCC setup                      ...        0 min,  0.004 sec (  0.698%)
 Dispersion                     ...        0 min,  0.004 sec (  0.681%)
 classical contributions        ...        0 min,  0.001 sec (  0.144%)
 integral evaluation            ...        0 min,  0.023 sec (  4.268%)
 iterations                     ...        0 min,  0.198 sec ( 35.960%)
 molecular gradient             ...        0 min,  0.303 sec ( 54.998%)
 printout                       ...        0 min,  0.018 sec (  3.249%)

         :::::::::::::::::::::::::::::::::::::::::::::::::::::
         ::                     SUMMARY                     ::
         :::::::::::::::::::::::::::::::::::::::::::::::::::::
         :: total energy            -393.535315669844 Eh    ::
         :: total w/o Gsasa/hb      -393.425261801060 Eh    ::
         :: gradient norm              0.000948042610 Eh/a0 ::
         :: HOMO-LUMO gap              0.244096796961 eV    ::
         ::.................................................::
         :: SCC energy              -398.724605212280 Eh    ::
         :: -> isotropic ES            0.549799776347 Eh    ::
         :: -> anisotropic ES          0.000658347590 Eh    ::
         :: -> anisotropic XC          0.153961548191 Eh    ::
         :: -> dispersion             -0.344552843043 Eh    ::
         :: -> Gsolv                  -0.162506669948 Eh    ::
         ::    -> Gelec               -0.052452801163 Eh    ::
         ::    -> Gsasa               -0.108519855948 Eh    ::
         ::    -> Ghb                 -0.006487450414 Eh    ::
         ::    -> Gshift               0.004953437577 Eh    ::
         :: repulsion energy           5.174600478456 Eh    ::
         :: add. restraining           0.014689063979 Eh    ::
         :: total charge               0.000000000648 e     ::
         :::::::::::::::::::::::::::::::::::::::::::::::::::::

           -------------------------------------------------
          |                Property Printout                |
           -------------------------------------------------

    * Orbital Energies and Occupations

         #    Occupation            Energy/Eh            Energy/eV
      -------------------------------------------------------------
         1        2.0000           -1.0009499             -27.2372
       ...           ...                  ...                  ...
       342        2.0000           -0.3856967             -10.4953
       343        2.0000           -0.3855152             -10.4904
       344        2.0000           -0.3842882             -10.4570
       345        2.0000           -0.3810275             -10.3683
       346        2.0000           -0.3782080             -10.2916
       347        2.0000           -0.3779946             -10.2858
       348        2.0000           -0.3769025             -10.2560
       349        2.0000           -0.3740383             -10.1781
       350        2.0000           -0.3701103             -10.0712
       351        2.0000           -0.3609101              -9.8209
       352        2.0000           -0.3521722              -9.5831
       353        2.0000           -0.3439174              -9.3585
       354        0.9912           -0.3214321              -8.7466 (HOMO)
       355        0.0088           -0.3124617              -8.5025 (LUMO)
       356                         -0.3015631              -8.2060
       357                         -0.2791630              -7.5964
       358                         -0.2682274              -7.2988
       359                         -0.2591996              -7.0532
       360                         -0.2584308              -7.0323
       361                         -0.2522654              -6.8645
       362                         -0.2502906              -6.8108
       363                         -0.2497609              -6.7963
       364                         -0.2472505              -6.7280
       365                         -0.2471821              -6.7262
       ...                                ...                  ...
       665                          1.5009935              40.8441
      -------------------------------------------------------------
                  HL-Gap            0.0089704 Eh            0.2441 eV
             Fermi-level           -0.3248108 Eh           -8.8386 eV

     #   Z          covCN         q      C6AA      α(0)
     1   7 N        2.611    -0.201    25.376     7.481
     2   7 N        2.617    -0.203    25.425     7.489
     3   6 C        2.949    -0.030    28.754     8.795
     4   6 C        3.092     0.078    26.149     8.381
     5   6 C        2.987    -0.052    29.295     8.878
     6   1 H        0.924     0.040     2.453     2.449
     7   6 C        2.988    -0.040    28.983     8.831
     8   1 H        0.924     0.035     2.518     2.481
     9   6 C        3.090     0.077    26.176     8.386
    10   6 C        2.949     0.011    27.766     8.642
    11   6 C        3.096     0.076    26.197     8.388
    12   6 C        2.992    -0.047    29.151     8.857
    13   1 H        0.924     0.027     2.635     2.538
    14   6 C        2.989    -0.056    29.390     8.893
    15   1 H        0.924     0.034     2.533     2.489
    16   6 C        3.098     0.071    26.304     8.405
    17   6 C        2.960    -0.031    28.772     8.798
    18   6 C        2.856     0.142    24.912     8.181
    19   6 C        2.902    -0.074    29.845     8.957
    20   6 C        2.909    -0.035    28.881     8.812
    21   1 H        0.923     0.054     2.273     2.358
    22   6 C        2.902    -0.073    29.811     8.952
    23   6 C        2.853     0.142    24.896     8.178
    24   7 N        2.620    -0.212    25.638     7.520
    25   7 N        2.615    -0.210    25.587     7.512
    26   6 C        2.949    -0.020    28.514     8.758
    27   6 C        3.085     0.078    26.168     8.386
    28   6 C        2.988    -0.044    29.088     8.847
    29   1 H        0.924     0.044     2.396     2.421
    30   6 C        2.988    -0.042    29.045     8.841
    31   1 H        0.925     0.036     2.503     2.474
    32   6 C        3.086     0.075    26.235     8.396
    33   6 C        2.950     0.006    27.886     8.661
    34   6 C        4.007     0.074    19.270     6.236
    35   6 C        2.982    -0.040    28.981     8.831
    36   1 H        0.925     0.058     2.219     2.329
    37   6 C        2.987    -0.055    29.368     8.890
    38   1 H        0.925     0.055     2.258     2.350
    39   6 C        3.097     0.078    26.145     8.380
    40   6 C        2.961    -0.034    28.843     8.809
    41   6 C        2.849     0.136    25.027     8.199
    42   6 C        2.902    -0.069    29.714     8.938
    43   6 C        2.909    -0.034    28.846     8.807
    44   1 H        0.924     0.060     2.197     2.318
    45   6 C        2.902    -0.069    29.728     8.940
    46   6 C        2.852     0.144    24.858     8.172
    47  26 Fe       4.583     0.752     5.038     7.241
    48  17 Cl       0.749    -0.593   118.940    16.682
    49   6 C        2.966    -0.026    28.657     8.781
    50   6 C        2.893     0.071    26.418     8.427
    51   6 C        2.893     0.076    26.312     8.410
    52   6 C        2.903    -0.056    29.397     8.890
    53   7 N        2.688    -0.158    24.421     7.340
    54   6 C        2.904    -0.054    29.349     8.883
    55   7 N        2.688    -0.160    24.467     7.346
    56   1 H        0.924     0.075     2.030     2.228
    57   6 C        2.908    -0.032    28.801     8.800
    58   6 C        2.746     0.275    22.348     7.740
    59   1 H        0.860     0.199     1.114     1.653
    60   1 H        0.924     0.078     2.004     2.214
    61   6 C        2.747     0.278    22.293     7.731
    62   1 H        0.859     0.199     1.109     1.650
    63   1 H        0.924     0.052     2.293     2.368
    64   8 O        0.857    -0.461    22.941     6.422
    65   6 C        3.856    -0.038    21.213     6.550
    66   8 O        0.857    -0.462    22.964     6.425
    67   6 C        3.856    -0.038    21.214     6.551
    68   6 C        3.803    -0.051    21.492     6.600
    69   1 H        0.924     0.052     2.291     2.367
    70   6 C        3.855    -0.043    21.300     6.564
    71   6 C        3.802    -0.049    21.446     6.593
    72   1 H        0.924     0.069     2.102     2.267
    73   6 C        3.855    -0.041    21.277     6.560
    74   1 H        0.924     0.079     1.985     2.203
    75   1 H        0.924     0.069     2.092     2.262
    76   1 H        0.924     0.083     1.944     2.181
    77   6 C        2.702     0.358    20.916     7.485
    78   1 H        0.924     0.073     2.054     2.241
    79   1 H        0.924     0.087     1.905     2.158
    80   1 H        0.924     0.080     1.980     2.201
    81   6 C        2.703     0.358    20.918     7.486
    82   8 O        1.700    -0.291    18.843     5.861
    83   8 O        0.856    -0.457    22.847     6.409
    84   8 O        1.700    -0.295    18.914     5.872
    85   8 O        0.856    -0.453    22.773     6.398
    86   6 C        3.729     0.119    18.726     6.178
    87   6 C        3.730     0.122    18.686     6.171
    88   6 C        3.745    -0.119    22.850     6.819
    89   6 C        3.747    -0.124    22.953     6.833
    90   1 H        0.923     0.052     2.294     2.369
    91   6 C        3.747    -0.122    22.904     6.826
    92   6 C        3.746    -0.119    22.841     6.817
    93   1 H        0.922     0.045     2.389     2.417
    94   1 H        0.923     0.054     2.266     2.354
    95   1 H        0.923     0.057     2.233     2.337
    96   1 H        0.923     0.060     2.194     2.316
    97   1 H        0.924     0.056     2.246     2.344
    98   1 H        0.923     0.063     2.167     2.302
    99   1 H        0.924     0.064     2.149     2.293
   100   1 H        0.924     0.055     2.258     2.350
   101   1 H        0.923     0.064     2.148     2.292
   102   1 H        0.923     0.061     2.185     2.312
   103   1 H        0.923     0.049     2.327     2.386
   104   1 H        0.923     0.060     2.200     2.319
   105   1 H        0.923     0.058     2.221     2.331
   106   6 C        2.967    -0.028    28.690     8.786
   107   6 C        2.893     0.070    26.424     8.428
   108   6 C        2.894     0.075    26.322     8.412
   109   6 C        2.903    -0.055    29.374     8.887
   110   7 N        2.689    -0.162    24.512     7.353
   111   6 C        2.903    -0.054    29.342     8.882
   112   7 N        2.689    -0.161    24.478     7.348
   113   1 H        0.924     0.075     2.034     2.230
   114   6 C        2.908    -0.032    28.789     8.798
   115   6 C        2.746     0.276    22.338     7.739
   116   1 H        0.860     0.198     1.114     1.653
   117   1 H        0.924     0.076     2.022     2.224
   118   6 C        2.746     0.278    22.298     7.732
   119   1 H        0.859     0.200     1.107     1.648
   120   1 H        0.924     0.052     2.296     2.370
   121   8 O        0.857    -0.458    22.880     6.413
   122   6 C        3.857    -0.041    21.260     6.558
   123   8 O        0.857    -0.462    22.955     6.424
   124   6 C        3.856    -0.038    21.220     6.551
   125   6 C        3.803    -0.052    21.499     6.601
   126   1 H        0.924     0.057     2.240     2.340
   127   6 C        3.855    -0.042    21.285     6.562
   128   6 C        3.803    -0.049    21.450     6.594
   129   1 H        0.924     0.067     2.118     2.276
   130   6 C        3.855    -0.041    21.268     6.559
   131   1 H        0.924     0.079     1.991     2.207
   132   1 H        0.924     0.071     2.080     2.255
   133   1 H        0.924     0.083     1.952     2.185
   134   6 C        2.703     0.358    20.925     7.487
   135   1 H        0.924     0.074     2.044     2.236
   136   1 H        0.924     0.086     1.921     2.167
   137   1 H        0.924     0.079     1.987     2.204
   138   6 C        2.703     0.358    20.920     7.486
   139   8 O        1.700    -0.288    18.789     5.852
   140   8 O        0.856    -0.458    22.865     6.411
   141   8 O        1.700    -0.295    18.904     5.870
   142   8 O        0.856    -0.453    22.759     6.396
   143   6 C        3.730     0.119    18.729     6.178
   144   6 C        3.731     0.120    18.707     6.174
   145   6 C        3.747    -0.125    22.964     6.835
   146   6 C        3.746    -0.120    22.863     6.820
   147   1 H        0.922     0.051     2.309     2.376
   148   6 C        3.745    -0.117    22.820     6.814
   149   6 C        3.747    -0.124    22.946     6.832
   150   1 H        0.922     0.048     2.343     2.394
   151   1 H        0.923     0.057     2.229     2.335
   152   1 H        0.923     0.064     2.150     2.293
   153   1 H        0.923     0.063     2.161     2.299
   154   1 H        0.924     0.051     2.312     2.378
   155   1 H        0.923     0.061     2.188     2.313
   156   1 H        0.923     0.059     2.208     2.324
   157   1 H        0.923     0.049     2.338     2.391
   158   1 H        0.923     0.058     2.226     2.333
   159   1 H        0.923     0.059     2.212     2.326
   160   1 H        0.923     0.057     2.235     2.338
   161   1 H        0.923     0.062     2.174     2.306
   162   1 H        0.923     0.064     2.154     2.295
   163   1 H        0.924     0.045     2.379     2.412
   164   1 H        0.924     0.047     2.364     2.405
   165   1 H        0.924     0.057     2.240     2.340
   166   1 H        0.924     0.054     2.277     2.360
   167   8 O        1.706    -0.294    18.893     5.869
   168   8 O        1.706    -0.290    18.816     5.857
   169   8 O        1.706    -0.288    18.777     5.851
   170   8 O        1.706    -0.283    18.699     5.838
   171   6 C        2.853     0.140    24.951     8.187
   172   6 C        2.905    -0.048    29.190     8.859
   173   6 C        2.906    -0.047    29.155     8.854
   174   6 C        2.909    -0.032    28.793     8.799
   175   1 H        0.924     0.050     2.322     2.383
   176   6 C        2.909    -0.030    28.756     8.793
   177   1 H        0.924     0.049     2.331     2.388
   178   6 C        2.905    -0.035    28.873     8.811
   179   1 H        0.924     0.051     2.306     2.375
   180   1 H        0.924     0.051     2.304     2.374
   181   1 H        0.923     0.051     2.313     2.378
   182   6 C        2.851     0.139    24.964     8.189
   183   6 C        2.905    -0.050    29.231     8.865
   184   6 C        2.906    -0.047    29.159     8.854
   185   6 C        2.909    -0.032    28.794     8.799
   186   1 H        0.924     0.042     2.421     2.433
   187   6 C        2.909    -0.030    28.750     8.792
   188   1 H        0.924     0.051     2.305     2.374
   189   6 C        2.905    -0.037    28.910     8.816
   190   1 H        0.924     0.048     2.348     2.397
   191   1 H        0.924     0.051     2.306     2.375
   192   1 H        0.923     0.048     2.342     2.393
   193   6 C        2.846     0.134    25.071     8.206
   194   6 C        2.905    -0.048    29.199     8.860
   195   6 C        2.906    -0.050    29.247     8.868
   196   6 C        2.909    -0.027    28.668     8.780
   197   1 H        0.924     0.041     2.437     2.441
   198   6 C        2.908    -0.029    28.725     8.788
   199   1 H        0.924     0.047     2.362     2.404
   200   6 C        2.905    -0.037    28.920     8.818
   201   1 H        0.924     0.049     2.337     2.391
   202   1 H        0.924     0.055     2.256     2.349
   203   1 H        0.923     0.047     2.352     2.398
   204   6 C        2.851     0.138    24.993     8.194
   205   6 C        2.905    -0.051    29.272     8.871
   206   6 C        2.906    -0.048    29.200     8.860
   207   6 C        2.910    -0.032    28.800     8.800
   208   1 H        0.924     0.043     2.405     2.425
   209   6 C        2.909    -0.030    28.749     8.792
   210   1 H        0.924     0.053     2.288     2.366
   211   6 C        2.905    -0.037    28.912     8.817
   212   1 H        0.924     0.050     2.322     2.383
   213   1 H        0.924     0.051     2.310     2.377
   214   1 H        0.923     0.049     2.335     2.390
   215   7 N        1.734    -0.328    29.265     8.005
   216   6 C        2.888     0.115    25.470     8.274
   217   6 C        3.646     0.029    20.417     6.493
   218   8 O        1.705    -0.282    18.684     5.836
   219   6 C        2.713     0.360    20.885     7.481
   220   8 O        0.856    -0.440    22.496     6.359
   221   6 C        3.861    -0.052    21.469     6.589
   222   6 C        3.813    -0.050    21.461     6.594
   223   6 C        3.926     0.032    19.970     6.351
   224   6 C        2.905    -0.036    28.890     8.813
   225   6 C        2.908    -0.037    28.921     8.818
   226   6 C        2.910    -0.027    28.681     8.782
   227   6 C        2.909    -0.038    28.940     8.821
   228   1 H        0.924     0.064     2.147     2.292
   229   1 H        0.925     0.079     1.992     2.207
   230   1 H        0.924     0.073     2.057     2.243
   231   1 H        0.926     0.082     1.958     2.188
   232   1 H        0.912     0.201     1.093     1.636
   233   1 H        0.926     0.063     2.161     2.299
   234   1 H        0.926     0.070     2.090     2.261
   235   1 H        0.926     0.058     2.218     2.329
   236   1 H        0.926     0.048     2.348     2.396
   237   1 H        0.926     0.049     2.328     2.386
   238   1 H        0.926     0.050     2.321     2.382

 Mol. C6AA /au·bohr⁶  :     706107.572785
 Mol. C8AA /au·bohr⁸  :   17288231.498023
 Mol. α(0) /au        :       1313.349979


Wiberg/Mayer (AO) data.
largest (>0.10) Wiberg bond orders for each atom

 ---------------------------------------------------------------------------
     #   Z sym  total        # sym  WBO       # sym  WBO       # sym  WBO
 ---------------------------------------------------------------------------
     1   7 N    3.435 --     4 C    1.251     9 C    1.240    47 Fe   0.605
     2   7 N    3.431 --    16 C    1.256    11 C    1.255    47 Fe   0.571
     3   6 C    3.932 --     4 C    1.335    39 C    1.242   106 C    1.003
     4   6 C    3.951 --     3 C    1.335     1 N    1.251     5 C    1.145
     5   6 C    3.961 --     7 C    1.676     4 C    1.145     6 H    0.970
     6   1 H    0.998 --     5 C    0.970
     7   6 C    3.969 --     5 C    1.676     9 C    1.149     8 H    0.970
     8   1 H    0.998 --     7 C    0.970
     9   6 C    3.946 --    10 C    1.332     1 N    1.240     7 C    1.149
    10   6 C    3.940 --     9 C    1.332    11 C    1.292    17 C    1.005
    11   6 C    3.944 --    10 C    1.292     2 N    1.255    12 C    1.170
    12   6 C    3.962 --    14 C    1.645    11 C    1.170    13 H    0.971
    13   1 H    0.999 --    12 C    0.971
    14   6 C    3.963 --    12 C    1.645    16 C    1.170    15 H    0.970
    15   1 H    0.998 --    14 C    0.970
    16   6 C    3.938 --    26 C    1.290     2 N    1.256    14 C    1.170
    17   6 C    3.973 --    18 C    1.339    23 C    1.338    10 C    1.005
                            20 C    0.101
    18   6 C    3.920 --    19 C    1.365    17 C    1.339   167 O    1.033
    19   6 C    3.977 --    20 C    1.438    18 C    1.365   163 H    0.964
    20   6 C    3.986 --    22 C    1.442    19 C    1.438    21 H    0.968
                            17 C    0.101
    21   1 H    0.996 --    20 C    0.968
    22   6 C    3.979 --    20 C    1.442    23 C    1.362   164 H    0.964
    23   6 C    3.919 --    22 C    1.362    17 C    1.338   168 O    1.036
    24   7 N    3.421 --    27 C    1.264    32 C    1.181    47 Fe   0.622
    25   7 N    3.403 --    39 C    1.350    34 C    1.067    47 Fe   0.584
    26   6 C    3.940 --    27 C    1.313    16 C    1.290    49 C    0.998
    27   6 C    3.945 --    26 C    1.313    24 N    1.264    28 C    1.144
    28   6 C    3.970 --    30 C    1.692    27 C    1.144    29 H    0.969
    29   1 H    0.997 --    28 C    0.969
    30   6 C    3.963 --    28 C    1.692    32 C    1.128    31 H    0.970
    31   1 H    0.998 --    30 C    0.970
    32   6 C    3.959 --    33 C    1.453    24 N    1.181    30 C    1.128
    33   6 C    3.929 --    32 C    1.453    34 C    1.022    40 C    1.009
    34   6 C    3.962 --    25 N    1.067    35 C    1.024    33 C    1.022
                           232 H    0.709
    35   6 C    3.961 --    37 C    1.714    34 C    1.024    36 H    0.967
    36   1 H    0.996 --    35 C    0.967
    37   6 C    3.968 --    35 C    1.714    39 C    1.154    38 H    0.967
    38   1 H    0.996 --    37 C    0.967
    39   6 C    3.949 --    25 N    1.350     3 C    1.242    37 C    1.154
    40   6 C    3.970 --    41 C    1.337    46 C    1.334    33 C    1.009
    41   6 C    3.920 --    42 C    1.371    40 C    1.337   169 O    1.029
    42   6 C    3.977 --    43 C    1.437    41 C    1.371   165 H    0.964
    43   6 C    3.984 --    45 C    1.443    42 C    1.437    44 H    0.968
    44   1 H    0.996 --    43 C    0.968
    45   6 C    3.977 --    43 C    1.443    46 C    1.363   166 H    0.964
    46   6 C    3.920 --    45 C    1.363    40 C    1.334   170 O    1.041
    47  26 Fe   5.120 --   215 N    1.207    24 N    0.622     1 N    0.605
                            25 N    0.584    48 Cl   0.574     2 N    0.571
                           216 C    0.119
    48  17 Cl   0.710 --    47 Fe   0.574
    49   6 C    3.972 --    50 C    1.347    51 C    1.340    26 C    0.998
    50   6 C    3.949 --    52 C    1.370    49 C    1.347    53 N    1.063
    51   6 C    3.950 --    54 C    1.364    49 C    1.340    55 N    1.077
    52   6 C    3.978 --    57 C    1.438    50 C    1.370    56 H    0.958
    53   7 N    3.503 --    58 C    1.220    50 C    1.063    59 H    0.919
                            64 O    0.168
    54   6 C    3.969 --    57 C    1.445    51 C    1.364    60 H    0.956
    55   7 N    3.502 --    61 C    1.207    51 C    1.077    62 H    0.918
                            66 O    0.160
    56   1 H    0.993 --    52 C    0.958
    57   6 C    3.987 --    54 C    1.445    52 C    1.438    63 H    0.968
    58   6 C    3.951 --    64 O    1.655    53 N    1.220    65 C    0.990
    59   1 H    0.960 --    53 N    0.919
    60   1 H    0.992 --    54 C    0.956
    61   6 C    3.948 --    66 O    1.656    55 N    1.207    67 C    1.000
    62   1 H    0.960 --    55 N    0.918
    63   1 H    0.996 --    57 C    0.968
    64   8 O    1.978 --    58 C    1.655    53 N    0.168
    65   6 C    3.940 --    58 C    0.990    69 H    0.963    68 C    0.959
                            70 C    0.894
    66   8 O    1.985 --    61 C    1.656    55 N    0.160
    67   6 C    3.939 --    61 C    1.000    72 H    0.964    71 C    0.956
                            73 C    0.886
    68   6 C    3.938 --    75 H    0.975    74 H    0.973    65 C    0.959
                            70 C    0.945
    69   1 H    0.997 --    65 C    0.963
    70   6 C    3.937 --    77 C    1.005    76 H    0.964    68 C    0.945
                            65 C    0.894
    71   6 C    3.936 --    78 H    0.974    79 H    0.967    67 C    0.956
                            73 C    0.943
    72   1 H    0.995 --    67 C    0.964
    73   6 C    3.937 --    81 C    1.013    80 H    0.963    71 C    0.943
                            67 C    0.886
    74   1 H    0.993 --    68 C    0.973
    75   1 H    0.995 --    68 C    0.975
    76   1 H    0.993 --    70 C    0.964
    77   6 C    3.919 --    83 O    1.695    82 O    1.146    70 C    1.005
    78   1 H    0.994 --    71 C    0.974
    79   1 H    0.992 --    71 C    0.967
    80   1 H    0.993 --    73 C    0.963
    81   6 C    3.918 --    85 O    1.699    84 O    1.131    73 C    1.013
    82   8 O    2.295 --    77 C    1.146    86 C    0.898    83 O    0.170
    83   8 O    2.002 --    77 C    1.695    82 O    0.170
    84   8 O    2.284 --    81 C    1.131    87 C    0.905    85 O    0.167
    85   8 O    2.005 --    81 C    1.699    84 O    0.167
    86   6 C    3.909 --    89 C    1.007    88 C    1.002    90 H    0.961
                            82 O    0.898
    87   6 C    3.913 --    91 C    1.007    92 C    1.003    93 H    0.962
                            84 O    0.905
    88   6 C    3.990 --    86 C    1.002    95 H    0.985    94 H    0.982
                            96 H    0.982
    89   6 C    3.989 --    86 C    1.007    97 H    0.984    99 H    0.983
                            98 H    0.981
    90   1 H    0.997 --    86 C    0.961
    91   6 C    3.989 --    87 C    1.007   100 H    0.985   101 H    0.983
                           102 H    0.982
    92   6 C    3.991 --    87 C    1.003   103 H    0.985   105 H    0.985
                           104 H    0.982
    93   1 H    0.998 --    87 C    0.962
    94   1 H    0.997 --    88 C    0.982
    95   1 H    0.997 --    88 C    0.985
    96   1 H    0.996 --    88 C    0.982
    97   1 H    0.997 --    89 C    0.984
    98   1 H    0.995 --    89 C    0.981
    99   1 H    0.996 --    89 C    0.983
   100   1 H    0.997 --    91 C    0.985
   101   1 H    0.996 --    91 C    0.983
   102   1 H    0.995 --    91 C    0.982
   103   1 H    0.998 --    92 C    0.985
   104   1 H    0.996 --    92 C    0.982
   105   1 H    0.997 --    92 C    0.985
   106   6 C    3.972 --   107 C    1.344   108 C    1.338     3 C    1.003
   107   6 C    3.948 --   109 C    1.372   106 C    1.344   110 N    1.063
   108   6 C    3.949 --   111 C    1.365   106 C    1.338   112 N    1.077
   109   6 C    3.970 --   114 C    1.437   107 C    1.372   113 H    0.958
   110   7 N    3.496 --   115 C    1.215   107 C    1.063   116 H    0.919
                           121 O    0.167
   111   6 C    3.970 --   114 C    1.444   108 C    1.365   117 H    0.957
   112   7 N    3.501 --   118 C    1.206   108 C    1.077   119 H    0.918
                           123 O    0.160
   113   1 H    0.993 --   109 C    0.958
   114   6 C    3.986 --   111 C    1.444   109 C    1.437   120 H    0.968
   115   6 C    3.950 --   121 O    1.662   110 N    1.215   122 C    0.989
   116   1 H    0.960 --   110 N    0.919
   117   1 H    0.993 --   111 C    0.957
   118   6 C    3.949 --   123 O    1.657   112 N    1.206   124 C    1.000
   119   1 H    0.959 --   112 N    0.918
   120   1 H    0.996 --   114 C    0.968
   121   8 O    1.984 --   115 C    1.662   110 N    0.167
   122   6 C    3.940 --   115 C    0.989   126 H    0.965   125 C    0.955
                           127 C    0.900
   123   8 O    1.976 --   118 C    1.657   112 N    0.160
   124   6 C    3.939 --   118 C    1.000   129 H    0.965   128 C    0.958
                           130 C    0.882
   125   6 C    3.937 --   132 H    0.974   131 H    0.973   122 C    0.955
                           127 C    0.944
   126   1 H    0.997 --   122 C    0.965
   127   6 C    3.938 --   134 C    1.005   133 H    0.964   125 C    0.944
                           122 C    0.900
   128   6 C    3.936 --   135 H    0.974   136 H    0.967   124 C    0.958
                           130 C    0.945
   129   1 H    0.995 --   124 C    0.965
   130   6 C    3.936 --   138 C    1.012   137 H    0.964   128 C    0.945
                           124 C    0.882
   131   1 H    0.993 --   125 C    0.973
   132   1 H    0.995 --   125 C    0.974
   133   1 H    0.993 --   127 C    0.964
   134   6 C    3.919 --   140 O    1.693   139 O    1.150   127 C    1.005
   135   1 H    0.994 --   128 C    0.974
   136   1 H    0.992 --   128 C    0.967
   137   1 H    0.994 --   130 C    0.964
   138   6 C    3.918 --   142 O    1.700   141 O    1.133   130 C    1.012
   139   8 O    2.299 --   134 C    1.150   143 C    0.899   140 O    0.170
   140   8 O    1.994 --   134 C    1.693   139 O    0.170
   141   8 O    2.285 --   138 C    1.133   144 C    0.904   142 O    0.167
   142   8 O    2.006 --   138 C    1.700   141 O    0.167
   143   6 C    3.910 --   145 C    1.007   146 C    1.003   147 H    0.961
                           139 O    0.899
   144   6 C    3.913 --   149 C    1.007   148 C    1.002   150 H    0.961
                           141 O    0.904
   145   6 C    3.989 --   143 C    1.007   151 H    0.984   152 H    0.983
                           153 H    0.981
   146   6 C    3.990 --   143 C    1.003   154 H    0.985   156 H    0.984
                           155 H    0.981
   147   1 H    0.997 --   143 C    0.961
   148   6 C    3.991 --   144 C    1.002   157 H    0.985   158 H    0.985
                           159 H    0.982
   149   6 C    3.989 --   144 C    1.007   160 H    0.984   162 H    0.983
                           161 H    0.982
   150   1 H    0.998 --   144 C    0.961
   151   1 H    0.997 --   145 C    0.984
   152   1 H    0.996 --   145 C    0.983
   153   1 H    0.995 --   145 C    0.981
   154   1 H    0.997 --   146 C    0.985
   155   1 H    0.996 --   146 C    0.981
   156   1 H    0.996 --   146 C    0.984
   157   1 H    0.998 --   148 C    0.985
   158   1 H    0.997 --   148 C    0.985
   159   1 H    0.996 --   148 C    0.982
   160   1 H    0.997 --   149 C    0.984
   161   1 H    0.995 --   149 C    0.982
   162   1 H    0.996 --   149 C    0.983
   163   1 H    0.997 --    19 C    0.964
   164   1 H    0.997 --    22 C    0.964
   165   1 H    0.995 --    42 C    0.964
   166   1 H    0.996 --    45 C    0.964
   167   8 O    2.246 --    18 C    1.033   171 C    0.974
   168   8 O    2.265 --    23 C    1.036   182 C    0.985
   169   8 O    2.273 --    41 C    1.029   193 C    0.990
   170   8 O    2.274 --    46 C    1.041   204 C    0.986
   171   6 C    3.924 --   173 C    1.396   172 C    1.389   167 O    0.974
                           178 C    0.104
   172   6 C    3.986 --   174 C    1.442   171 C    1.389   175 H    0.968
                           176 C    0.112
   173   6 C    3.986 --   176 C    1.440   171 C    1.396   177 H    0.968
                           174 C    0.111
   174   6 C    3.988 --   172 C    1.442   178 C    1.437   179 H    0.969
                           173 C    0.111
   175   1 H    0.997 --   172 C    0.968
   176   6 C    3.988 --   173 C    1.440   178 C    1.440   180 H    0.969
                           172 C    0.112
   177   1 H    0.998 --   173 C    0.968
   178   6 C    3.989 --   176 C    1.440   174 C    1.437   181 H    0.969
                           171 C    0.104
   179   1 H    0.997 --   174 C    0.969
   180   1 H    0.997 --   176 C    0.969
   181   1 H    0.997 --   178 C    0.969
   182   6 C    3.922 --   184 C    1.389   183 C    1.388   168 O    0.985
                           189 C    0.102
   183   6 C    3.986 --   185 C    1.444   182 C    1.388   186 H    0.968
                           187 C    0.111
   184   6 C    3.985 --   187 C    1.443   182 C    1.389   188 H    0.968
                           185 C    0.111
   185   6 C    3.989 --   183 C    1.444   189 C    1.436   190 H    0.969
                           184 C    0.111
   186   1 H    0.998 --   183 C    0.968
   187   6 C    3.988 --   184 C    1.443   189 C    1.438   191 H    0.969
                           183 C    0.111
   188   1 H    0.997 --   184 C    0.968
   189   6 C    3.987 --   187 C    1.438   185 C    1.436   192 H    0.969
                           182 C    0.102
   190   1 H    0.998 --   185 C    0.969
   191   1 H    0.997 --   187 C    0.969
   192   1 H    0.998 --   189 C    0.969
   193   6 C    3.919 --   194 C    1.388   195 C    1.375   169 O    0.990
                           200 C    0.101
   194   6 C    3.985 --   196 C    1.439   193 C    1.388   197 H    0.967
                           198 C    0.109
   195   6 C    3.984 --   198 C    1.448   193 C    1.375   199 H    0.966
                           196 C    0.110
   196   6 C    3.988 --   200 C    1.440   194 C    1.439   201 H    0.969
                           195 C    0.110
   197   1 H    0.998 --   194 C    0.967
   198   6 C    3.987 --   195 C    1.448   200 C    1.432   202 H    0.968
                           194 C    0.109
   199   1 H    0.998 --   195 C    0.966
   200   6 C    3.986 --   196 C    1.440   198 C    1.432   203 H    0.970
                           193 C    0.101
   201   1 H    0.997 --   196 C    0.969
   202   1 H    0.996 --   198 C    0.968
   203   1 H    0.998 --   200 C    0.970
   204   6 C    3.920 --   205 C    1.387   206 C    1.387   170 O    0.986
                           211 C    0.102
   205   6 C    3.986 --   207 C    1.443   204 C    1.387   208 H    0.968
                           209 C    0.110
   206   6 C    3.985 --   209 C    1.444   204 C    1.387   210 H    0.968
                           207 C    0.111
   207   6 C    3.988 --   205 C    1.443   211 C    1.437   212 H    0.969
                           206 C    0.111
   208   1 H    0.998 --   205 C    0.968
   209   6 C    3.988 --   206 C    1.444   211 C    1.437   213 H    0.969
                           205 C    0.110
   210   1 H    0.997 --   206 C    0.968
   211   6 C    3.987 --   209 C    1.437   207 C    1.437   214 H    0.969
                           204 C    0.102
   212   1 H    0.997 --   207 C    0.969
   213   1 H    0.997 --   209 C    0.969
   214   1 H    0.998 --   211 C    0.969
   215   7 N    3.346 --   216 C    1.705    47 Fe   1.207
   216   6 C    3.973 --   215 N    1.705   227 C    1.084   223 C    0.954
                            47 Fe   0.119
   217   6 C    3.915 --   229 H    0.978   230 H    0.975   228 H    0.974
                           218 O    0.947
   218   8 O    2.288 --   219 C    1.116   217 C    0.947   220 O    0.166
   219   6 C    3.916 --   220 O    1.716   218 O    1.116   221 C    1.005
   220   8 O    2.013 --   219 C    1.716   218 O    0.166
   221   6 C    3.940 --   219 C    1.005   222 C    0.970   231 H    0.932
                           223 C    0.868
   222   6 C    3.937 --   234 H    0.971   221 C    0.970   233 H    0.969
                           223 C    0.875
   223   6 C    3.932 --   224 C    1.065   216 C    0.954   222 C    0.875
                           221 C    0.868
   224   6 C    3.980 --   225 C    1.755   223 C    1.065   235 H    0.958
                           227 C    0.114
   225   6 C    3.986 --   224 C    1.755   226 C    1.165   236 H    0.968
   226   6 C    3.980 --   227 C    1.706   225 C    1.165   237 H    0.959
   227   6 C    3.974 --   226 C    1.706   216 C    1.084   238 H    0.964
                           224 C    0.114
   228   1 H    0.996 --   217 C    0.974
   229   1 H    0.993 --   217 C    0.978
   230   1 H    0.994 --   217 C    0.975
   231   1 H    0.993 --   221 C    0.932
   232   1 H    0.950 --    34 C    0.709
   233   1 H    0.995 --   222 C    0.969
   234   1 H    0.993 --   222 C    0.971
   235   1 H    0.992 --   224 C    0.958
   236   1 H    0.997 --   225 C    0.968
   237   1 H    0.991 --   226 C    0.959
   238   1 H    0.997 --   227 C    0.964
 ---------------------------------------------------------------------------

Topologies differ in total number of bonds
Writing topology from bond orders to xtbtopo.mol

molecular dipole:
                 x           y           z       tot (Debye)
 q only:        3.251       2.490      -0.933
   full:        3.743       2.538      -0.769      11.660
molecular quadrupole (traceless):
                xx          xy          yy          xz          yz          zz
 q only:       40.590     -14.429      56.800      17.702     -48.916     -97.390
  q+dip:       34.194     -20.735      62.405      19.748     -51.316     -96.599
   full:       36.486     -21.714      69.164      21.705     -58.198    -105.650

           -------------------------------------------------
          |                Geometry Summary                 |
           -------------------------------------------------

      molecular mass/u    :     1926.3147827
   center of mass at/Å    :       -0.2474716       0.2868999       0.1158514
  moments of inertia/u·Å² :        0.4816456E+05   0.6380980E+05   0.6515380E+05
rotational constants/cm⁻¹ :        0.3500008E-03   0.2641856E-03   0.2587360E-03

 * 229 selected distances

     #   Z          #   Z                                           value/Å
     1   7 N        4   6 C                                       1.3713560
     3   6 C        4   6 C                                       1.4083044
     5   6 C        6   1 H                                       1.0907584
     5   6 C        7   6 C                                       1.3637599
     7   6 C        8   1 H                                       1.0909196
     1   7 N        9   6 C                                       1.3751532
     9   6 C       10   6 C                                       1.4065083
     2   7 N       11   6 C                                       1.3719614
    10   6 C       11   6 C                                       1.4122288
    11   6 C       12   6 C                                       1.4495262
    12   6 C       13   1 H                                       1.0910677
    12   6 C       14   6 C                                       1.3669432
    14   6 C       15   1 H                                       1.0907525
     2   7 N       16   6 C                                       1.3706516
    17   6 C       18   6 C                                       1.4150401
    18   6 C       19   6 C                                       1.4066747
    19   6 C       20   6 C                                       1.3979783
    20   6 C       21   1 H                                       1.0979927
    20   6 C       22   6 C                                       1.3972112
    17   6 C       23   6 C                                       1.4158864
    22   6 C       23   6 C                                       1.4079064
    16   6 C       26   6 C                                       1.4137459
    24   7 N       27   6 C                                       1.3707341
    26   6 C       27   6 C                                       1.4103709
    28   6 C       29   1 H                                       1.0907270
    28   6 C       30   6 C                                       1.3620402
    30   6 C       31   1 H                                       1.0897879
    24   7 N       32   6 C                                       1.3849022
    32   6 C       33   6 C                                       1.3814393
    25   7 N       34   6 C                                       1.3955029
    33   6 C       34   6 C                                       1.4440973
    34   6 C       35   6 C                                       1.4660983
    35   6 C       36   1 H                                       1.0861479
    35   6 C       37   6 C                                       1.3564824
    37   6 C       38   1 H                                       1.0897929
     3   6 C       39   6 C                                       1.4182031
    25   7 N       39   6 C                                       1.3564898
    40   6 C       41   6 C                                       1.4166206
    41   6 C       42   6 C                                       1.4060505
    42   6 C       43   6 C                                       1.3984651
    43   6 C       44   1 H                                       1.0978895
    43   6 C       45   6 C                                       1.3978947
    40   6 C       46   6 C                                       1.4148645
    45   6 C       46   6 C                                       1.4075677
    49   6 C       50   6 C                                       1.4205840
    49   6 C       51   6 C                                       1.4231439
    50   6 C       52   6 C                                       1.4094419
    50   6 C       53   7 N                                       1.4192579
    51   6 C       54   6 C                                       1.4116549
    51   6 C       55   7 N                                       1.4151314
    52   6 C       56   1 H                                       1.0933884
    52   6 C       57   6 C                                       1.3982091
    54   6 C       57   6 C                                       1.3973203
    53   7 N       58   6 C                                       1.3759703
    53   7 N       59   1 H                                       1.0217426
    54   6 C       60   1 H                                       1.0929339
    55   7 N       61   6 C                                       1.3808950
    55   7 N       62   1 H                                       1.0246660
    57   6 C       63   1 H                                       1.0976650
    58   6 C       64   8 O                                       1.2266934
    61   6 C       66   8 O                                       1.2275309
    65   6 C       68   6 C                                       1.5067753
    65   6 C       69   1 H                                       1.0949566
    65   6 C       70   6 C                                       1.5332679
    68   6 C       70   6 C                                       1.5097575
    67   6 C       71   6 C                                       1.5084557
    67   6 C       72   1 H                                       1.0960673
    67   6 C       73   6 C                                       1.5347197
    71   6 C       73   6 C                                       1.5102827
    68   6 C       74   1 H                                       1.0926646
    68   6 C       75   1 H                                       1.0918203
    70   6 C       76   1 H                                       1.0928002
    71   6 C       78   1 H                                       1.0936925
    71   6 C       79   1 H                                       1.0934693
    73   6 C       80   1 H                                       1.0944879
    77   6 C       82   8 O                                       1.3440652
    77   6 C       83   8 O                                       1.2160036
    81   6 C       84   8 O                                       1.3517127
    81   6 C       85   8 O                                       1.2144661
    86   6 C       88   6 C                                       1.5347016
    86   6 C       89   6 C                                       1.5279680
    86   6 C       90   1 H                                       1.1043963
    87   6 C       91   6 C                                       1.5295424
    87   6 C       92   6 C                                       1.5328581
    87   6 C       93   1 H                                       1.1066404
    88   6 C       94   1 H                                       1.1026296
    88   6 C       95   1 H                                       1.0981561
    88   6 C       96   1 H                                       1.0987287
    89   6 C       97   1 H                                       1.0975230
    89   6 C       98   1 H                                       1.0982992
    89   6 C       99   1 H                                       1.0974747
    91   6 C      100   1 H                                       1.0977259
    91   6 C      101   1 H                                       1.1004390
    91   6 C      102   1 H                                       1.0986779
    92   6 C      103   1 H                                       1.0985096
    92   6 C      104   1 H                                       1.0989083
    92   6 C      105   1 H                                       1.1006936
   106   6 C      107   6 C                                       1.4212754
   106   6 C      108   6 C                                       1.4222715
   107   6 C      109   6 C                                       1.4088041
   107   6 C      110   7 N                                       1.4185237
   108   6 C      111   6 C                                       1.4110848
   108   6 C      112   7 N                                       1.4142406
   109   6 C      113   1 H                                       1.0937088
   109   6 C      114   6 C                                       1.3990995
   111   6 C      114   6 C                                       1.3980482
   110   7 N      115   6 C                                       1.3773647
   110   7 N      116   1 H                                       1.0213496 (min)
   111   6 C      117   1 H                                       1.0933149
   112   7 N      118   6 C                                       1.3803583
   112   7 N      119   1 H                                       1.0238727
   114   6 C      120   1 H                                       1.0977933
   115   6 C      121   8 O                                       1.2253476
   118   6 C      123   8 O                                       1.2272015
   122   6 C      125   6 C                                       1.5088462
   122   6 C      126   1 H                                       1.0955487
   122   6 C      127   6 C                                       1.5286376
   125   6 C      127   6 C                                       1.5107732
   124   6 C      128   6 C                                       1.5070852
   124   6 C      129   1 H                                       1.0963356
   124   6 C      130   6 C                                       1.5364215
   128   6 C      130   6 C                                       1.5095312
   125   6 C      131   1 H                                       1.0931773
   125   6 C      132   1 H                                       1.0925181
   127   6 C      133   1 H                                       1.0931722
   128   6 C      135   1 H                                       1.0932184
   128   6 C      136   1 H                                       1.0932427
   130   6 C      137   1 H                                       1.0943377
   134   6 C      139   8 O                                       1.3431058
   134   6 C      140   8 O                                       1.2170424
   138   6 C      141   8 O                                       1.3508417
   138   6 C      142   8 O                                       1.2144319
   143   6 C      145   6 C                                       1.5296142
   143   6 C      146   6 C                                       1.5313985
   143   6 C      147   1 H                                       1.1068126
   144   6 C      148   6 C                                       1.5341031
   144   6 C      149   6 C                                       1.5282734
   144   6 C      150   1 H                                       1.1051767
   145   6 C      151   1 H                                       1.0979113
   145   6 C      152   1 H                                       1.1006577
   145   6 C      153   1 H                                       1.0984733
   146   6 C      154   1 H                                       1.0974688
   146   6 C      155   1 H                                       1.0986753
   146   6 C      156   1 H                                       1.1009080
   148   6 C      157   1 H                                       1.1020827
   148   6 C      158   1 H                                       1.0987773
   148   6 C      159   1 H                                       1.0988563
   149   6 C      160   1 H                                       1.0991473
   149   6 C      161   1 H                                       1.0982590
   149   6 C      162   1 H                                       1.0979205
    19   6 C      163   1 H                                       1.0963488
    22   6 C      164   1 H                                       1.0961727
    42   6 C      165   1 H                                       1.0958923
    45   6 C      166   1 H                                       1.0962858
    18   6 C      167   8 O                                       1.3774964
    23   6 C      168   8 O                                       1.3751410
    41   6 C      169   8 O                                       1.3781472
    46   6 C      170   8 O                                       1.3737508
   167   8 O      171   6 C                                       1.3939763
   171   6 C      172   6 C                                       1.4027330
   171   6 C      173   6 C                                       1.4010890
   172   6 C      174   6 C                                       1.4010363
   172   6 C      175   1 H                                       1.0948655
   173   6 C      176   6 C                                       1.4012962
   173   6 C      177   1 H                                       1.0946653
   174   6 C      178   6 C                                       1.4012609
   176   6 C      178   6 C                                       1.4009431
   174   6 C      179   1 H                                       1.0959374
   176   6 C      180   1 H                                       1.0958158
   178   6 C      181   1 H                                       1.0981753
   168   8 O      182   6 C                                       1.3909935
   182   6 C      183   6 C                                       1.4023936
   182   6 C      184   6 C                                       1.4017566
   183   6 C      185   6 C                                       1.4002160
   183   6 C      186   1 H                                       1.0952680
   184   6 C      187   6 C                                       1.4003980
   184   6 C      188   1 H                                       1.0947865
   185   6 C      189   6 C                                       1.4007818
   187   6 C      189   6 C                                       1.4005775
   185   6 C      190   1 H                                       1.0956499
   187   6 C      191   1 H                                       1.0954143
   189   6 C      192   1 H                                       1.0980129
   169   8 O      193   6 C                                       1.3894692
   193   6 C      194   6 C                                       1.4028099
   193   6 C      195   6 C                                       1.4044495
   194   6 C      196   6 C                                       1.4012227
   194   6 C      197   1 H                                       1.0948776
   195   6 C      198   6 C                                       1.3985229
   195   6 C      199   1 H                                       1.0950356
   196   6 C      200   6 C                                       1.4011697
   198   6 C      200   6 C                                       1.4025203
   196   6 C      201   1 H                                       1.0971389
   198   6 C      202   1 H                                       1.0954832
   200   6 C      203   1 H                                       1.0979334
   170   8 O      204   6 C                                       1.3907260
   204   6 C      205   6 C                                       1.4023335
   204   6 C      206   6 C                                       1.4021668
   205   6 C      207   6 C                                       1.4003603
   205   6 C      208   1 H                                       1.0950570
   206   6 C      209   6 C                                       1.4003465
   206   6 C      210   1 H                                       1.0944896
   207   6 C      211   6 C                                       1.4006740
   209   6 C      211   6 C                                       1.4005035
   207   6 C      212   1 H                                       1.0953848
   209   6 C      213   1 H                                       1.0953295
   211   6 C      214   1 H                                       1.0980658
    47  26 Fe     215   7 N                                       1.7105635 (max)
   215   7 N      216   6 C                                       1.2590320
   217   6 C      218   8 O                                       1.4253425
   218   8 O      219   6 C                                       1.3433483
   219   6 C      220   8 O                                       1.2082021
   219   6 C      221   6 C                                       1.4827562
   221   6 C      222   6 C                                       1.4898066
   221   6 C      223   6 C                                       1.5249433
   222   6 C      223   6 C                                       1.5152122
   223   6 C      224   6 C                                       1.4640934
   224   6 C      225   6 C                                       1.3399849
   226   6 C      227   6 C                                       1.3463307
   217   6 C      228   1 H                                       1.0910029
   217   6 C      229   1 H                                       1.0867509
   217   6 C      230   1 H                                       1.0910895
   221   6 C      231   1 H                                       1.0781325
    34   6 C      232   1 H                                       1.1533657
   222   6 C      233   1 H                                       1.0757110
   222   6 C      234   1 H                                       1.0792346
   224   6 C      235   1 H                                       1.0806188
   225   6 C      236   1 H                                       1.0785274
   226   6 C      237   1 H                                       1.0778808
   227   6 C      238   1 H                                       1.0784372

 * 6 distinct bonds (by element types)

   Z      Z             #   av. dist./Å        max./Å        min./Å
   1 H    6 C          95     1.0953570     1.1533657     1.0757110
   6 C    6 C          89     1.4349500     1.5364215     1.3399849
   1 H    7 N           4     1.0229077     1.0246660     1.0213496
   6 C    7 N          17     1.3786779     1.4192579     1.2590320
   6 C    8 O          23     1.3132624     1.4253425     1.2082021
   7 N   26 Fe          1     1.7105635     1.7105635     1.7105635


optimized geometry written to: xtbopt.xyz


           -------------------------------------------------
          | TOTAL ENERGY             -393.535315669844 Eh   |
          | GRADIENT NORM               0.000948042610 Eh/α |
          | HOMO-LUMO GAP               0.244096796961 eV   |
           -------------------------------------------------

------------------------------------------------------------------------
 * finished run on 2026/07/31 at 15:20:17.994     
------------------------------------------------------------------------
 total:
 * wall-time:     0 d,  0 h,  1 min, 41.059 sec
 *  cpu-time:     0 d,  0 h,  3 min, 46.065 sec
 * ratio c/w:     2.237 speedup
 SCF:
 * wall-time:     0 d,  0 h,  0 min,  1.857 sec
 *  cpu-time:     0 d,  0 h,  0 min,  4.097 sec
 * ratio c/w:     2.206 speedup
 ANC optimizer:
 * wall-time:     0 d,  0 h,  1 min, 39.149 sec
 *  cpu-time:     0 d,  0 h,  3 min, 41.879 sec
 * ratio c/w:     2.238 speedup

