238
 energy: -393.535315669844 gnorm: 0.000948042610 xtb: 6.7.1 (edcfbbe)
N            0.16252697669600       -1.69079004298848       -1.02202609497270
N           -0.05381256048972       -0.95825295632484        1.72250156748156
C           -0.45074283816205       -0.98192618217141       -3.32045731828781
C           -0.00249437179213       -1.91433085781402       -2.36493870036419
C            0.41488210803843       -3.26920369678439       -2.69124340792681
H            0.37741107999873       -3.70364828823074       -3.69104711023144
C            0.85552079384140       -3.83515037172097       -1.53133708784673
H            1.25738066374299       -4.83723442216064       -1.37499935306388
C            0.66296890093729       -2.85102185673526       -0.47937897254357
C            0.86516191738014       -3.11146529689290        0.88793682949529
C            0.45960621981220       -2.21761528856417        1.90329224505969
C            0.40558850363782       -2.56740699911335        3.30894281898029
H            0.75189260572035       -3.51468065504069        3.72508526456137
C           -0.18975819242260       -1.52115108135787        3.95658803194958
H           -0.42559300576004       -1.42057450402910        5.01678004798304
C           -0.45953649617290       -0.51055791264750        2.95280340450671
C            1.42469380628511       -4.44787496895807        1.29893923734070
C            2.77163582027277       -4.57640076769065        1.71314498331717
C            3.30326521175434       -5.81964572367444        2.10101789111688
C            2.48334286206778       -6.95144061017374        2.06769166138806
H            2.89698235478250       -7.92587065442132        2.35919844985582
C            1.14781458568605       -6.86463189466584        1.66640977183991
C            0.62062108036508       -5.61328492295278        1.29439100542137
N           -0.83267980849476        1.69098199200810        0.94436609697623
N           -0.57023866043108        0.95042577974502       -1.78645240437860
C           -1.02870145615841        0.75226777764258        3.23564521823778
C           -1.13614314646686        1.78206342561376        2.27797987437014
C           -1.52188292468897        3.14559053463325        2.60144912082712
H           -1.82958990542407        3.47958150309251        3.59314041441053
C           -1.39873259647488        3.87572975305677        1.45825885845093
H           -1.59330113467716        4.93655156131286        1.30193379618404
C           -1.00847427938024        2.95462880058647        0.40562051716143
C           -0.92151851508109        3.30531310572719       -0.92773365651348
C           -0.74200314909546        2.32297875021664       -1.97090670504216
C           -1.01723962289137        2.58966998105954       -3.38602661647643
H           -1.19628071852971        3.58328296587141       -3.78651961355012
C           -0.98202259939962        1.39067636798394       -4.01944460829047
H           -1.14072370356070        1.18264574720128       -5.07736030906113
C           -0.67682510213504        0.38431167775401       -3.01454783496820
C           -0.99757814462982        4.73455322454081       -1.37023438397440
C            0.17618633729511        5.42954576990034       -1.75243310080220
C            0.12167496223821        6.76069089461095       -2.20194268085839
C           -1.11378326615503        7.41463732062782       -2.24319125297784
H           -1.16072230437790        8.45721342211947       -2.58406216021180
C           -2.29073186274369        6.76363941896445       -1.86226735250200
C           -2.23251200241208        5.42118720437415       -1.44312677523112
Fe          -0.22831497786736        0.03737590199758       -0.02988294635824
Cl          -2.45079629807634       -0.61605541389817       -0.01976028500876
C           -1.59903528108944        0.98770561703456        4.61271584202698
C           -0.82600836712687        1.55925898786217        5.65857177273547
C           -2.95155585264188        0.62299442607155        4.86373806821133
C           -1.39274203152210        1.76915205866463        6.93186822099656
N            0.51609170139615        1.91709139279309        5.36699688036213
C           -3.51456425659290        0.85760753752636        6.13682388390695
N           -3.68431531857180        0.00381163746582        3.82341470682084
H           -0.77615798057914        2.19695443863476        7.72704564334661
C           -2.72974916644290        1.42080241267330        7.14646758287462
C            1.49728583981379        2.35631988861919        6.22585089702953
H            0.77709197796551        1.79916681091327        4.38621634618869
H           -4.56122170679342        0.59226167612595        6.30595150285358
C           -5.01010701523543       -0.38237303285617        3.82632931076223
H           -3.16210806005497       -0.18491655560979        2.96224029687802
H           -3.17357767248081        1.59223673721392        8.13565648809026
O            1.36455519833489        2.49168119735467        7.43780650382371
C            2.81379756258467        2.67717146409132        5.54917330738771
O           -5.80188258995178       -0.13488741770646        4.73113537724523
C           -5.42934100772088       -1.16559332039734        2.60536378025339
C            4.08278362783955        2.32051479867715        6.27913346468136
H            2.85537814070359        2.65435556950348        4.45524445558196
C            3.65039520171365        3.76623128293785        6.23105532101952
C           -6.79169426002153       -0.89169685549060        2.01849706376591
H           -4.65132571817803       -1.48623843979528        1.90305178685247
C           -6.59131036505769       -2.13874217053825        2.84655359325375
H            3.97881141225312        1.81837633855158        7.24399747572441
H            4.94155185604766        2.03543489715143        5.66813601666643
H            3.22250546294838        4.18306444102639        7.14613594170754
C            4.41065927415517        4.72054449402062        5.36458927327269
H           -7.38398568256957       -0.10142484754875        2.48841632878593
H           -6.88947945637303       -1.00458714937311        0.93527563693152
H           -7.00029804744627       -2.12507909701264        3.86166237316258
C           -6.56515456668154       -3.47351353485551        2.18102366179159
O            4.50054465784498        5.92984462090110        5.94426575729709
O            4.90138019320642        4.43844070742434        4.28835746275163
O           -7.15922974474877       -4.40733678478334        2.95702355018872
O           -6.09049007594807       -3.70929100280312        1.08830675005404
C            5.22600733576144        6.98766856318731        5.24899267034096
C           -7.24229979916527       -5.76881271874437        2.45014535492343
C            4.22844146230573        7.83899227247950        4.45186102588587
C            5.99005834346686        7.77413759566351        6.31312525384702
H            5.92299170517993        6.49107034749952        4.55092825869913
C           -7.21623246081679       -6.69259407627534        3.66893498553633
C           -8.50558774365944       -5.91457878294703        1.59427774952189
H           -6.34993045043794       -5.93405635734311        1.81688069503335
H            3.71548794830816        7.22200054618494        3.69555971339524
H            3.47928283644307        8.28040301324846        5.12258047117156
H            4.75849041415609        8.65278541858476        3.93805818634455
H            6.67736848047781        7.11939098739082        6.86400474820896
H            6.58141821454561        8.57454372796947        5.84847012106901
H            5.30136866154641        8.22956366829234        7.03613566695495
H           -6.29756692526471       -6.53697555580409        4.24931289657734
H           -8.08082724881315       -6.50153784495588        4.32234084982715
H           -7.25824419660560       -7.74375587587354        3.35209628573209
H           -8.46583309613288       -5.22919478288236        0.73672801255013
H           -8.59387492997895       -6.94237937723830        1.21555546676605
H           -9.40549182073742       -5.69330114786544        2.18819274617932
C           -0.69945602389745       -1.47789184416222       -4.72166816353535
C            0.24964901111343       -1.28282661797459       -5.76146264544851
C           -1.89836794648633       -2.19084035048392       -4.99946378560477
C            0.03703174130428       -1.84588949046081       -7.03522973869542
N            1.38724499680799       -0.48776050341028       -5.46828314185004
C           -2.09939436933226       -2.75832477190796       -6.27567291910763
N           -2.87498301843568       -2.26124451856776       -3.97900198301554
H            0.78423983589897       -1.68935977616057       -7.81841372731880
C           -1.12835918325506       -2.58474841809801       -7.26637994721581
C            2.31856541583118        0.04247320951636       -6.33351588594199
H            1.41050767353964       -0.14005768626572       -4.50822255565379
H           -3.01589471880889       -3.32445132797727       -6.46239497156868
C           -4.09837798959213       -2.90016911256114       -4.00065142581138
H           -2.65884977869762       -1.72927246917104       -3.13129494665191
H           -1.28984342077930       -3.03046377743563       -8.25653674630097
O            2.41778298877267       -0.23838777189017       -7.52210728671801
C            3.21552243782664        1.08028370551381       -5.69185124213069
O           -4.47865714316340       -3.64182227209158       -4.90140754277392
C           -4.96859011146008       -2.59069890296841       -2.80678416166448
C            3.51317756372384        2.31498729238739       -6.50642170542690
H            3.16231303483359        1.21157933518806       -4.60550099189770
C            4.59758132187493        1.28093429578511       -6.31345002835448
C           -5.85485019862766       -3.68140375219760       -2.26253123750425
H           -4.60909585409275       -1.85003126081329       -2.08281815482690
C           -6.47728898535541       -2.58852942695824       -3.09732434863729
H            3.06867979098719        2.36821391642605       -7.50373057179609
H            3.61745690524581        3.25833692694034       -5.96529978452146
H            4.83954373312032        0.64427176192170       -7.16851738499656
C            5.72765624357024        1.61872905556600       -5.39174160038947
H           -5.78446939852346       -4.66004314847267       -2.74464913616067
H           -6.02770612913030       -3.67124580254452       -1.18308827119244
H           -6.75133686401642       -2.84773579233856       -4.12459480838753
C           -7.32436340191750       -1.54368921161055       -2.45031055886657
O            6.89580888628419        1.16158416985838       -5.87171113953650
O            5.60792729799590        2.24367841824229       -4.35429516093194
O           -8.33087188423571       -1.16616824130492       -3.26835181034369
O           -7.15539807789322       -1.08881457969858       -1.33703420356896
C            8.11304431033157        1.42488400697323       -5.11281487227601
C           -9.26084036679446       -0.15447602958493       -2.78807066460304
C            9.03127305377209        0.21937668162018       -5.32096668535102
C            8.71716834914361        2.75101539177944       -5.58354913292428
H            7.81692078543462        1.51144607529054       -4.04987000642399
C           -8.70897323184013        1.24099094020258       -3.10679711895665
C          -10.60732216464418       -0.44869838286480       -3.44840324414017
H           -9.32850666450572       -0.27456259515917       -1.69152347029927
H            8.53537079381400       -0.70071536721806       -4.98493018475140
H            9.29568565544377        0.10949262932892       -6.38372662920775
H            9.96250277983175        0.34951610391755       -4.75305980779683
H            8.01478510336014        3.57614011224523       -5.40958182873231
H            9.64394439747035        2.96569436523525       -5.03392531850993
H            8.96126940526136        2.70845586816817       -6.65621008397774
H           -7.74358520193359        1.39603922305345       -2.59829727064845
H           -8.56653964973860        1.36065196194041       -4.18971225989554
H           -9.41166907407477        2.01280377137748       -2.76327347942583
H          -10.94947522567849       -1.46341756962429       -3.20061140890845
H          -11.36869334711826        0.26360311969794       -3.10327547959212
H          -10.53425675765128       -0.36852663746703       -4.54095216440440
H            4.34921764135597       -5.89521693817964        2.42078798926980
H            0.51334022035797       -7.75803137516014        1.63684692217649
H            1.03618781470923        7.27300897733405       -2.52159266960756
H           -3.25383710880074        7.28655942524652       -1.89099458590585
O            3.51002273228656       -3.41352511765703        1.71408520137176
O           -0.67339248586692       -5.44165899574961        0.86185670305338
O            1.33435534283272        4.68311512679685       -1.72458947204974
O           -3.33414136768389        4.71255934123886       -1.02906128584129
C            4.84854038426023       -3.43617224789019        2.10270739455982
C            5.84701057796920       -3.72613768037356        1.16109350441577
C            5.18538768475995       -3.08704255955712        3.41712456191797
C            7.19255896938508       -3.67313749816614        1.54786585079931
H            5.55953777649064       -3.98365968954650        0.13650963804849
C            6.53469336262536       -3.03635005978639        3.79187149842562
H            4.38338872059231       -2.85502656037044        4.12512047850950
C            7.53988421277519       -3.33068613574532        2.86149588307173
H            7.97629784803196       -3.89839585691492        0.81568378396582
H            6.80333762694291       -2.76417669383897        4.81879119746401
H            8.59615573034741       -3.29155189911367        3.15940162369137
C           -1.63742727325471       -6.42564858544036        1.05489567805931
C           -2.00380172043799       -6.85016980096055        2.34029794887980
C           -2.29653974337244       -6.92662626434560       -0.07626009763822
C           -3.02287845331325       -7.79936026005966        2.48564048415665
H           -1.49175360144438       -6.43118457787586        3.21314958783254
C           -3.32000432047628       -7.86901652352752        0.08353639831712
H           -1.99972243782146       -6.56090397828339       -1.06454341240972
C           -3.68182344424194       -8.31344650366740        1.36149805952534
H           -3.30914780210924       -8.13647727182863        3.48806279819511
H           -3.83735654754185       -8.26069870377626       -0.79899636359323
H           -4.47920590868128       -9.05853996528954        1.48253097314495
C            2.60321200305406        5.24260895192584       -1.63744706683496
C            2.91215165848246        6.31959737759255       -0.79333362520277
C            3.61573107158295        4.60456152636682       -2.37241547536899
C            4.23707787611772        6.76758682169467       -0.70789041158428
H            2.12312509496911        6.79847384028712       -0.20437588703701
C            4.93637683086889        5.05308007411665       -2.26949881512333
H            3.36242356842866        3.75036220294695       -3.00903280705386
C            5.25215738451527        6.14172094964128       -1.44354093818952
H            4.47834116255250        7.61296288302534       -0.05150258355359
H            5.71139979757197        4.53457556502227       -2.84445598924965
H            6.28687072394255        6.50112553670658       -1.36834635220727
C           -4.62441678478142        5.09630738045498       -1.37841090130050
C           -5.00445035544438        5.28033425619434       -2.71566463840745
C           -5.56893166784659        5.20848260015733       -0.34817800102299
C           -6.33532608054845        5.59772748354209       -3.01406049878059
H           -4.25984302433562        5.16740482390432       -3.51062156214154
C           -6.89810341448561        5.51878127299472       -0.66120693276362
H           -5.24519067824600        5.04134584566750        0.68389003650758
C           -7.28510827146911        5.72062828674223       -1.99195659362211
H           -6.63546774662202        5.74198866682011       -4.05759837014738
H           -7.63762563505310        5.60511262880034        0.14216110001888
H           -8.32730102408431        5.96821660543712       -2.23337457358853
N            1.42074326481302        0.46360948640479        0.12810049438077
C            2.58728377711912        0.57007316125108        0.58963049160617
C            1.04322500516006        5.11054381002783        4.03897578385273
O            1.23534949586791        4.02846747964794        3.13134156794912
C            2.22346621014807        4.13829010446925        2.22793214246184
O            2.99511056800446        5.06750507671669        2.19832554765909
C            2.15387451349074        3.02537948119776        1.25061310832615
C            3.14051456861415        2.97493114588800        0.13548101689753
C            3.13106348584242        1.85821952991987        1.15955782033571
C            4.31311391383984        1.77411460661098        2.01935556074709
C            5.10735049445141        0.69647081655455        1.96077900069121
C            4.76230841816397       -0.41027191607669        1.11490656051064
C            3.57597318414492       -0.48632182127335        0.48290096920839
H            2.00376160824714        5.53230515188605        4.33859886371262
H            0.52156279025463        4.70406235495324        4.90133798666753
H            0.43917462963203        5.88334833326205        3.56109254051524
H            1.13965235927682        2.72378266246496        1.04382278705884
H            0.36273457136675        2.63537102267692       -2.08144136322122
H            2.78778076215216        2.72532718380295       -0.84962336662102
H            3.96019672557088        3.67554844683423        0.18024300602370
H            4.55813190723839        2.64183333185537        2.61497892611682
H            6.01432649131555        0.63732126166691        2.54139669827715
H            5.47752098871586       -1.21137076512444        1.02250270123551
H            3.28690225560586       -1.35722593845734       -0.08365926372725
