31

C      2.766367    1.956387    0.119287
C      2.302777    0.588515   -0.285653
C      2.861702   -0.046209   -1.403403
C      2.442961   -1.327793   -1.767227
C      1.471922   -1.995046   -1.013246
N      1.050469   -3.295920   -1.417579
C      0.922600   -1.380489    0.130693
C     -0.160839   -2.056078    0.940138
C     -1.548523   -1.858038    0.313373
C     -1.952275   -0.405437    0.296956
C     -2.460950    0.200352    1.457827
C     -2.786354    1.560273    1.457644
C     -2.599449    2.325294    0.303042
C     -2.085984    1.731922   -0.853352
C     -1.761313    0.372082   -0.858243
C      1.347491   -0.088297    0.486456
H      3.123664    2.528875   -0.763125
H      3.595990    1.863467    0.850767
H      1.934565    2.527634    0.584108
H      3.617305    0.453139   -1.997303
H      2.873211   -1.802242   -2.640396
H     -0.164590   -1.668560    1.982874
H      0.050737   -3.144463    1.014474
H     -2.293071   -2.437976    0.900956
H     -1.559916   -2.276063   -0.717081
H     -2.598225   -0.379014    2.362448
H     -3.178615    2.022292    2.354350
H     -2.848699    3.378509    0.305665
H     -1.934814    2.326860   -1.744744
H     -1.350097   -0.071624   -1.756579
H      0.921954    0.397648    1.356872
