31

C      2.818264    1.818742   -0.312707
C      2.282708    0.450571   -0.614430
C      2.585147   -0.174461   -1.831994
C      2.042969   -1.425293   -2.134632
C      1.182703   -2.060081   -1.232651
N      0.628835   -3.328533   -1.575640
C      0.863116   -1.439441   -0.007621
C     -0.115849   -2.067848    0.957876
C     -1.571573   -1.781927    0.561531
C     -1.887727   -0.308809    0.619289
C     -1.835563    0.475260   -0.546067
C     -2.075122    1.851078   -0.480370
C     -2.364853    2.453775    0.746735
C     -2.412492    1.681956    1.910924
C     -2.171248    0.305950    1.850149
C      1.411468   -0.178633    0.286551
H      2.093173    2.583346   -0.661806
H      2.978055    1.942899    0.779569
H      3.791520    1.982201   -0.822688
H      3.237262    0.308253   -2.549451
H      2.284903   -1.897812   -3.078473
H      0.067880   -1.699073    1.991191
H      0.041727   -3.167449    0.988164
H     -1.770632   -2.182145   -0.456745
H     -2.245916   -2.328340    1.256244
H     -1.597235    0.023590   -1.501147
H     -2.031197    2.450876   -1.380201
H     -2.548427    3.519259    0.796124
H     -2.631192    2.150884    2.861549
H     -2.198184   -0.279260    2.761000
H      1.147481    0.320465    1.211801
