31

C      4.473360    1.647376    0.069764
C      3.557673    0.463714   -0.034966
C      4.079501   -0.836972   -0.007387
C      3.230364   -1.938567   -0.131869
C      1.854296   -1.754753   -0.303158
N      1.008745   -2.897985   -0.411695
C      1.319907   -0.451174   -0.367627
C     -0.162715   -0.219595   -0.528415
C     -0.859458   -0.220481    0.835540
C     -2.338187    0.008123    0.674424
C     -3.205716   -1.079058    0.475673
C     -4.575196   -0.862703    0.293181
C     -5.085699    0.438377    0.297964
C     -4.226902    1.525755    0.481076
C     -2.856755    1.313892    0.663909
C      2.180366    0.651299   -0.225774
H      5.367189    1.399795    0.681211
H      4.802273    1.950412   -0.946116
H      3.953993    2.502342    0.552827
H      5.143223   -0.998840    0.116605
H      3.644161   -2.938591   -0.094322
H     -0.339948    0.754990   -1.035209
H     -0.604234   -1.004960   -1.180026
H     -0.683630   -1.192190    1.347679
H     -0.423350    0.575387    1.479141
H     -2.821226   -2.091461    0.460432
H     -5.240230   -1.703597    0.144531
H     -6.145698    0.604175    0.155259
H     -4.622415    2.533243    0.477846
H     -2.200554    2.165426    0.795339
H      1.776863    1.656621   -0.261501
