31

C      4.463454    0.261512    1.731929
C      3.515472   -0.336102    0.734585
C      3.914093   -1.424318   -0.053918
C      3.041498   -1.963831   -1.001308
C      1.768970   -1.412860   -1.185141
N      0.892733   -1.993955   -2.148599
C      1.367588   -0.296051   -0.423120
C     -0.006839    0.306927   -0.581300
C     -1.018243   -0.414317    0.314631
C     -2.389049    0.185842    0.154764
C     -2.788354    1.266076    0.959564
C     -4.050181    1.843725    0.787139
C     -4.916502    1.354465   -0.194475
C     -4.520835    0.289288   -1.008287
C     -3.259907   -0.291290   -0.839231
C      2.246874    0.230438    0.538976
H      5.056091    1.062855    1.243407
H      5.156244   -0.511498    2.127646
H      3.906750    0.694281    2.590328
H      4.898368   -1.859335    0.068725
H      3.356082   -2.813791   -1.594008
H     -0.331012    0.247182   -1.643219
H      0.021542    1.386805   -0.314609
H     -1.049107   -1.495200    0.053553
H     -0.696497   -0.340547    1.377107
H     -2.122735    1.660530    1.717417
H     -4.355043    2.673040    1.412255
H     -5.892247    1.803551   -0.327501
H     -5.189909   -0.084342   -1.772624
H     -2.961482   -1.109905   -1.482534
H      1.942181    1.080825    1.137947
