31

C     -4.468956   -1.011404   -1.127319
C     -3.557902   -0.183225   -0.270226
C     -4.054643    0.936417    0.411317
C     -3.213188    1.691945    1.230570
C     -1.872144    1.328835    1.393179
N     -1.031686    2.127740    2.223296
C     -1.367618    0.184638    0.741019
C      0.079805   -0.220299    0.877562
C      0.942393    0.504090   -0.160238
C      2.385953    0.101722   -0.022072
C      3.236098    0.801343    0.850772
C      4.568764    0.405842    1.002986
C      5.058359   -0.694572    0.293881
C      4.214908   -1.404050   -0.565587
C      2.881563   -1.011960   -0.720742
C     -2.218132   -0.560701   -0.093880
H     -3.904509   -1.474824   -1.964397
H     -4.926971   -1.813242   -0.511444
H     -5.275448   -0.384325   -1.563709
H     -5.092084    1.228401    0.303890
H     -3.605542    2.563198    1.740145
H      0.446406    0.009344    1.901867
H      0.178871   -1.320019    0.740204
H      0.845353    1.604415   -0.028741
H      0.580011    0.260844   -1.183628
H      2.866328    1.649933    1.413080
H      5.221037    0.950381    1.673424
H      6.089703   -1.000173    0.413837
H      4.593357   -2.260146   -1.109048
H      2.235746   -1.575783   -1.382562
H     -1.835833   -1.434366   -0.608971
