31

C      2.409115    2.176401    0.871406
C      2.248890    0.809852    0.274229
C      3.061171    0.405366   -0.794033
C      2.875775   -0.846592   -1.384254
C      1.869752   -1.702963   -0.924767
N      1.690771   -2.967934   -1.558168
C      1.039768   -1.305940    0.143656
C     -0.099054   -2.179519    0.618413
C     -1.346430   -2.019931   -0.262813
C     -1.901442   -0.619536   -0.197838
C     -2.699317   -0.224717    0.888828
C     -3.170380    1.088983    0.975875
C     -2.842461    2.018067   -0.015378
C     -2.042187    1.635321   -1.095213
C     -1.570970    0.322299   -1.187421
C      1.232194   -0.042230    0.729210
H      2.149521    2.162965    1.951427
H      3.458468    2.527963    0.775020
H      1.738561    2.888605    0.346649
H      3.835448    1.060802   -1.173388
H      3.510353   -1.147446   -2.208534
H     -0.356229   -1.941363    1.674176
H      0.217081   -3.244805    0.608704
H     -2.122601   -2.737429    0.081698
H     -1.103490   -2.292976   -1.313106
H     -2.949442   -0.932038    1.669840
H     -3.785382    1.388183    1.814720
H     -3.205070    3.035369    0.055375
H     -1.782725    2.357483   -1.858459
H     -0.939176    0.043076   -2.021601
H      0.579489    0.284683    1.530447
